 Entering Gaussian System, Link 0=g16
 Input=A12_crest_conformers_censo-1.com
 Output=A12_crest_conformers_censo-1.log
 Initial command:
 /uufs/chpc.utah.edu/sys/installdir/gaussian16/C01/AVX/g16/l1.exe "/scratch/general/vast/u6067110/5269538-notchpeak.peaks/Gau-3924795.inp" -scrdir="/scratch/general/vast/u6067110/5269538-notchpeak.peaks/"
 Entering Link 1 = /uufs/chpc.utah.edu/sys/installdir/gaussian16/C01/AVX/g16/l1.exe PID=   3924796.
  
 Copyright (c) 1988-2019, Gaussian, Inc.  All Rights Reserved.
  
 This is part of the Gaussian(R) 16 program.  It is based on
 the Gaussian(R) 09 system (copyright 2009, Gaussian, Inc.),
 the Gaussian(R) 03 system (copyright 2003, Gaussian, Inc.),
 the Gaussian(R) 98 system (copyright 1998, Gaussian, Inc.),
 the Gaussian(R) 94 system (copyright 1995, Gaussian, Inc.),
 the Gaussian 92(TM) system (copyright 1992, Gaussian, Inc.),
 the Gaussian 90(TM) system (copyright 1990, Gaussian, Inc.),
 the Gaussian 88(TM) system (copyright 1988, Gaussian, Inc.),
 the Gaussian 86(TM) system (copyright 1986, Carnegie Mellon
 University), and the Gaussian 82(TM) system (copyright 1983,
 Carnegie Mellon University). Gaussian is a federally registered
 trademark of Gaussian, Inc.
  
 This software contains proprietary and confidential information,
 including trade secrets, belonging to Gaussian, Inc.
  
 This software is provided under written license and may be
 used, copied, transmitted, or stored only in accord with that
 written license.
  
 The following legend is applicable only to US Government
 contracts under FAR:
  
                    RESTRICTED RIGHTS LEGEND
  
 Use, reproduction and disclosure by the US Government is
 subject to restrictions as set forth in subparagraphs (a)
 and (c) of the Commercial Computer Software - Restricted
 Rights clause in FAR 52.227-19.
  
 Gaussian, Inc.
 340 Quinnipiac St., Bldg. 40, Wallingford CT 06492
  
  
 ---------------------------------------------------------------
 Warning -- This program may not be used in any manner that
 competes with the business of Gaussian, Inc. or will provide
 assistance to any competitor of Gaussian, Inc.  The licensee
 of this program is prohibited from giving any competitor of
 Gaussian, Inc. access to this program.  By using this program,
 the user acknowledges that Gaussian, Inc. is engaged in the
 business of creating and licensing software in the field of
 computational chemistry and represents and warrants to the
 licensee that it is not a competitor of Gaussian, Inc. and that
 it will not use this program in any manner prohibited above.
 ---------------------------------------------------------------
  

 Cite this work as:
 Gaussian 16, Revision C.01,
 M. J. Frisch, G. W. Trucks, H. B. Schlegel, G. E. Scuseria, 
 M. A. Robb, J. R. Cheeseman, G. Scalmani, V. Barone, 
 G. A. Petersson, H. Nakatsuji, X. Li, M. Caricato, A. V. Marenich, 
 J. Bloino, B. G. Janesko, R. Gomperts, B. Mennucci, H. P. Hratchian, 
 J. V. Ortiz, A. F. Izmaylov, J. L. Sonnenberg, D. Williams-Young, 
 F. Ding, F. Lipparini, F. Egidi, J. Goings, B. Peng, A. Petrone, 
 T. Henderson, D. Ranasinghe, V. G. Zakrzewski, J. Gao, N. Rega, 
 G. Zheng, W. Liang, M. Hada, M. Ehara, K. Toyota, R. Fukuda, 
 J. Hasegawa, M. Ishida, T. Nakajima, Y. Honda, O. Kitao, H. Nakai, 
 T. Vreven, K. Throssell, J. A. Montgomery, Jr., J. E. Peralta, 
 F. Ogliaro, M. J. Bearpark, J. J. Heyd, E. N. Brothers, K. N. Kudin, 
 V. N. Staroverov, T. A. Keith, R. Kobayashi, J. Normand, 
 K. Raghavachari, A. P. Rendell, J. C. Burant, S. S. Iyengar, 
 J. Tomasi, M. Cossi, J. M. Millam, M. Klene, C. Adamo, R. Cammi, 
 J. W. Ochterski, R. L. Martin, K. Morokuma, O. Farkas, 
 J. B. Foresman, and D. J. Fox, Gaussian, Inc., Wallingford CT, 2019.
 
 ******************************************
 Gaussian 16:  ES64L-G16RevC.01  3-Jul-2019
                18-Jul-2025 
 ******************************************
 %NProcShared=32
 Will use up to   32 processors via shared memory.
 %Mem=48GB
 %chk=A12_crest_conformers_censo-1.chk
 ----------------------------------------------------------------------
 #N OPT FREQ=NORAMAN Integral(Ultrafine) M062X EmpiricalDispersion=GD3 
 def2SVP
 ----------------------------------------------------------------------
 1/18=20,19=15,26=4,38=1/1,3;
 2/9=110,12=2,17=6,18=5,40=1/2;
 3/5=43,7=101,11=2,25=1,30=1,71=1,74=-55,75=-5,124=31/1,2,3;
 4//1;
 5/5=2,38=5/2;
 6/7=2,8=2,9=2,10=2,28=1/1;
 7//1,2,3,16;
 1/18=20,19=15,26=4/3(2);
 2/9=110/2;
 99//99;
 2/9=110/2;
 3/5=43,7=101,11=2,25=1,30=1,71=1,74=-55,75=-5,124=31/1,2,3;
 4/5=5,16=3,69=1/1;
 5/5=2,38=5/2;
 7//1,2,3,16;
 1/18=20,19=15,26=4/3(-5);
 2/9=110/2;
 6/7=2,8=2,9=2,10=2,19=2,28=1/1;
 99/9=1/99;
 ----------------------------
 A12_crest_conformers_censo-1
 ----------------------------
 Symbolic Z-matrix:
 Charge = -1 Multiplicity = 1
 O                     2.46246  -1.45243   0.4413 
 C                     2.39364  -0.29989   0.0353 
 C                     1.27538   0.51624  -0.22142 
 N                     0.04243   0.0898   -0.04352 
 C                    -0.9931    0.84375  -0.28648 
 C                    -2.31471   0.37008  -0.09515 
 C                    -2.59222  -0.93242   0.37091 
 C                    -3.89884  -1.33093   0.53261 
 C                    -4.92112  -0.43592   0.23134 
 N                    -4.69279   0.79717  -0.20851 
 C                    -3.44081   1.17574  -0.36204 
 O                     3.57993   0.40507  -0.24627 
 C                     4.76607  -0.31987  -0.02928 
 C                     5.94814   0.6339   -0.11095 
 H                     1.48647   1.53189  -0.58372 
 H                    -0.87722   1.8782   -0.65298 
 H                    -1.75979  -1.58407   0.58857 
 H                    -4.13808  -2.32534   0.88892 
 H                    -5.96495  -0.70867   0.34376 
 H                    -3.30421   2.19076  -0.72371 
 H                     4.8587   -1.114    -0.78578 
 H                     4.72267  -0.80804   0.95425 
 H                     5.97398   1.108    -1.08915 
 H                     6.87743   0.09129   0.04943 
 H                     5.85066   1.40981   0.64435 
 

 GradGradGradGradGradGradGradGradGradGradGradGradGradGradGradGradGradGrad
 Berny optimization.
 Initialization pass.
                           ----------------------------
                           !    Initial Parameters    !
                           ! (Angstroms and Degrees)  !
 --------------------------                            --------------------------
 ! Name  Definition              Value          Derivative Info.                !
 --------------------------------------------------------------------------------
 ! R1    R(1,2)                  1.2239         estimate D2E/DX2                !
 ! R2    R(2,3)                  1.408          estimate D2E/DX2                !
 ! R3    R(2,12)                 1.4084         estimate D2E/DX2                !
 ! R4    R(3,4)                  1.3167         estimate D2E/DX2                !
 ! R5    R(3,15)                 1.0988         estimate D2E/DX2                !
 ! R6    R(4,5)                  1.3038         estimate D2E/DX2                !
 ! R7    R(5,6)                  1.4169         estimate D2E/DX2                !
 ! R8    R(5,16)                 1.1036         estimate D2E/DX2                !
 ! R9    R(6,7)                  1.4109         estimate D2E/DX2                !
 ! R10   R(6,11)                 1.4101         estimate D2E/DX2                !
 ! R11   R(7,8)                  1.3756         estimate D2E/DX2                !
 ! R12   R(7,17)                 1.0793         estimate D2E/DX2                !
 ! R13   R(8,9)                  1.3917         estimate D2E/DX2                !
 ! R14   R(8,18)                 1.0831         estimate D2E/DX2                !
 ! R15   R(9,10)                 1.329          estimate D2E/DX2                !
 ! R16   R(9,19)                 1.0847         estimate D2E/DX2                !
 ! R17   R(10,11)                1.3169         estimate D2E/DX2                !
 ! R18   R(11,20)                1.0862         estimate D2E/DX2                !
 ! R19   R(12,13)                1.407          estimate D2E/DX2                !
 ! R20   R(13,14)                1.5211         estimate D2E/DX2                !
 ! R21   R(13,21)                1.1007         estimate D2E/DX2                !
 ! R22   R(13,22)                1.0989         estimate D2E/DX2                !
 ! R23   R(14,23)                1.0873         estimate D2E/DX2                !
 ! R24   R(14,24)                1.088          estimate D2E/DX2                !
 ! R25   R(14,25)                1.0872         estimate D2E/DX2                !
 ! A1    A(1,2,3)              130.6158         estimate D2E/DX2                !
 ! A2    A(1,2,12)             119.3617         estimate D2E/DX2                !
 ! A3    A(3,2,12)             110.0224         estimate D2E/DX2                !
 ! A4    A(2,3,4)              122.0962         estimate D2E/DX2                !
 ! A5    A(2,3,15)             116.3155         estimate D2E/DX2                !
 ! A6    A(4,3,15)             121.5879         estimate D2E/DX2                !
 ! A7    A(3,4,5)              122.092          estimate D2E/DX2                !
 ! A8    A(4,5,6)              121.4906         estimate D2E/DX2                !
 ! A9    A(4,5,16)             121.37           estimate D2E/DX2                !
 ! A10   A(6,5,16)             117.1392         estimate D2E/DX2                !
 ! A11   A(5,6,7)              122.4572         estimate D2E/DX2                !
 ! A12   A(5,6,11)             121.8921         estimate D2E/DX2                !
 ! A13   A(7,6,11)             115.6507         estimate D2E/DX2                !
 ! A14   A(6,7,8)              119.5442         estimate D2E/DX2                !
 ! A15   A(6,7,17)             118.1819         estimate D2E/DX2                !
 ! A16   A(8,7,17)             122.2739         estimate D2E/DX2                !
 ! A17   A(7,8,9)              119.0761         estimate D2E/DX2                !
 ! A18   A(7,8,18)             120.9625         estimate D2E/DX2                !
 ! A19   A(9,8,18)             119.9614         estimate D2E/DX2                !
 ! A20   A(8,9,10)             122.8304         estimate D2E/DX2                !
 ! A21   A(8,9,19)             121.5148         estimate D2E/DX2                !
 ! A22   A(10,9,19)            115.6548         estimate D2E/DX2                !
 ! A23   A(9,10,11)            117.9465         estimate D2E/DX2                !
 ! A24   A(6,11,10)            124.952          estimate D2E/DX2                !
 ! A25   A(6,11,20)            119.7697         estimate D2E/DX2                !
 ! A26   A(10,11,20)           115.2783         estimate D2E/DX2                !
 ! A27   A(2,12,13)            114.9209         estimate D2E/DX2                !
 ! A28   A(12,13,14)           108.8927         estimate D2E/DX2                !
 ! A29   A(12,13,21)           109.6756         estimate D2E/DX2                !
 ! A30   A(12,13,22)           109.4898         estimate D2E/DX2                !
 ! A31   A(14,13,21)           110.4933         estimate D2E/DX2                !
 ! A32   A(14,13,22)           110.9351         estimate D2E/DX2                !
 ! A33   A(21,13,22)           107.3352         estimate D2E/DX2                !
 ! A34   A(13,14,23)           109.8874         estimate D2E/DX2                !
 ! A35   A(13,14,24)           110.0682         estimate D2E/DX2                !
 ! A36   A(13,14,25)           109.9087         estimate D2E/DX2                !
 ! A37   A(23,14,24)           109.2547         estimate D2E/DX2                !
 ! A38   A(23,14,25)           108.4176         estimate D2E/DX2                !
 ! A39   A(24,14,25)           109.275          estimate D2E/DX2                !
 ! D1    D(1,2,3,4)             -0.4129         estimate D2E/DX2                !
 ! D2    D(1,2,3,15)           179.8193         estimate D2E/DX2                !
 ! D3    D(12,2,3,4)           179.6732         estimate D2E/DX2                !
 ! D4    D(12,2,3,15)           -0.0947         estimate D2E/DX2                !
 ! D5    D(1,2,12,13)            0.3156         estimate D2E/DX2                !
 ! D6    D(3,2,12,13)         -179.7593         estimate D2E/DX2                !
 ! D7    D(2,3,4,5)           -179.713          estimate D2E/DX2                !
 ! D8    D(15,3,4,5)             0.0427         estimate D2E/DX2                !
 ! D9    D(3,4,5,6)            179.7672         estimate D2E/DX2                !
 ! D10   D(3,4,5,16)            -0.0605         estimate D2E/DX2                !
 ! D11   D(4,5,6,7)              0.263          estimate D2E/DX2                !
 ! D12   D(4,5,6,11)          -179.6544         estimate D2E/DX2                !
 ! D13   D(16,5,6,7)          -179.9023         estimate D2E/DX2                !
 ! D14   D(16,5,6,11)            0.1802         estimate D2E/DX2                !
 ! D15   D(5,6,7,8)           -179.8757         estimate D2E/DX2                !
 ! D16   D(5,6,7,17)             0.1059         estimate D2E/DX2                !
 ! D17   D(11,6,7,8)             0.0466         estimate D2E/DX2                !
 ! D18   D(11,6,7,17)         -179.9718         estimate D2E/DX2                !
 ! D19   D(5,6,11,10)          179.8609         estimate D2E/DX2                !
 ! D20   D(5,6,11,20)           -0.0893         estimate D2E/DX2                !
 ! D21   D(7,6,11,10)           -0.0619         estimate D2E/DX2                !
 ! D22   D(7,6,11,20)          179.9879         estimate D2E/DX2                !
 ! D23   D(6,7,8,9)             -0.0006         estimate D2E/DX2                !
 ! D24   D(6,7,8,18)          -179.9964         estimate D2E/DX2                !
 ! D25   D(17,7,8,9)          -179.9814         estimate D2E/DX2                !
 ! D26   D(17,7,8,18)            0.0228         estimate D2E/DX2                !
 ! D27   D(7,8,9,10)            -0.0398         estimate D2E/DX2                !
 ! D28   D(7,8,9,19)           179.9655         estimate D2E/DX2                !
 ! D29   D(18,8,9,10)          179.956          estimate D2E/DX2                !
 ! D30   D(18,8,9,19)           -0.0387         estimate D2E/DX2                !
 ! D31   D(8,9,10,11)            0.0278         estimate D2E/DX2                !
 ! D32   D(19,9,10,11)        -179.9772         estimate D2E/DX2                !
 ! D33   D(9,10,11,6)            0.0252         estimate D2E/DX2                !
 ! D34   D(9,10,11,20)         179.9774         estimate D2E/DX2                !
 ! D35   D(2,12,13,14)        -169.1685         estimate D2E/DX2                !
 ! D36   D(2,12,13,21)          69.8106         estimate D2E/DX2                !
 ! D37   D(2,12,13,22)         -47.7199         estimate D2E/DX2                !
 ! D38   D(12,13,14,23)        -59.3536         estimate D2E/DX2                !
 ! D39   D(12,13,14,24)       -179.7183         estimate D2E/DX2                !
 ! D40   D(12,13,14,25)         59.8783         estimate D2E/DX2                !
 ! D41   D(21,13,14,23)         61.1651         estimate D2E/DX2                !
 ! D42   D(21,13,14,24)        -59.1996         estimate D2E/DX2                !
 ! D43   D(21,13,14,25)       -179.603          estimate D2E/DX2                !
 ! D44   D(22,13,14,23)       -179.9167         estimate D2E/DX2                !
 ! D45   D(22,13,14,24)         59.7186         estimate D2E/DX2                !
 ! D46   D(22,13,14,25)        -60.6849         estimate D2E/DX2                !
 --------------------------------------------------------------------------------
 Trust Radius=3.00D-01 FncErr=1.00D-07 GrdErr=1.00D-06 EigMax=2.50D+02 EigMin=1.00D-04
 Number of steps in this run=    120 maximum allowed number of steps=    150.
 GradGradGradGradGradGradGradGradGradGradGradGradGradGradGradGradGradGrad

                          Input orientation:                          
 ---------------------------------------------------------------------
 Center     Atomic      Atomic             Coordinates (Angstroms)
 Number     Number       Type             X           Y           Z
 ---------------------------------------------------------------------
      1          8           0        2.462460   -1.452430    0.441300
      2          6           0        2.393640   -0.299890    0.035300
      3          6           0        1.275380    0.516240   -0.221420
      4          7           0        0.042430    0.089800   -0.043520
      5          6           0       -0.993100    0.843750   -0.286480
      6          6           0       -2.314710    0.370080   -0.095150
      7          6           0       -2.592220   -0.932420    0.370910
      8          6           0       -3.898840   -1.330930    0.532610
      9          6           0       -4.921120   -0.435920    0.231340
     10          7           0       -4.692790    0.797170   -0.208510
     11          6           0       -3.440810    1.175740   -0.362040
     12          8           0        3.579930    0.405070   -0.246270
     13          6           0        4.766070   -0.319870   -0.029280
     14          6           0        5.948140    0.633900   -0.110950
     15          1           0        1.486470    1.531890   -0.583720
     16          1           0       -0.877220    1.878200   -0.652980
     17          1           0       -1.759790   -1.584070    0.588570
     18          1           0       -4.138080   -2.325340    0.888920
     19          1           0       -5.964950   -0.708670    0.343760
     20          1           0       -3.304210    2.190760   -0.723710
     21          1           0        4.858700   -1.114000   -0.785780
     22          1           0        4.722670   -0.808040    0.954250
     23          1           0        5.973980    1.108000   -1.089150
     24          1           0        6.877430    0.091290    0.049430
     25          1           0        5.850660    1.409810    0.644350
 ---------------------------------------------------------------------
                    Distance matrix (angstroms):
                    1          2          3          4          5
     1  O    0.000000
     2  C    1.223896   0.000000
     3  C    2.392492   1.408005   0.000000
     4  N    2.910338   2.384588   1.316687   0.000000
     5  C    4.212244   3.589075   2.292923   1.303761   0.000000
     6  C    5.141077   4.757566   3.595282   2.374307   1.416906
     7  C    5.081846   5.037016   4.172266   2.856233   2.478735
     8  C    6.363115   6.395754   5.545552   4.228949   3.720681
     9  C    7.456181   7.318651   6.285556   4.998876   4.163536
    10  N    7.528649   7.174989   5.974792   4.790606   3.700805
    11  C    6.511623   6.031266   4.764154   3.662469   2.471277
    12  O    2.274159   1.408380   2.307364   3.557304   4.594199
    13  C    2.609743   2.373393   3.594567   4.741393   5.881174
    14  C    4.099722   3.678019   4.675546   5.931105   6.946629
    15  H    3.302936   2.135781   1.098802   2.111088   2.590397
    16  H    4.841901   3.989528   2.583576   2.101326   1.103557
    17  H    4.226868   4.382489   3.778841   2.539562   2.692181
    18  H    6.673040   6.891624   6.213934   4.917216   4.616882
    19  H    8.460729   8.374263   7.364931   6.072574   5.246571
    20  H    6.919867   6.264577   4.901934   4.009575   2.710505
    21  H    2.713342   2.722768   3.976980   5.019616   6.190771
    22  H    2.405599   2.554812   3.875529   4.868912   6.077652
    23  H    4.607478   4.008164   4.814559   6.108466   7.018142
    24  H    4.693463   4.500844   5.624669   6.835632   7.913550
    25  H    4.439994   3.904485   4.741436   5.995926   6.929929
                    6          7          8          9         10
     6  C    0.000000
     7  C    1.410932   0.000000
     8  C    2.407693   1.375577   0.000000
     9  C    2.747654   2.385323   1.391712   0.000000
    10  N    2.418785   2.782014   2.389231   1.328952   0.000000
    11  C    1.410113   2.387815   2.700664   2.267348   1.316944
    12  O    5.896681   6.345489   7.717017   8.555888   8.282093
    13  C    7.114620   7.394579   8.741775   9.691390   9.526276
    14  C    8.267076   8.696166  10.061697  10.927145  10.642630
    15  H    4.004681   4.860026   6.200282   6.752319   6.234088
    16  H    2.156844   3.448066   4.564463   4.742394   3.990583
    17  H    2.143388   1.079335   2.154703   3.382288   3.861105
    18  H    3.399759   2.144352   1.083071   2.148365   3.355909
    19  H    3.831527   3.380253   2.166029   1.084717   2.047180
    20  H    2.165427   3.385170   3.786057   3.228926   2.033637
    21  H    7.357804   7.542355   8.858878   9.855922   9.757908
    22  H    7.212068   7.339167   8.647637   9.678004   9.621829
    23  H    8.380629   8.926078  10.298110  11.082896  10.707573
    24  H    9.197503   9.530247  10.880449  11.811724  11.594602
    25  H    8.264452   8.766016  10.128025  10.936569  10.595614
                   11         12         13         14         15
    11  C    0.000000
    12  O    7.063860   0.000000
    13  C    8.348680   1.406965   0.000000
    14  C    9.407923   2.383085   1.521064   0.000000
    15  H    4.945106   2.401285   3.806862   4.575631   0.000000
    16  H    2.673965   4.711869   6.088287   6.958995   2.389928
    17  H    3.368388   5.759014   6.675836   8.051143   4.649911
    18  H    3.782677   8.265076   9.173270  10.558820   6.977281
    19  H    3.228070   9.627735  10.744539  11.997123   7.836070
    20  H    1.086154   7.127975   8.480266   9.402408   4.837801
    21  H    8.619996   2.057644   1.100688   2.167355   4.291095
    22  H    8.503553   2.053957   1.098874   2.171548   4.279441
    23  H    9.443069   2.633635   2.149694   1.087343   4.535735
    24  H   10.383228   3.325568   2.152461   1.087992   5.615929
    25  H    9.348745   2.637977   2.149862   1.087206   4.535330
                   16         17         18         19         20
    16  H    0.000000
    17  H    3.782551   0.000000
    18  H    5.538990   2.509174   0.000000
    19  H    5.793995   4.302282   2.499655   0.000000
    20  H    2.448056   4.284467   4.867348   4.077465   0.000000
    21  H    6.470833   6.776003   9.231144  10.889975   8.806724
    22  H    6.415438   6.538978   8.989959  10.705503   8.731504
    23  H    6.908140   8.359018  10.860679  12.161068   9.348301
    24  H    7.988806   8.814708  11.308683  12.870637  10.424553
    25  H    6.867811   8.178348  10.667056  12.007787   9.289409
                   21         22         23         24         25
    21  H    0.000000
    22  H    1.771954   0.000000
    23  H    2.504629   3.067975   0.000000
    24  H    2.495109   2.504094   1.773777   0.000000
    25  H    3.065758   2.507441   1.763893   1.773889   0.000000
 Stoichiometry    C10H11N2O2(1-)
 Framework group  C1[X(C10H11N2O2)]
 Deg. of freedom    69
 Full point group                 C1      NOp   1
 Largest Abelian subgroup         C1      NOp   1
 Largest concise Abelian subgroup C1      NOp   1
                         Standard orientation:                         
 ---------------------------------------------------------------------
 Center     Atomic      Atomic             Coordinates (Angstroms)
 Number     Number       Type             X           Y           Z
 ---------------------------------------------------------------------
      1          8           0       -2.375414    1.556020   -0.017245
      2          6           0       -2.322341    0.333441   -0.037355
      3          6           0       -1.214940   -0.536117   -0.033999
      4          7           0        0.024057   -0.090977   -0.013944
      5          6           0        1.049471   -0.896156   -0.016370
      6          6           0        2.377715   -0.403095    0.000477
      7          6           0        2.673075    0.976336    0.026215
      8          6           0        3.985259    1.388916    0.038971
      9          6           0        4.995376    0.431648    0.026145
     10          7           0        4.750162   -0.874275    0.002709
     11          6           0        3.492899   -1.266050   -0.009217
     12          8           0       -3.518567   -0.409288   -0.067865
     13          6           0       -4.695192    0.362059   -0.079231
     14          6           0       -5.886482   -0.553282    0.158708
     15          1           0       -1.439934   -1.611468   -0.053064
     16          1           0        0.919452   -1.991876   -0.034485
     17          1           0        1.849489    1.673899    0.034903
     18          1           0        4.238130    2.441868    0.058789
     19          1           0        6.043018    0.712682    0.034913
     20          1           0        3.342399   -2.341550   -0.028692
     21          1           0       -4.791789    0.876420   -1.047537
     22          1           0       -4.633522    1.136326    0.698092
     23          1           0       -5.930396   -1.312740   -0.618215
     24          1           0       -6.808673    0.023945    0.148721
     25          1           0       -5.784896   -1.050808    1.120043
 ---------------------------------------------------------------------
 Rotational constants (GHZ):           3.1583548           0.2100042           0.1974971
 Standard basis: def2SVP (5D, 7F)
 There are   265 symmetry adapted cartesian basis functions of A   symmetry.
 There are   251 symmetry adapted basis functions of A   symmetry.
   251 basis functions,   427 primitive gaussians,   265 cartesian basis functions
    51 alpha electrons       51 beta electrons
       nuclear repulsion energy       784.0230611095 Hartrees.
 NAtoms=   25 NActive=   25 NUniq=   25 SFac= 1.00D+00 NAtFMM=   60 NAOKFM=F Big=F
 Integral buffers will be    131072 words long.
 Raffenetti 2 integral format.
 Two-electron integral symmetry is turned on.
 Nuclear repulsion after empirical dispersion term =      784.0222217700 Hartrees.
 One-electron integrals computed using PRISM.
   1 Symmetry operations used in ECPInt.
 ECPInt:  NShTT=    6903 NPrTT=   25191 LenC2=    5993 LenP2D=   15670.
 LDataN:  DoStor=T MaxTD1= 4 Len=   56
 NBasis=   251 RedAO= T EigKep=  6.54D-04  NBF=   251
 NBsUse=   251 1.00D-06 EigRej= -1.00D+00 NBFU=   251
 ExpMin= 1.22D-01 ExpMax= 2.27D+03 ExpMxC= 3.41D+02 IAcc=3 IRadAn=         5 AccDes= 0.00D+00
 Harris functional with IExCor= 1009 and IRadAn=       5 diagonalized for initial guess.
 HarFok:  IExCor= 1009 AccDes= 0.00D+00 IRadAn=         5 IDoV= 1 UseB2=F ITyADJ=14
 ICtDFT=  3500011 ScaDFX=  1.000000  1.000000  1.000000  1.000000
 FoFCou: FMM=F IPFlag=           0 FMFlag=      100000 FMFlg1=           0
         NFxFlg=           0 DoJE=T BraDBF=F KetDBF=T FulRan=T
         wScrn=  0.000000 ICntrl=       500 IOpCl=  0 I1Cent=   200000004 NGrid=           0
         NMat0=    1 NMatS0=      1 NMatT0=    0 NMatD0=    1 NMtDS0=    0 NMtDT0=    0
 Petite list used in FoFCou.
 Requested convergence on RMS density matrix=1.00D-08 within 128 cycles.
 Requested convergence on MAX density matrix=1.00D-06.
 Requested convergence on             energy=1.00D-06.
 No special actions if energy rises.
 Integral accuracy reduced to 1.0D-05 until final iterations.
 Initial convergence to 1.0D-05 achieved.  Increase integral accuracy.
 SCF Done:  E(RM062X) =  -646.912932137     A.U. after   15 cycles
            NFock= 15  Conv=0.58D-08     -V/T= 2.0091

 **********************************************************************

            Population analysis using the SCF Density.

 **********************************************************************

 Orbital symmetries:
       Occupied  (A) (A) (A) (A) (A) (A) (A) (A) (A) (A) (A) (A)
                 (A) (A) (A) (A) (A) (A) (A) (A) (A) (A) (A) (A)
                 (A) (A) (A) (A) (A) (A) (A) (A) (A) (A) (A) (A)
                 (A) (A) (A) (A) (A) (A) (A) (A) (A) (A) (A) (A)
                 (A) (A) (A)
       Virtual   (A) (A) (A) (A) (A) (A) (A) (A) (A) (A) (A) (A)
                 (A) (A) (A) (A) (A) (A) (A) (A) (A) (A) (A) (A)
                 (A) (A) (A) (A) (A) (A) (A) (A) (A) (A) (A) (A)
                 (A) (A) (A) (A) (A) (A) (A) (A) (A) (A) (A) (A)
                 (A) (A) (A) (A) (A) (A) (A) (A) (A) (A) (A) (A)
                 (A) (A) (A) (A) (A) (A) (A) (A) (A) (A) (A) (A)
                 (A) (A) (A) (A) (A) (A) (A) (A) (A) (A) (A) (A)
                 (A) (A) (A) (A) (A) (A) (A) (A) (A) (A) (A) (A)
                 (A) (A) (A) (A) (A) (A) (A) (A) (A) (A) (A) (A)
                 (A) (A) (A) (A) (A) (A) (A) (A) (A) (A) (A) (A)
                 (A) (A) (A) (A) (A) (A) (A) (A) (A) (A) (A) (A)
                 (A) (A) (A) (A) (A) (A) (A) (A) (A) (A) (A) (A)
                 (A) (A) (A) (A) (A) (A) (A) (A) (A) (A) (A) (A)
                 (A) (A) (A) (A) (A) (A) (A) (A) (A) (A) (A) (A)
                 (A) (A) (A) (A) (A) (A) (A) (A) (A) (A) (A) (A)
                 (A) (A) (A) (A) (A) (A) (A) (A) (A) (A) (A) (A)
                 (A) (A) (A) (A) (A) (A) (A) (A)
 The electronic state is 1-A.
 Alpha  occ. eigenvalues --  -19.50789 -19.43986 -14.62103 -14.60389 -10.50318
 Alpha  occ. eigenvalues --  -10.48011 -10.44596 -10.44511 -10.44408 -10.43040
 Alpha  occ. eigenvalues --  -10.42248 -10.42192 -10.40523 -10.39045  -1.04117
 Alpha  occ. eigenvalues --   -0.94387  -0.91077  -0.86637  -0.76034  -0.74085
 Alpha  occ. eigenvalues --   -0.72384  -0.65664  -0.60586  -0.57164  -0.56345
 Alpha  occ. eigenvalues --   -0.51625  -0.47610  -0.45525  -0.43952  -0.43549
 Alpha  occ. eigenvalues --   -0.41271  -0.38940  -0.38658  -0.36954  -0.35825
 Alpha  occ. eigenvalues --   -0.35377  -0.34497  -0.34159  -0.32838  -0.32369
 Alpha  occ. eigenvalues --   -0.30570  -0.28687  -0.27495  -0.27083  -0.21439
 Alpha  occ. eigenvalues --   -0.20898  -0.18896  -0.18590  -0.18374  -0.16176
 Alpha  occ. eigenvalues --   -0.05491
 Alpha virt. eigenvalues --    0.13045   0.15327   0.20456   0.22519   0.23263
 Alpha virt. eigenvalues --    0.25674   0.25784   0.26315   0.26966   0.27856
 Alpha virt. eigenvalues --    0.28570   0.29981   0.31536   0.32007   0.33057
 Alpha virt. eigenvalues --    0.34221   0.35151   0.37916   0.38211   0.40799
 Alpha virt. eigenvalues --    0.44160   0.45679   0.46722   0.48006   0.49200
 Alpha virt. eigenvalues --    0.50829   0.52567   0.55453   0.56311   0.56846
 Alpha virt. eigenvalues --    0.57601   0.58681   0.60436   0.61565   0.63439
 Alpha virt. eigenvalues --    0.63706   0.64528   0.67209   0.67455   0.68162
 Alpha virt. eigenvalues --    0.68395   0.69309   0.70692   0.71517   0.72631
 Alpha virt. eigenvalues --    0.76377   0.77206   0.78453   0.79023   0.80131
 Alpha virt. eigenvalues --    0.81118   0.81347   0.82837   0.83159   0.83372
 Alpha virt. eigenvalues --    0.83587   0.84172   0.85009   0.85413   0.85653
 Alpha virt. eigenvalues --    0.86419   0.87467   0.87919   0.89660   0.89856
 Alpha virt. eigenvalues --    0.91999   0.93435   0.93935   0.94793   0.97718
 Alpha virt. eigenvalues --    0.99002   1.00933   1.03076   1.04983   1.07479
 Alpha virt. eigenvalues --    1.07772   1.08298   1.09864   1.14507   1.19694
 Alpha virt. eigenvalues --    1.22516   1.23315   1.24540   1.28371   1.29032
 Alpha virt. eigenvalues --    1.30843   1.32850   1.36358   1.37203   1.37670
 Alpha virt. eigenvalues --    1.39672   1.41857   1.43438   1.44421   1.45725
 Alpha virt. eigenvalues --    1.46189   1.47314   1.49819   1.51587   1.51985
 Alpha virt. eigenvalues --    1.53685   1.55020   1.55736   1.59438   1.59672
 Alpha virt. eigenvalues --    1.68070   1.69356   1.72040   1.72261   1.78592
 Alpha virt. eigenvalues --    1.80634   1.83335   1.86615   1.89280   1.89772
 Alpha virt. eigenvalues --    1.90852   1.91953   1.92197   1.92793   1.93377
 Alpha virt. eigenvalues --    1.95286   1.96026   1.97892   1.98075   1.98396
 Alpha virt. eigenvalues --    1.98826   1.99355   2.00177   2.03395   2.05193
 Alpha virt. eigenvalues --    2.06560   2.08093   2.08704   2.10446   2.11628
 Alpha virt. eigenvalues --    2.12318   2.14517   2.16484   2.17082   2.19498
 Alpha virt. eigenvalues --    2.21388   2.22056   2.24706   2.28335   2.29158
 Alpha virt. eigenvalues --    2.29943   2.31545   2.32345   2.34220   2.38109
 Alpha virt. eigenvalues --    2.39239   2.43938   2.46155   2.50457   2.51833
 Alpha virt. eigenvalues --    2.53555   2.53779   2.58103   2.58310   2.61931
 Alpha virt. eigenvalues --    2.62360   2.64198   2.68613   2.71247   2.72529
 Alpha virt. eigenvalues --    2.75765   2.78052   2.82882   2.83481   2.84560
 Alpha virt. eigenvalues --    2.85164   2.87842   2.88986   2.91168   2.92605
 Alpha virt. eigenvalues --    2.97030   2.98434   3.01344   3.01703   3.02687
 Alpha virt. eigenvalues --    3.03766   3.06620   3.08093   3.09167   3.12305
 Alpha virt. eigenvalues --    3.14395   3.17201   3.21940   3.23474   3.28829
 Alpha virt. eigenvalues --    3.32886   3.35428   3.41994   3.47081   3.54337
 Alpha virt. eigenvalues --    3.61489   3.66632   3.79378   3.84040   3.92193
          Condensed to atoms (all electrons):
               1          2          3          4          5          6
     1  O    7.816762   0.693402  -0.095930   0.000666   0.000195   0.000031
     2  C    0.693402   4.633258   0.273833  -0.069056   0.013520  -0.000286
     3  C   -0.095930   0.273833   5.317426   0.489554  -0.114924   0.019171
     4  N    0.000666  -0.069056   0.489554   6.245758   0.584539  -0.116509
     5  C    0.000195   0.013520  -0.114924   0.584539   5.141787   0.227907
     6  C    0.000031  -0.000286   0.019171  -0.116509   0.227907   5.431426
     7  C   -0.000050  -0.000210   0.000306   0.007602  -0.074738   0.322673
     8  C   -0.000000  -0.000007   0.000002   0.001237   0.018032   0.018644
     9  C    0.000000   0.000000  -0.000001  -0.000010   0.001464  -0.074431
    10  N   -0.000000   0.000000   0.000002  -0.000068   0.006943  -0.035053
    11  C    0.000000   0.000005  -0.000080   0.003626  -0.084992   0.426185
    12  O   -0.091891   0.287658  -0.110864   0.001959  -0.000098  -0.000000
    13  C   -0.003871  -0.040483   0.007721  -0.000156   0.000013  -0.000000
    14  C    0.002188   0.008846   0.000735   0.000001  -0.000000  -0.000000
    15  H    0.003755  -0.077350   0.388939  -0.045202  -0.012775  -0.001047
    16  H   -0.000019  -0.001274  -0.016097  -0.053676   0.417581  -0.117441
    17  H    0.000333  -0.000337  -0.000800   0.027802  -0.022337  -0.064407
    18  H   -0.000000   0.000000   0.000000  -0.000034  -0.000281   0.014230
    19  H   -0.000000  -0.000000   0.000000  -0.000000   0.000098   0.001604
    20  H   -0.000000  -0.000001  -0.000009  -0.000010  -0.009760  -0.076495
    21  H    0.006059  -0.001056   0.000818   0.000010  -0.000001   0.000000
    22  H    0.020026  -0.006703   0.001798  -0.000001  -0.000000   0.000000
    23  H   -0.000042  -0.000448  -0.000119   0.000000   0.000000   0.000000
    24  H    0.000051  -0.000073   0.000015  -0.000000   0.000000  -0.000000
    25  H   -0.000052  -0.000101  -0.000189   0.000000   0.000000  -0.000000
               7          8          9         10         11         12
     1  O   -0.000050  -0.000000   0.000000  -0.000000   0.000000  -0.091891
     2  C   -0.000210  -0.000007   0.000000   0.000000   0.000005   0.287658
     3  C    0.000306   0.000002  -0.000001   0.000002  -0.000080  -0.110864
     4  N    0.007602   0.001237  -0.000010  -0.000068   0.003626   0.001959
     5  C   -0.074738   0.018032   0.001464   0.006943  -0.084992  -0.000098
     6  C    0.322673   0.018644  -0.074431  -0.035053   0.426185  -0.000000
     7  C    5.038184   0.375433   0.001821  -0.054159  -0.034107  -0.000000
     8  C    0.375433   5.054176   0.402046  -0.038101  -0.070166  -0.000000
     9  C    0.001821   0.402046   4.875236   0.526163  -0.086697   0.000000
    10  N   -0.054159  -0.038101   0.526163   6.295801   0.547090   0.000000
    11  C   -0.034107  -0.070166  -0.086697   0.547090   4.906876  -0.000000
    12  O   -0.000000  -0.000000   0.000000   0.000000  -0.000000   8.158790
    13  C    0.000000  -0.000000   0.000000  -0.000000   0.000000   0.290368
    14  C    0.000000  -0.000000  -0.000000   0.000000  -0.000000  -0.058287
    15  H    0.000310   0.000006  -0.000000   0.000000  -0.000022   0.012476
    16  H    0.018899  -0.000455   0.000064   0.000139  -0.012928  -0.000006
    17  H    0.451931  -0.075324   0.011138  -0.000468   0.011984   0.000003
    18  H   -0.067683   0.421291  -0.060549   0.007159   0.000053  -0.000000
    19  H    0.007294  -0.079598   0.418280  -0.046630   0.004931   0.000000
    20  H    0.008818   0.001297   0.005449  -0.045610   0.416493   0.000000
    21  H    0.000000   0.000000  -0.000000   0.000000   0.000000  -0.037285
    22  H    0.000000   0.000000  -0.000000   0.000000   0.000000  -0.036816
    23  H   -0.000000   0.000000   0.000000   0.000000   0.000000   0.003572
    24  H    0.000000   0.000000  -0.000000  -0.000000   0.000000   0.003953
    25  H   -0.000000   0.000000   0.000000   0.000000  -0.000000   0.005057
              13         14         15         16         17         18
     1  O   -0.003871   0.002188   0.003755  -0.000019   0.000333  -0.000000
     2  C   -0.040483   0.008846  -0.077350  -0.001274  -0.000337   0.000000
     3  C    0.007721   0.000735   0.388939  -0.016097  -0.000800   0.000000
     4  N   -0.000156   0.000001  -0.045202  -0.053676   0.027802  -0.000034
     5  C    0.000013  -0.000000  -0.012775   0.417581  -0.022337  -0.000281
     6  C   -0.000000  -0.000000  -0.001047  -0.117441  -0.064407   0.014230
     7  C    0.000000   0.000000   0.000310   0.018899   0.451931  -0.067683
     8  C   -0.000000  -0.000000   0.000006  -0.000455  -0.075324   0.421291
     9  C    0.000000  -0.000000  -0.000000   0.000064   0.011138  -0.060549
    10  N   -0.000000   0.000000   0.000000   0.000139  -0.000468   0.007159
    11  C    0.000000  -0.000000  -0.000022  -0.012928   0.011984   0.000053
    12  O    0.290368  -0.058287   0.012476  -0.000006   0.000003  -0.000000
    13  C    4.466160   0.388070  -0.000183   0.000003  -0.000000  -0.000000
    14  C    0.388070   4.673240  -0.000404   0.000000  -0.000000   0.000000
    15  H   -0.000183  -0.000404   0.757993   0.017748   0.000279  -0.000000
    16  H    0.000003   0.000000   0.017748   0.803118   0.001570   0.000007
    17  H   -0.000000  -0.000000   0.000279   0.001570   0.656333  -0.012072
    18  H   -0.000000   0.000000  -0.000000   0.000007  -0.012072   0.722699
    19  H    0.000000   0.000000   0.000000   0.000001  -0.000298  -0.007824
    20  H    0.000000  -0.000000   0.000028   0.008362  -0.000262   0.000101
    21  H    0.390500  -0.037233  -0.000010  -0.000000  -0.000000   0.000000
    22  H    0.391255  -0.032506  -0.000035  -0.000001  -0.000000   0.000000
    23  H   -0.012577   0.373281   0.000099  -0.000000   0.000000  -0.000000
    24  H   -0.017960   0.371406   0.000004  -0.000000  -0.000000   0.000000
    25  H   -0.016900   0.377566   0.000061  -0.000000   0.000000  -0.000000
              19         20         21         22         23         24
     1  O   -0.000000  -0.000000   0.006059   0.020026  -0.000042   0.000051
     2  C   -0.000000  -0.000001  -0.001056  -0.006703  -0.000448  -0.000073
     3  C    0.000000  -0.000009   0.000818   0.001798  -0.000119   0.000015
     4  N   -0.000000  -0.000010   0.000010  -0.000001   0.000000  -0.000000
     5  C    0.000098  -0.009760  -0.000001  -0.000000   0.000000   0.000000
     6  C    0.001604  -0.076495   0.000000   0.000000   0.000000  -0.000000
     7  C    0.007294   0.008818   0.000000   0.000000  -0.000000   0.000000
     8  C   -0.079598   0.001297   0.000000   0.000000   0.000000   0.000000
     9  C    0.418280   0.005449  -0.000000  -0.000000   0.000000  -0.000000
    10  N   -0.046630  -0.045610   0.000000   0.000000   0.000000  -0.000000
    11  C    0.004931   0.416493   0.000000   0.000000   0.000000   0.000000
    12  O    0.000000   0.000000  -0.037285  -0.036816   0.003572   0.003953
    13  C    0.000000   0.000000   0.390500   0.391255  -0.012577  -0.017960
    14  C    0.000000  -0.000000  -0.037233  -0.032506   0.373281   0.371406
    15  H    0.000000   0.000028  -0.000010  -0.000035   0.000099   0.000004
    16  H    0.000001   0.008362  -0.000000  -0.000001  -0.000000  -0.000000
    17  H   -0.000298  -0.000262  -0.000000  -0.000000   0.000000  -0.000000
    18  H   -0.007824   0.000101   0.000000   0.000000  -0.000000   0.000000
    19  H    0.723194  -0.000498  -0.000000  -0.000000  -0.000000  -0.000000
    20  H   -0.000498   0.710879   0.000000   0.000000   0.000000   0.000000
    21  H   -0.000000   0.000000   0.724042  -0.049058  -0.013326  -0.001048
    22  H   -0.000000   0.000000  -0.049058   0.696605   0.009528  -0.002186
    23  H   -0.000000   0.000000  -0.013326   0.009528   0.660213  -0.022077
    24  H   -0.000000   0.000000  -0.001048  -0.002186  -0.022077   0.676052
    25  H   -0.000000   0.000000   0.010217  -0.012925  -0.028448  -0.020302
              25
     1  O   -0.000052
     2  C   -0.000101
     3  C   -0.000189
     4  N    0.000000
     5  C    0.000000
     6  C   -0.000000
     7  C   -0.000000
     8  C    0.000000
     9  C    0.000000
    10  N    0.000000
    11  C   -0.000000
    12  O    0.005057
    13  C   -0.016900
    14  C    0.377566
    15  H    0.000061
    16  H   -0.000000
    17  H    0.000000
    18  H   -0.000000
    19  H   -0.000000
    20  H    0.000000
    21  H    0.010217
    22  H   -0.012925
    23  H   -0.028448
    24  H   -0.020302
    25  H    0.652964
 Mulliken charges:
               1
     1  O   -0.351612
     2  C    0.286864
     3  C   -0.161309
     4  N   -0.078034
     5  C   -0.092174
     6  C    0.023798
     7  C   -0.002325
     8  C   -0.028514
     9  C   -0.019973
    10  N   -0.163206
    11  C   -0.028250
    12  O   -0.428587
    13  C    0.158040
    14  C   -0.066902
    15  H   -0.044671
    16  H   -0.065595
    17  H    0.014934
    18  H   -0.017097
    19  H   -0.020554
    20  H   -0.018783
    21  H    0.007372
    22  H    0.021019
    23  H    0.030343
    24  H    0.012165
    25  H    0.033051
 Sum of Mulliken charges =  -1.00000
 Mulliken charges with hydrogens summed into heavy atoms:
               1
     1  O   -0.351612
     2  C    0.286864
     3  C   -0.205981
     4  N   -0.078034
     5  C   -0.157769
     6  C    0.023798
     7  C    0.012609
     8  C   -0.045611
     9  C   -0.040526
    10  N   -0.163206
    11  C   -0.047032
    12  O   -0.428587
    13  C    0.186431
    14  C    0.008657
 Electronic spatial extent (au):  <R**2>=           5270.4256
 Charge=             -1.0000 electrons
 Dipole moment (field-independent basis, Debye):
    X=             -2.4353    Y=             -0.4169    Z=              0.0706  Tot=              2.4717
 Quadrupole moment (field-independent basis, Debye-Ang):
   XX=           -132.3543   YY=            -91.0854   ZZ=            -86.9888
   XY=             10.0480   XZ=             -0.0811   YZ=              0.1232
 Traceless Quadrupole moment (field-independent basis, Debye-Ang):
   XX=            -28.8782   YY=             12.3908   ZZ=             16.4874
   XY=             10.0480   XZ=             -0.0811   YZ=              0.1232
 Octapole moment (field-independent basis, Debye-Ang**2):
  XXX=           -166.2087  YYY=             -1.9120  ZZZ=             -0.2646  XYY=              1.8416
  XXY=             47.2947  XXZ=             -0.5590  XZZ=            -20.4495  YZZ=              2.0145
  YYZ=              0.0610  XYZ=             -0.1002
 Hexadecapole moment (field-independent basis, Debye-Ang**3):
 XXXX=          -7664.3787 YYYY=           -531.4540 ZZZZ=           -104.7218 XXXY=            166.2911
 XXXZ=             10.3552 YYYX=             27.2939 YYYZ=              1.4872 ZZZX=             -0.2043
 ZZZY=             -0.8658 XXYY=          -1276.5927 XXZZ=          -1153.6109 YYZZ=           -109.9412
 XXYZ=              3.4207 YYXZ=              0.5739 ZZXY=             -8.1234
 N-N= 7.840222217700D+02 E-N=-3.089114788446D+03  KE= 6.411031516795D+02
   1 Symmetry operations used in ECPInt.
 ECPInt:  NShTT=    6903 NPrTT=   25191 LenC2=    5993 LenP2D=   15670.
 LDataN:  DoStor=T MaxTD1= 5 Len=  102
 Calling FoFJK, ICntrl=      2127 FMM=F ISym2X=0 I1Cent= 0 IOpClX= 0 NMat=1 NMatS=1 NMatT=0.
 ***** Axes restored to original set *****
 -------------------------------------------------------------------
 Center     Atomic                   Forces (Hartrees/Bohr)
 Number     Number              X              Y              Z
 -------------------------------------------------------------------
      1        8           0.000825064    0.010682306   -0.004115652
      2        6           0.019737802   -0.017107859    0.005596505
      3        6          -0.002996223    0.013465638   -0.004690590
      4        7          -0.002130739   -0.004179867    0.001400021
      5        6           0.009585439    0.006718377   -0.002470856
      6        6          -0.010054098   -0.005538648    0.002144194
      7        6           0.001365838    0.003454096   -0.001239064
      8        6          -0.002927258    0.000061946    0.000030199
      9        6          -0.005063346    0.001992613   -0.000594829
     10        7          -0.008172158    0.000204299    0.000068022
     11        6           0.002394211    0.000578318   -0.000237040
     12        8          -0.003066316   -0.004767162    0.002722887
     13        6          -0.002587875    0.004901081    0.000466173
     14        6          -0.011223222   -0.006960600   -0.000353519
     15        1          -0.000395468    0.001716923   -0.000653917
     16        1           0.001354601    0.001562744   -0.000590887
     17        1           0.007251358   -0.004560317    0.001477700
     18        1          -0.001335296   -0.006166318    0.002191586
     19        1          -0.006795887   -0.004215477    0.001606997
     20        1           0.004320666    0.007187267   -0.002607908
     21        1           0.000866587   -0.003428871   -0.000074091
     22        1           0.000768837   -0.002676727    0.000574348
     23        1           0.001173138    0.004146887   -0.007015489
     24        1           0.007248559   -0.003079402    0.000957638
     25        1          -0.000144211    0.006008754    0.005407572
 -------------------------------------------------------------------
 Cartesian Forces:  Max     0.019737802 RMS     0.005442538

 GradGradGradGradGradGradGradGradGradGradGradGradGradGradGradGradGradGrad
 Berny optimization.
 FormGI is forming the generalized inverse of G from B-inverse, IUseBI=4.
 Internal  Forces:  Max     0.020464726 RMS     0.004595117
 Search for a local minimum.
 Step number   1 out of a maximum of  120
 All quantities printed in internal units (Hartrees-Bohrs-Radians)
 Mixed Optimization -- RFO/linear search
 Second derivative matrix not updated -- first step.
 ITU=  0
     Eigenvalues ---    0.00487   0.01581   0.01600   0.01865   0.01872
     Eigenvalues ---    0.01929   0.01983   0.02024   0.02164   0.02223
     Eigenvalues ---    0.02252   0.02272   0.02281   0.02297   0.02366
     Eigenvalues ---    0.02582   0.02794   0.02965   0.05262   0.05765
     Eigenvalues ---    0.05824   0.05841   0.11396   0.13751   0.16000
     Eigenvalues ---    0.16000   0.16000   0.16000   0.16000   0.16000
     Eigenvalues ---    0.16000   0.16000   0.16000   0.21961   0.22000
     Eigenvalues ---    0.22000   0.22000   0.23204   0.23422   0.25000
     Eigenvalues ---    0.25000   0.25000   0.25000   0.25000   0.30264
     Eigenvalues ---    0.33292   0.33606   0.33807   0.33815   0.35046
     Eigenvalues ---    0.35122   0.35138   0.35261   0.35430   0.35626
     Eigenvalues ---    0.36075   0.41292   0.42841   0.42930   0.44259
     Eigenvalues ---    0.44319   0.44485   0.46003   0.48540   0.57878
     Eigenvalues ---    0.61056   0.62764   0.66159   0.93678
 RFO step:  Lambda=-5.56057068D-03 EMin= 4.87306863D-03
 Linear search not attempted -- first point.
 Iteration  1 RMS(Cart)=  0.04302594 RMS(Int)=  0.00026795
 Iteration  2 RMS(Cart)=  0.00088996 RMS(Int)=  0.00001699
 Iteration  3 RMS(Cart)=  0.00000021 RMS(Int)=  0.00001699
 Variable       Old X    -DE/DX   Delta X   Delta X   Delta X     New X
                                 (Linear)    (Quad)   (Total)
    R1        2.31283  -0.01138   0.00000  -0.01208  -0.01208   2.30075
    R2        2.66074   0.01867   0.00000   0.04161   0.04161   2.70235
    R3        2.66145  -0.00933   0.00000  -0.02081  -0.02081   2.64064
    R4        2.48818   0.01066   0.00000   0.01684   0.01684   2.50501
    R5        2.07643   0.00173   0.00000   0.00502   0.00502   2.08146
    R6        2.46375   0.00719   0.00000   0.01077   0.01077   2.47452
    R7        2.67756   0.02046   0.00000   0.04706   0.04706   2.72463
    R8        2.08542   0.00180   0.00000   0.00533   0.00533   2.09075
    R9        2.66628   0.00439   0.00000   0.00921   0.00921   2.67548
   R10        2.66473   0.00637   0.00000   0.01417   0.01417   2.67889
   R11        2.59946   0.01166   0.00000   0.02266   0.02266   2.62213
   R12        2.03965   0.00864   0.00000   0.02360   0.02360   2.06325
   R13        2.62995   0.00771   0.00000   0.01638   0.01639   2.64635
   R14        2.04671   0.00668   0.00000   0.01846   0.01846   2.06517
   R15        2.51136   0.00685   0.00000   0.01186   0.01187   2.52322
   R16        2.04982   0.00777   0.00000   0.02158   0.02158   2.07140
   R17        2.48866   0.01415   0.00000   0.02273   0.02273   2.51139
   R18        2.05253   0.00813   0.00000   0.02269   0.02269   2.07522
   R19        2.65878  -0.00274   0.00000  -0.00608  -0.00608   2.65270
   R20        2.87439  -0.00216   0.00000  -0.00701  -0.00701   2.86739
   R21        2.08000   0.00260   0.00000   0.00760   0.00760   2.08760
   R22        2.07657   0.00167   0.00000   0.00487   0.00487   2.08144
   R23        2.05478   0.00815   0.00000   0.02284   0.02284   2.07762
   R24        2.05601   0.00787   0.00000   0.02210   0.02210   2.07811
   R25        2.05452   0.00806   0.00000   0.02258   0.02258   2.07710
    A1        2.27968   0.00083   0.00000   0.00327   0.00326   2.28293
    A2        2.08325  -0.00258   0.00000  -0.01009  -0.01010   2.07316
    A3        1.92025   0.00174   0.00000   0.00683   0.00682   1.92707
    A4        2.13098  -0.00370   0.00000  -0.01641  -0.01641   2.11457
    A5        2.03009   0.00262   0.00000   0.01285   0.01285   2.04294
    A6        2.12211   0.00108   0.00000   0.00357   0.00357   2.12568
    A7        2.13091   0.00637   0.00000   0.02491   0.02491   2.15582
    A8        2.12041   0.00135   0.00000   0.00598   0.00598   2.12639
    A9        2.11831  -0.00190   0.00000  -0.01036  -0.01037   2.10794
   A10        2.04446   0.00055   0.00000   0.00439   0.00439   2.04886
   A11        2.13728   0.00126   0.00000   0.00574   0.00575   2.14303
   A12        2.12742  -0.00008   0.00000   0.00049   0.00049   2.12791
   A13        2.01849  -0.00117   0.00000  -0.00623  -0.00624   2.01225
   A14        2.08644   0.00114   0.00000   0.00253   0.00252   2.08896
   A15        2.06266  -0.00151   0.00000  -0.00693  -0.00693   2.05574
   A16        2.13408   0.00037   0.00000   0.00440   0.00440   2.13848
   A17        2.07827   0.00193   0.00000   0.00775   0.00775   2.08602
   A18        2.11119  -0.00112   0.00000  -0.00477  -0.00477   2.10642
   A19        2.09372  -0.00082   0.00000  -0.00298  -0.00298   2.09074
   A20        2.14379  -0.00355   0.00000  -0.01423  -0.01422   2.12958
   A21        2.12083  -0.00078   0.00000  -0.00834  -0.00834   2.11249
   A22        2.01856   0.00433   0.00000   0.02257   0.02256   2.04112
   A23        2.05856   0.00127   0.00000   0.00790   0.00791   2.06647
   A24        2.18082   0.00038   0.00000   0.00227   0.00227   2.18309
   A25        2.09038  -0.00360   0.00000  -0.02174  -0.02174   2.06863
   A26        2.01199   0.00322   0.00000   0.01947   0.01948   2.03146
   A27        2.00575   0.00003   0.00000   0.00012   0.00012   2.00587
   A28        1.90054  -0.00539   0.00000  -0.02141  -0.02135   1.87918
   A29        1.91420   0.00234   0.00000   0.01318   0.01316   1.92736
   A30        1.91096   0.00233   0.00000   0.01535   0.01538   1.92634
   A31        1.92847   0.00119   0.00000   0.00277   0.00281   1.93128
   A32        1.93618   0.00171   0.00000   0.00793   0.00799   1.94417
   A33        1.87335  -0.00202   0.00000  -0.01710  -0.01714   1.85622
   A34        1.91790   0.00137   0.00000   0.00851   0.00849   1.92639
   A35        1.92105   0.00106   0.00000   0.00643   0.00641   1.92746
   A36        1.91827   0.00046   0.00000   0.00252   0.00251   1.92078
   A37        1.90685  -0.00117   0.00000  -0.00655  -0.00658   1.90027
   A38        1.89224  -0.00093   0.00000  -0.00572  -0.00573   1.88651
   A39        1.90721  -0.00084   0.00000  -0.00550  -0.00551   1.90170
    D1       -0.00721   0.00019   0.00000   0.00747   0.00749   0.00028
    D2        3.13844   0.00012   0.00000   0.00501   0.00502  -3.13973
    D3        3.13589  -0.00004   0.00000  -0.00180  -0.00181   3.13408
    D4       -0.00165  -0.00011   0.00000  -0.00427  -0.00428  -0.00593
    D5        0.00551  -0.00024   0.00000  -0.01074  -0.01071  -0.00521
    D6       -3.13739  -0.00004   0.00000  -0.00265  -0.00267  -3.14007
    D7       -3.13658  -0.00017   0.00000  -0.00522  -0.00522   3.14139
    D8        0.00075  -0.00009   0.00000  -0.00261  -0.00261  -0.00186
    D9        3.13753   0.00014   0.00000   0.00434   0.00433  -3.14133
   D10       -0.00106   0.00003   0.00000   0.00057   0.00058  -0.00048
   D11        0.00459  -0.00008   0.00000  -0.00294  -0.00294   0.00165
   D12       -3.13556  -0.00011   0.00000  -0.00433  -0.00434  -3.13990
   D13       -3.13989   0.00002   0.00000   0.00066   0.00066  -3.13922
   D14        0.00315  -0.00001   0.00000  -0.00074  -0.00074   0.00241
   D15       -3.13942  -0.00004   0.00000  -0.00174  -0.00174  -3.14116
   D16        0.00185  -0.00004   0.00000  -0.00168  -0.00168   0.00017
   D17        0.00081  -0.00001   0.00000  -0.00042  -0.00042   0.00039
   D18       -3.14110  -0.00001   0.00000  -0.00036  -0.00036  -3.14146
   D19        3.13916   0.00005   0.00000   0.00210   0.00210   3.14126
   D20       -0.00156   0.00002   0.00000   0.00090   0.00091  -0.00065
   D21       -0.00108   0.00002   0.00000   0.00079   0.00079  -0.00029
   D22        3.14138  -0.00001   0.00000  -0.00041  -0.00040   3.14098
   D23       -0.00001  -0.00001   0.00000  -0.00024  -0.00024  -0.00025
   D24       -3.14153  -0.00000   0.00000  -0.00006  -0.00006  -3.14159
   D25       -3.14127  -0.00001   0.00000  -0.00030  -0.00030  -3.14157
   D26        0.00040  -0.00000   0.00000  -0.00012  -0.00012   0.00028
   D27       -0.00069   0.00002   0.00000   0.00067   0.00067  -0.00003
   D28        3.14099   0.00001   0.00000   0.00040   0.00040   3.14139
   D29        3.14082   0.00001   0.00000   0.00049   0.00049   3.14131
   D30       -0.00068   0.00001   0.00000   0.00022   0.00022  -0.00045
   D31        0.00049  -0.00001   0.00000  -0.00035  -0.00035   0.00014
   D32       -3.14119  -0.00000   0.00000  -0.00010  -0.00009  -3.14129
   D33        0.00044  -0.00001   0.00000  -0.00041  -0.00041   0.00003
   D34        3.14120   0.00002   0.00000   0.00072   0.00074  -3.14125
   D35       -2.95255  -0.00066   0.00000  -0.02314  -0.02314  -2.97569
   D36        1.21843  -0.00020   0.00000  -0.02129  -0.02121   1.19722
   D37       -0.83287  -0.00048   0.00000  -0.01729  -0.01737  -0.85024
   D38       -1.03592   0.00015   0.00000   0.00448   0.00447  -1.03144
   D39       -3.13668   0.00006   0.00000   0.00311   0.00309  -3.13358
   D40        1.04507   0.00013   0.00000   0.00425   0.00424   1.04931
   D41        1.06753   0.00034   0.00000   0.00883   0.00884   1.07638
   D42       -1.03323   0.00025   0.00000   0.00746   0.00746  -1.02576
   D43       -3.13466   0.00032   0.00000   0.00860   0.00861  -3.12605
   D44       -3.14014  -0.00032   0.00000  -0.00564  -0.00563   3.13742
   D45        1.04229  -0.00041   0.00000  -0.00701  -0.00701   1.03528
   D46       -1.05915  -0.00034   0.00000  -0.00587  -0.00586  -1.06501
         Item               Value     Threshold  Converged?
 Maximum Force            0.020465     0.000450     NO 
 RMS     Force            0.004595     0.000300     NO 
 Maximum Displacement     0.125581     0.001800     NO 
 RMS     Displacement     0.043064     0.001200     NO 
 Predicted change in Energy=-2.827657D-03
 GradGradGradGradGradGradGradGradGradGradGradGradGradGradGradGradGradGrad

                          Input orientation:                          
 ---------------------------------------------------------------------
 Center     Atomic      Atomic             Coordinates (Angstroms)
 Number     Number       Type             X           Y           Z
 ---------------------------------------------------------------------
      1          8           0        2.469707   -1.417626    0.424872
      2          6           0        2.419457   -0.267461    0.028749
      3          6           0        1.299518    0.579585   -0.241832
      4          7           0        0.057338    0.150250   -0.069007
      5          6           0       -1.000868    0.885523   -0.301949
      6          6           0       -2.336567    0.381185   -0.101034
      7          6           0       -2.599176   -0.931494    0.359850
      8          6           0       -3.910957   -1.350519    0.530130
      9          6           0       -4.959906   -0.468044    0.243731
     10          7           0       -4.740338    0.774922   -0.191783
     11          6           0       -3.483476    1.174880   -0.354545
     12          8           0        3.614924    0.405235   -0.237650
     13          6           0        4.779494   -0.343193   -0.004957
     14          6           0        5.962730    0.600550   -0.112991
     15          1           0        1.516870    1.598345   -0.599745
     16          1           0       -0.898734    1.926370   -0.662881
     17          1           0       -1.744564   -1.578288    0.568112
     18          1           0       -4.132376   -2.360148    0.884981
     19          1           0       -6.005255   -0.773041    0.369189
     20          1           0       -3.340904    2.202837   -0.713620
     21          1           0        4.865432   -1.161792   -0.741773
     22          1           0        4.736231   -0.821443    0.986302
     23          1           0        5.992276    1.064878   -1.109119
     24          1           0        6.903933    0.056968    0.054241
     25          1           0        5.875331    1.401641    0.634506
 ---------------------------------------------------------------------
                    Distance matrix (angstroms):
                    1          2          3          4          5
     1  O    0.000000
     2  C    1.217506   0.000000
     3  C    2.408878   1.430022   0.000000
     4  N    2.919191   2.400759   1.325597   0.000000
     5  C    4.228198   3.624549   2.321419   1.309462   0.000000
     6  C    5.158738   4.801807   3.644215   2.405232   1.441810
     7  C    5.092556   5.073188   4.224357   2.900199   2.508808
     8  C    6.381885   6.441936   5.609837   4.284698   3.763091
     9  C    7.492240   7.385218   6.365036   5.064863   4.219465
    10  N    7.561235   7.238637   6.043221   4.839730   3.742727
    11  C    6.539798   6.088668   4.821214   3.697129   2.499967
    12  O    2.252395   1.397365   2.321965   3.570696   4.641158
    13  C    2.583462   2.361492   3.608027   4.748298   5.916970
    14  C    4.069834   3.650797   4.665040   5.922699   6.971988
    15  H    3.324729   2.165848   1.101460   2.123416   2.633591
    16  H    4.869488   4.037528   2.612168   2.102704   1.106375
    17  H    4.219764   4.398664   3.818227   2.576939   2.716699
    18  H    6.684874   6.931016   6.278312   4.976535   4.663639
    19  H    8.499622   8.446732   7.454036   6.148132   5.314617
    20  H    6.940253   6.311516   4.938729   4.022026   2.716718
    21  H    2.676941   2.715940   3.999760   5.029099   6.228838
    22  H    2.409932   2.567342   3.909244   4.893863   6.122714
    23  H    4.574325   3.979309   4.796840   6.094412   7.041857
    24  H    4.687660   4.496268   5.636511   6.848339   7.956083
    25  H    4.426115   3.885345   4.730942   5.992491   6.958839
                    6          7          8          9         10
     6  C    0.000000
     7  C    1.415805   0.000000
     8  C    2.424019   1.387569   0.000000
     9  C    2.778841   2.408592   1.400386   0.000000
    10  N    2.437494   2.792979   2.393017   1.335232   0.000000
    11  C    1.417610   2.393566   2.709802   2.288444   1.328970
    12  O    5.953108   6.384269   7.766018   8.632615   8.363562
    13  C    7.153480   7.411069   8.764985   9.743374   9.587089
    14  C    8.302205   8.710739  10.085137  10.980580  10.704779
    15  H    4.071753   4.925722   6.279627   6.850550   6.324327
    16  H    2.184178   3.479205   4.608119   4.800862   4.038031
    17  H    2.153547   1.091823   2.178665   3.417059   3.884547
    18  H    3.422289   2.160444   1.092839   2.162422   3.370119
    19  H    3.874612   3.409776   2.178409   1.096138   2.076269
    20  H    2.168494   3.395075   3.807652   3.266694   2.066319
    21  H    7.393249   7.548972   8.870083   9.898979   9.814488
    22  H    7.256245   7.362930   8.675360   9.730949   9.682026
    23  H    8.417440   8.941835  10.324500  11.141379  10.775648
    24  H    9.247490   9.559264  10.916471  11.876961  11.668977
    25  H    8.307685   8.794101  10.166450  11.002308  10.666206
                   11         12         13         14         15
    11  C    0.000000
    12  O    7.140959   0.000000
    13  C    8.408532   1.403750   0.000000
    14  C    9.466732   2.359212   1.517356   0.000000
    15  H    5.024232   2.440585   3.842922   4.582379   0.000000
    16  H    2.709373   4.782027   6.150288   7.009984   2.438591
    17  H    3.384530   5.771285   6.664622   8.038260   4.700195
    18  H    3.801831   8.302307   9.180496  10.567538   7.056065
    19  H    3.267653   9.711047  10.799795  12.056199   7.946362
    20  H    1.098161   7.200101   8.539633   9.459688   4.896565
    21  H    8.678378   2.067241   1.104712   2.169165   4.341819
    22  H    8.564272   2.064007   1.101449   2.175962   4.328418
    23  H    9.506385   2.616560   2.161637   1.099429   4.535781
    24  H   10.455385   3.320251   2.162608   1.099686   5.641275
    25  H    9.413655   2.619717   2.157363   1.099153   4.534120
                   16         17         18         19         20
    16  H    0.000000
    17  H    3.809646   0.000000
    18  H    5.588073   2.532461   0.000000
    19  H    5.867585   4.340678   2.508511   0.000000
    20  H    2.458293   4.299773   4.899264   4.138490   0.000000
    21  H    6.539769   6.751394   9.221873  10.934222   8.869356
    22  H    6.482523   6.538226   9.001670  10.759307   8.790683
    23  H    6.958973   8.346144  10.872709  12.227187   9.410612
    24  H    8.055466   8.816724  11.328402  12.939677  10.495287
    25  H    6.917117   8.182126  10.694297  12.080892   9.348708
                   21         22         23         24         25
    21  H    0.000000
    22  H    1.766005   0.000000
    23  H    2.522454   3.086526   0.000000
    24  H    2.504895   2.517792   1.788968   0.000000
    25  H    3.079809   2.522580   1.779694   1.789657   0.000000
 Stoichiometry    C10H11N2O2(1-)
 Framework group  C1[X(C10H11N2O2)]
 Deg. of freedom    69
 Full point group                 C1      NOp   1
 Largest Abelian subgroup         C1      NOp   1
 Largest concise Abelian subgroup C1      NOp   1
                         Standard orientation:                         
 ---------------------------------------------------------------------
 Center     Atomic      Atomic             Coordinates (Angstroms)
 Number     Number       Type             X           Y           Z
 ---------------------------------------------------------------------
      1          8           0       -2.383822    1.526327   -0.018671
      2          6           0       -2.349853    0.309377   -0.032775
      3          6           0       -1.241758   -0.594551   -0.034714
      4          7           0        0.006674   -0.149145   -0.019292
      5          6           0        1.054615   -0.934326   -0.020062
      6          6           0        2.397646   -0.410134   -0.002616
      7          6           0        2.678916    0.977292    0.018390
      8          6           0        3.996808    1.411189    0.033898
      9          6           0        5.033370    0.469598    0.028871
     10          7           0        4.796141   -0.844249    0.009518
     11          6           0        3.533443   -1.258412   -0.005452
     12          8           0       -3.555162   -0.397073   -0.060829
     13          6           0       -4.709333    0.401924   -0.063298
     14          6           0       -5.902635   -0.512049    0.144200
     15          1           0       -1.473594   -1.671212   -0.051083
     16          1           0        0.937733   -2.034427   -0.033574
     17          1           0        1.833371    1.668033    0.021430
     18          1           0        4.232582    2.478168    0.050195
     19          1           0        6.083176    0.784698    0.040627
     20          1           0        3.376275   -2.345159   -0.020830
     21          1           0       -4.798306    0.947909   -1.019526
     22          1           0       -4.647441    1.167379    0.726282
     23          1           0       -5.950754   -1.266006   -0.654535
     24          1           0       -6.836296    0.068968    0.141748
     25          1           0       -5.811887   -1.038074    1.105032
 ---------------------------------------------------------------------
 Rotational constants (GHZ):           3.1431649           0.2074499           0.1951617
 Standard basis: def2SVP (5D, 7F)
 There are   265 symmetry adapted cartesian basis functions of A   symmetry.
 There are   251 symmetry adapted basis functions of A   symmetry.
   251 basis functions,   427 primitive gaussians,   265 cartesian basis functions
    51 alpha electrons       51 beta electrons
       nuclear repulsion energy       780.0172540787 Hartrees.
 NAtoms=   25 NActive=   25 NUniq=   25 SFac= 1.00D+00 NAtFMM=   60 NAOKFM=F Big=F
 Integral buffers will be    131072 words long.
 Raffenetti 2 integral format.
 Two-electron integral symmetry is turned on.
 Nuclear repulsion after empirical dispersion term =      780.0164150604 Hartrees.
 One-electron integrals computed using PRISM.
   1 Symmetry operations used in ECPInt.
 ECPInt:  NShTT=    6903 NPrTT=   25191 LenC2=    5981 LenP2D=   15613.
 LDataN:  DoStor=T MaxTD1= 4 Len=   56
 NBasis=   251 RedAO= T EigKep=  6.90D-04  NBF=   251
 NBsUse=   251 1.00D-06 EigRej= -1.00D+00 NBFU=   251
 Initial guess from the checkpoint file:  "A12_crest_conformers_censo-1.chk"
 B after Tr=    -0.000000    0.000000    0.000000
         Rot=    1.000000    0.000075   -0.000008   -0.000269 Ang=   0.03 deg.
 ExpMin= 1.22D-01 ExpMax= 2.27D+03 ExpMxC= 3.41D+02 IAcc=3 IRadAn=         5 AccDes= 0.00D+00
 Harris functional with IExCor= 1009 and IRadAn=       5 diagonalized for initial guess.
 HarFok:  IExCor= 1009 AccDes= 0.00D+00 IRadAn=         5 IDoV= 1 UseB2=F ITyADJ=14
 ICtDFT=  3500011 ScaDFX=  1.000000  1.000000  1.000000  1.000000
 FoFCou: FMM=F IPFlag=           0 FMFlag=      100000 FMFlg1=           0
         NFxFlg=           0 DoJE=T BraDBF=F KetDBF=T FulRan=T
         wScrn=  0.000000 ICntrl=       500 IOpCl=  0 I1Cent=   200000004 NGrid=           0
         NMat0=    1 NMatS0=      1 NMatT0=    0 NMatD0=    1 NMtDS0=    0 NMtDT0=    0
 Petite list used in FoFCou.
 Requested convergence on RMS density matrix=1.00D-08 within 128 cycles.
 Requested convergence on MAX density matrix=1.00D-06.
 Requested convergence on             energy=1.00D-06.
 No special actions if energy rises.
 Integral accuracy reduced to 1.0D-05 until final iterations.
 Initial convergence to 1.0D-05 achieved.  Increase integral accuracy.
 SCF Done:  E(RM062X) =  -646.915552306     A.U. after   13 cycles
            NFock= 13  Conv=0.44D-08     -V/T= 2.0097
   1 Symmetry operations used in ECPInt.
 ECPInt:  NShTT=    6903 NPrTT=   25191 LenC2=    5981 LenP2D=   15613.
 LDataN:  DoStor=T MaxTD1= 5 Len=  102
 Calling FoFJK, ICntrl=      2127 FMM=F ISym2X=0 I1Cent= 0 IOpClX= 0 NMat=1 NMatS=1 NMatT=0.
 ***** Axes restored to original set *****
 -------------------------------------------------------------------
 Center     Atomic                   Forces (Hartrees/Bohr)
 Number     Number              X              Y              Z
 -------------------------------------------------------------------
      1        8          -0.002234588    0.002189381   -0.000494388
      2        6           0.005384528   -0.003297612   -0.000462393
      3        6          -0.003461329    0.002443463   -0.000562780
      4        7          -0.000564012   -0.000638614    0.000390801
      5        6           0.002600455    0.000207525   -0.000122068
      6        6          -0.001129326   -0.001547205    0.000528010
      7        6          -0.000074035    0.000808993   -0.000320196
      8        6           0.000292163    0.000340356   -0.000099750
      9        6           0.002040130    0.001793809   -0.000679470
     10        7           0.000262572   -0.000011521    0.000005626
     11        6          -0.000559310   -0.001192990    0.000467224
     12        8          -0.003159762   -0.001382974    0.001588810
     13        6           0.000458576    0.002580625   -0.001068930
     14        6          -0.000930319   -0.001483222    0.000145914
     15        1           0.000016861   -0.000391490    0.000155369
     16        1          -0.000699778   -0.000025750   -0.000010830
     17        1          -0.000004812    0.000067609   -0.000025137
     18        1           0.000343667    0.000026004   -0.000019496
     19        1           0.000680772   -0.000005091   -0.000001215
     20        1          -0.000037477   -0.000408951    0.000119023
     21        1          -0.000382165   -0.000649670    0.000556152
     22        1           0.000039481   -0.000271917   -0.000059692
     23        1           0.000170615    0.000084962    0.000180164
     24        1           0.000644030    0.000619093   -0.000086260
     25        1           0.000303063    0.000145185   -0.000124487
 -------------------------------------------------------------------
 Cartesian Forces:  Max     0.005384528 RMS     0.001263774

 GradGradGradGradGradGradGradGradGradGradGradGradGradGradGradGradGradGrad
 Berny optimization.
 Using GEDIIS/GDIIS optimizer.
 FormGI is forming the generalized inverse of G from B-inverse, IUseBI=4.
 Internal  Forces:  Max     0.003052035 RMS     0.000977497
 Search for a local minimum.
 Step number   2 out of a maximum of  120
 All quantities printed in internal units (Hartrees-Bohrs-Radians)
 Mixed Optimization -- En-DIIS/RFO-DIIS
 Update second derivatives using D2CorX and points    1    2
 DE= -2.62D-03 DEPred=-2.83D-03 R= 9.27D-01
 TightC=F SS=  1.41D+00  RLast= 1.31D-01 DXNew= 5.0454D-01 3.9151D-01
 Trust test= 9.27D-01 RLast= 1.31D-01 DXMaxT set to 3.92D-01
 ITU=  1  0
 Use linear search instead of GDIIS.
     Eigenvalues ---    0.00487   0.01577   0.01586   0.01865   0.01877
     Eigenvalues ---    0.01929   0.01983   0.02024   0.02166   0.02230
     Eigenvalues ---    0.02248   0.02270   0.02282   0.02297   0.02368
     Eigenvalues ---    0.02584   0.02794   0.02965   0.05338   0.05699
     Eigenvalues ---    0.05768   0.05824   0.11259   0.13678   0.15658
     Eigenvalues ---    0.16000   0.16000   0.16000   0.16000   0.16000
     Eigenvalues ---    0.16000   0.16000   0.16133   0.21118   0.21955
     Eigenvalues ---    0.22000   0.22303   0.23291   0.23612   0.24750
     Eigenvalues ---    0.25000   0.25000   0.25000   0.25751   0.30249
     Eigenvalues ---    0.33296   0.33597   0.33799   0.33829   0.34944
     Eigenvalues ---    0.35123   0.35130   0.35304   0.35562   0.35715
     Eigenvalues ---    0.36076   0.41218   0.42227   0.43106   0.43805
     Eigenvalues ---    0.44482   0.44735   0.46777   0.49005   0.58582
     Eigenvalues ---    0.61550   0.64116   0.68451   0.92839
 RFO step:  Lambda=-3.54952399D-04 EMin= 4.87323299D-03
 Quartic linear search produced a step of -0.04500.
 Iteration  1 RMS(Cart)=  0.02601066 RMS(Int)=  0.00018361
 Iteration  2 RMS(Cart)=  0.00041078 RMS(Int)=  0.00001542
 Iteration  3 RMS(Cart)=  0.00000010 RMS(Int)=  0.00001542
 Variable       Old X    -DE/DX   Delta X   Delta X   Delta X     New X
                                 (Linear)    (Quad)   (Total)
    R1        2.30075  -0.00232   0.00054  -0.00365  -0.00311   2.29764
    R2        2.70235   0.00113  -0.00187   0.00687   0.00499   2.70734
    R3        2.64064  -0.00283   0.00094  -0.00832  -0.00738   2.63325
    R4        2.50501  -0.00273  -0.00076  -0.00236  -0.00312   2.50190
    R5        2.08146  -0.00041  -0.00023  -0.00062  -0.00085   2.08061
    R6        2.47452  -0.00294  -0.00048  -0.00310  -0.00358   2.47094
    R7        2.72463  -0.00164  -0.00212   0.00136  -0.00076   2.72387
    R8        2.09075  -0.00009  -0.00024   0.00032   0.00008   2.09083
    R9        2.67548  -0.00224  -0.00041  -0.00383  -0.00424   2.67124
   R10        2.67889  -0.00122  -0.00064  -0.00117  -0.00181   2.67709
   R11        2.62213  -0.00206  -0.00102  -0.00143  -0.00245   2.61967
   R12        2.06325  -0.00005  -0.00106   0.00238   0.00132   2.06456
   R13        2.64635  -0.00048  -0.00074   0.00080   0.00006   2.64640
   R14        2.06517  -0.00010  -0.00083   0.00169   0.00086   2.06603
   R15        2.52322  -0.00152  -0.00053  -0.00122  -0.00175   2.52147
   R16        2.07140  -0.00065  -0.00097   0.00055  -0.00042   2.07098
   R17        2.51139  -0.00211  -0.00102  -0.00086  -0.00188   2.50951
   R18        2.07522  -0.00043  -0.00102   0.00126   0.00024   2.07546
   R19        2.65270  -0.00037   0.00027  -0.00144  -0.00117   2.65154
   R20        2.86739  -0.00026   0.00032  -0.00155  -0.00124   2.86615
   R21        2.08760   0.00008  -0.00034   0.00104   0.00070   2.08830
   R22        2.08144   0.00006  -0.00022   0.00069   0.00047   2.08191
   R23        2.07762  -0.00012  -0.00103   0.00209   0.00106   2.07868
   R24        2.07811   0.00023  -0.00099   0.00298   0.00199   2.08009
   R25        2.07710  -0.00000  -0.00102   0.00239   0.00137   2.07847
    A1        2.28293  -0.00188  -0.00015  -0.00680  -0.00700   2.27594
    A2        2.07316   0.00305   0.00045   0.01061   0.01101   2.08416
    A3        1.92707  -0.00117  -0.00031  -0.00369  -0.00405   1.92302
    A4        2.11457  -0.00225   0.00074  -0.01148  -0.01074   2.10383
    A5        2.04294   0.00102  -0.00058   0.00561   0.00503   2.04798
    A6        2.12568   0.00123  -0.00016   0.00587   0.00571   2.13138
    A7        2.15582  -0.00075  -0.00112  -0.00021  -0.00133   2.15449
    A8        2.12639  -0.00277  -0.00027  -0.01136  -0.01163   2.11476
    A9        2.10794   0.00211   0.00047   0.00923   0.00969   2.11763
   A10        2.04886   0.00066  -0.00020   0.00214   0.00194   2.05080
   A11        2.14303  -0.00124  -0.00026  -0.00417  -0.00443   2.13860
   A12        2.12791   0.00004  -0.00002   0.00018   0.00016   2.12807
   A13        2.01225   0.00120   0.00028   0.00398   0.00427   2.01651
   A14        2.08896  -0.00083  -0.00011  -0.00298  -0.00310   2.08587
   A15        2.05574   0.00036   0.00031   0.00057   0.00088   2.05662
   A16        2.13848   0.00047  -0.00020   0.00242   0.00222   2.14070
   A17        2.08602  -0.00046  -0.00035  -0.00093  -0.00128   2.08474
   A18        2.10642  -0.00011   0.00021  -0.00166  -0.00144   2.10498
   A19        2.09074   0.00057   0.00013   0.00259   0.00273   2.09346
   A20        2.12958   0.00138   0.00064   0.00441   0.00504   2.13462
   A21        2.11249  -0.00091   0.00038  -0.00511  -0.00474   2.10775
   A22        2.04112  -0.00048  -0.00102   0.00071  -0.00031   2.04081
   A23        2.06647  -0.00141  -0.00036  -0.00499  -0.00534   2.06113
   A24        2.18309   0.00012  -0.00010   0.00051   0.00041   2.18350
   A25        2.06863  -0.00008   0.00098  -0.00254  -0.00156   2.06707
   A26        2.03146  -0.00004  -0.00088   0.00203   0.00115   2.03261
   A27        2.00587   0.00190  -0.00001   0.00727   0.00726   2.01313
   A28        1.87918   0.00050   0.00096   0.00102   0.00197   1.88116
   A29        1.92736  -0.00028  -0.00059   0.00076   0.00016   1.92752
   A30        1.92634  -0.00021  -0.00069   0.00099   0.00029   1.92663
   A31        1.93128   0.00031  -0.00013   0.00305   0.00292   1.93420
   A32        1.94417   0.00009  -0.00036   0.00176   0.00140   1.94557
   A33        1.85622  -0.00043   0.00077  -0.00755  -0.00678   1.84944
   A34        1.92639   0.00003  -0.00038   0.00065   0.00027   1.92665
   A35        1.92746   0.00117  -0.00029   0.00830   0.00800   1.93546
   A36        1.92078   0.00026  -0.00011   0.00158   0.00146   1.92224
   A37        1.90027  -0.00057   0.00030  -0.00367  -0.00338   1.89689
   A38        1.88651  -0.00030   0.00026  -0.00364  -0.00338   1.88313
   A39        1.90170  -0.00064   0.00025  -0.00359  -0.00336   1.89835
    D1        0.00028  -0.00015  -0.00034  -0.00709  -0.00740  -0.00711
    D2       -3.13973  -0.00019  -0.00023  -0.00888  -0.00907   3.13439
    D3        3.13408   0.00027   0.00008   0.01293   0.01298  -3.13613
    D4       -0.00593   0.00023   0.00019   0.01115   0.01131   0.00538
    D5       -0.00521  -0.00001   0.00048  -0.00254  -0.00198  -0.00719
    D6       -3.14007  -0.00035   0.00012  -0.01976  -0.01971   3.12341
    D7        3.14139   0.00003   0.00023   0.00047   0.00070  -3.14110
    D8       -0.00186   0.00007   0.00012   0.00234   0.00246   0.00059
    D9       -3.14133  -0.00000  -0.00019   0.00034   0.00014  -3.14119
   D10       -0.00048   0.00001  -0.00003   0.00039   0.00036  -0.00012
   D11        0.00165  -0.00001   0.00013  -0.00088  -0.00075   0.00090
   D12       -3.13990  -0.00002   0.00020  -0.00138  -0.00118  -3.14108
   D13       -3.13922  -0.00002  -0.00003  -0.00093  -0.00096  -3.14019
   D14        0.00241  -0.00003   0.00003  -0.00143  -0.00140   0.00101
   D15       -3.14116  -0.00002   0.00008  -0.00088  -0.00080   3.14122
   D16        0.00017  -0.00001   0.00008  -0.00055  -0.00047  -0.00030
   D17        0.00039  -0.00001   0.00002  -0.00041  -0.00040  -0.00000
   D18       -3.14146  -0.00000   0.00002  -0.00008  -0.00006  -3.14153
   D19        3.14126   0.00001  -0.00009   0.00078   0.00069  -3.14124
   D20       -0.00065   0.00002  -0.00004   0.00098   0.00094   0.00029
   D21       -0.00029   0.00001  -0.00004   0.00032   0.00028  -0.00001
   D22        3.14098   0.00001   0.00002   0.00052   0.00054   3.14152
   D23       -0.00025   0.00001   0.00001   0.00027   0.00028   0.00003
   D24       -3.14159   0.00000   0.00000   0.00018   0.00018  -3.14141
   D25       -3.14157  -0.00000   0.00001  -0.00008  -0.00007   3.14155
   D26        0.00028  -0.00000   0.00001  -0.00017  -0.00017   0.00011
   D27       -0.00003  -0.00000  -0.00003   0.00001  -0.00002  -0.00004
   D28        3.14139   0.00000  -0.00002   0.00018   0.00016   3.14156
   D29        3.14131   0.00000  -0.00002   0.00011   0.00008   3.14140
   D30       -0.00045   0.00001  -0.00001   0.00027   0.00026  -0.00019
   D31        0.00014  -0.00000   0.00002  -0.00013  -0.00011   0.00002
   D32       -3.14129  -0.00001   0.00000  -0.00029  -0.00029  -3.14157
   D33        0.00003  -0.00000   0.00002  -0.00005  -0.00003   0.00000
   D34       -3.14125  -0.00001  -0.00003  -0.00025  -0.00028  -3.14153
   D35       -2.97569  -0.00047   0.00104  -0.03327  -0.03223  -3.00792
   D36        1.19722  -0.00099   0.00095  -0.03809  -0.03714   1.16008
   D37       -0.85024  -0.00017   0.00078  -0.02987  -0.02909  -0.87932
   D38       -1.03144   0.00008  -0.00020   0.00236   0.00216  -1.02928
   D39       -3.13358   0.00001  -0.00014   0.00113   0.00099  -3.13259
   D40        1.04931  -0.00011  -0.00019  -0.00074  -0.00094   1.04838
   D41        1.07638   0.00024  -0.00040   0.00574   0.00535   1.08172
   D42       -1.02576   0.00017  -0.00034   0.00451   0.00418  -1.02159
   D43       -3.12605   0.00005  -0.00039   0.00264   0.00225  -3.12380
   D44        3.13742  -0.00004   0.00025  -0.00060  -0.00034   3.13707
   D45        1.03528  -0.00011   0.00032  -0.00183  -0.00151   1.03376
   D46       -1.06501  -0.00023   0.00026  -0.00370  -0.00344  -1.06845
         Item               Value     Threshold  Converged?
 Maximum Force            0.003052     0.000450     NO 
 RMS     Force            0.000977     0.000300     NO 
 Maximum Displacement     0.086829     0.001800     NO 
 RMS     Displacement     0.026205     0.001200     NO 
 Predicted change in Energy=-1.855618D-04
 GradGradGradGradGradGradGradGradGradGradGradGradGradGradGradGradGradGrad

                          Input orientation:                          
 ---------------------------------------------------------------------
 Center     Atomic      Atomic             Coordinates (Angstroms)
 Number     Number       Type             X           Y           Z
 ---------------------------------------------------------------------
      1          8           0        2.430879   -1.421677    0.405402
      2          6           0        2.404408   -0.271469    0.012165
      3          6           0        1.293813    0.593634   -0.253739
      4          7           0        0.052371    0.166780   -0.082126
      5          6           0       -1.001765    0.906780   -0.307797
      6          6           0       -2.332416    0.391560   -0.103888
      7          6           0       -2.576753   -0.925686    0.347018
      8          6           0       -3.882760   -1.356260    0.522230
      9          6           0       -4.939461   -0.478680    0.249458
     10          7           0       -4.737841    0.769428   -0.177091
     11          6           0       -3.485559    1.178694   -0.343858
     12          8           0        3.602964    0.396081   -0.231894
     13          6           0        4.766296   -0.347849    0.017123
     14          6           0        5.952188    0.588175   -0.116662
     15          1           0        1.519306    1.613553   -0.601797
     16          1           0       -0.906768    1.950818   -0.661524
     17          1           0       -1.713592   -1.565823    0.543935
     18          1           0       -4.092278   -2.371257    0.870338
     19          1           0       -5.980088   -0.796424    0.380463
     20          1           0       -3.350616    2.210330   -0.695640
     21          1           0        4.846873   -1.188334   -0.695825
     22          1           0        4.723269   -0.803589    1.019217
     23          1           0        5.980607    1.029167   -1.123986
     24          1           0        6.897214    0.052287    0.060455
     25          1           0        5.869830    1.409880    0.609804
 ---------------------------------------------------------------------
                    Distance matrix (angstroms):
                    1          2          3          4          5
     1  O    0.000000
     2  C    1.215860   0.000000
     3  C    2.406006   1.432665   0.000000
     4  N    2.901410   2.394375   1.323946   0.000000
     5  C    4.208730   3.618378   2.317469   1.307567   0.000000
     6  C    5.122127   4.784409   3.634945   2.395456   1.441410
     7  C    5.032474   5.035086   4.201253   2.879226   2.503458
     8  C    6.315059   6.400424   5.585797   4.262647   3.756385
     9  C    7.432057   7.350622   6.344822   5.044299   4.211351
    10  N    7.518696   7.220180   6.034702   4.828906   3.740884
    11  C    6.505964   6.076302   4.815892   3.689096   2.498894
    12  O    2.254811   1.393457   2.317689   3.561140   4.633584
    13  C    2.599623   2.363128   3.608032   4.742971   5.911869
    14  C    4.087992   3.652715   4.660395   5.914948   6.963872
    15  H    3.325363   2.171098   1.101012   2.124879   2.634723
    16  H    4.863326   4.044292   2.617402   2.106761   1.106419
    17  H    4.149290   4.349259   3.787350   2.551958   2.710334
    18  H    6.608286   6.881315   6.250128   4.952467   4.656693
    19  H    8.434211   8.408982   7.432637   6.126362   5.306439
    20  H    6.915884   6.307187   4.937580   4.016568   2.714178
    21  H    2.665366   2.703243   3.999385   5.019981   6.224679
    22  H    2.452316   2.583490   3.915842   4.896106   6.120649
    23  H    4.576706   3.971360   4.786759   6.080557   7.030979
    24  H    4.715899   4.504715   5.638251   6.847285   7.953593
    25  H    4.459359   3.897853   4.727780   5.988898   6.950822
                    6          7          8          9         10
     6  C    0.000000
     7  C    1.413561   0.000000
     8  C    2.418774   1.386271   0.000000
     9  C    2.771075   2.406599   1.400416   0.000000
    10  N    2.436024   2.796141   2.395571   1.334304   0.000000
    11  C    1.416653   2.394087   2.708112   2.283143   1.327976
    12  O    5.936761   6.345952   7.724990   8.600577   8.349336
    13  C    7.138142   7.373133   8.722282   9.709418   9.571554
    14  C    8.286947   8.674654  10.045657  10.949897  10.691737
    15  H    4.071479   4.911791   6.266223   6.842349   6.328097
    16  H    2.185112   3.475670   4.603756   4.795306   4.038252
    17  H    2.152665   1.092520   2.179376   3.416844   3.888362
    18  H    3.417512   2.158785   1.093295   2.164499   3.373093
    19  H    3.866705   3.405952   2.175384   1.095914   2.075074
    20  H    2.166755   3.394200   3.806172   3.263191   2.066274
    21  H    7.374865   7.501115   8.815801   9.857458   9.796359
    22  H    7.243785   7.331922   8.638066   9.698785   9.665306
    23  H    8.399613   8.900209  10.280385  11.108908  10.763327
    24  H    9.237325   9.528620  10.881410  11.850085  11.659555
    25  H    8.295973   8.767480  10.137664  10.978947  10.656082
                   11         12         13         14         15
    11  C    0.000000
    12  O    7.132474   0.000000
    13  C    8.399628   1.403133   0.000000
    14  C    9.458933   2.359880   1.516701   0.000000
    15  H    5.030339   2.441454   3.843580   4.575719   0.000000
    16  H    2.710582   4.789516   6.158578   7.014196   2.450132
    17  H    3.385324   5.719855   6.614373   7.990011   4.676833
    18  H    3.800596   8.251655   9.126690  10.517780   7.038165
    19  H    3.263189   9.676359  10.761877  12.022623   7.938119
    20  H    1.098286   7.201307   8.540290   9.460907   4.907248
    21  H    8.669263   2.067102   1.105080   2.170976   4.351105
    22  H    8.554080   2.063872   1.101700   2.176574   4.328469
    23  H    9.499435   2.617215   2.161679   1.099992   4.529614
    24  H   10.451519   3.325018   2.168594   1.100736   5.638974
    25  H    9.406712   2.622008   2.158396   1.099880   4.520677
                   16         17         18         19         20
    16  H    0.000000
    17  H    3.804058   0.000000
    18  H    5.583404   2.532471   0.000000
    19  H    5.862734   4.338396   2.506771   0.000000
    20  H    2.457825   4.298340   4.898294   4.136749   0.000000
    21  H    6.554375   6.687241   9.152081  10.887381   8.874104
    22  H    6.489141   6.499236   8.955088  10.722401   8.787039
    23  H    6.964140   8.289550  10.816803  12.192390   9.415431
    24  H    8.063982   8.774851  11.282659  12.909206  10.499850
    25  H    6.916008   8.146622  10.658728  12.055743   9.346739
                   21         22         23         24         25
    21  H    0.000000
    22  H    1.762009   0.000000
    23  H    2.527052   3.087591   0.000000
    24  H    2.512966   2.525428   1.788117   0.000000
    25  H    3.082503   2.526197   1.778550   1.788956   0.000000
 Stoichiometry    C10H11N2O2(1-)
 Framework group  C1[X(C10H11N2O2)]
 Deg. of freedom    69
 Full point group                 C1      NOp   1
 Largest Abelian subgroup         C1      NOp   1
 Largest concise Abelian subgroup C1      NOp   1
                         Standard orientation:                         
 ---------------------------------------------------------------------
 Center     Atomic      Atomic             Coordinates (Angstroms)
 Number     Number       Type             X           Y           Z
 ---------------------------------------------------------------------
      1          8           0       -2.348461    1.523516   -0.026791
      2          6           0       -2.337476    0.307848   -0.045372
      3          6           0       -1.238250   -0.610969   -0.043182
      4          7           0        0.009135   -0.167613   -0.025896
      5          6           0        1.053559   -0.954319   -0.023497
      6          6           0        2.391360   -0.418070   -0.003824
      7          6           0        2.653402    0.970864    0.014910
      8          6           0        3.965428    1.418058    0.033743
      9          6           0        5.010561    0.485931    0.033865
     10          7           0        4.792172   -0.830265    0.016436
     11          6           0        3.534168   -1.255262   -0.001558
     12          8           0       -3.545078   -0.387329   -0.057604
     13          6           0       -4.698309    0.411702   -0.037794
     14          6           0       -5.893923   -0.504860    0.137710
     15          1           0       -1.477430   -1.685608   -0.056263
     16          1           0        0.944568   -2.055285   -0.035974
     17          1           0        1.798661    1.651316    0.013905
     18          1           0        4.188594    2.488232    0.048572
     19          1           0        6.055643    0.815501    0.048524
     20          1           0        3.385370   -2.343331   -0.015573
     21          1           0       -4.782113    0.991627   -0.974739
     22          1           0       -4.636841    1.154267    0.773723
     23          1           0       -5.940737   -1.235201   -0.683505
     24          1           0       -6.831690    0.071366    0.151029
     25          1           0       -5.807982   -1.062771    1.081682
 ---------------------------------------------------------------------
 Rotational constants (GHZ):           3.1317219           0.2088760           0.1963708
 Standard basis: def2SVP (5D, 7F)
 There are   265 symmetry adapted cartesian basis functions of A   symmetry.
 There are   251 symmetry adapted basis functions of A   symmetry.
   251 basis functions,   427 primitive gaussians,   265 cartesian basis functions
    51 alpha electrons       51 beta electrons
       nuclear repulsion energy       781.1534678190 Hartrees.
 NAtoms=   25 NActive=   25 NUniq=   25 SFac= 1.00D+00 NAtFMM=   60 NAOKFM=F Big=F
 Integral buffers will be    131072 words long.
 Raffenetti 2 integral format.
 Two-electron integral symmetry is turned on.
 Nuclear repulsion after empirical dispersion term =      781.1526267303 Hartrees.
 One-electron integrals computed using PRISM.
   1 Symmetry operations used in ECPInt.
 ECPInt:  NShTT=    6903 NPrTT=   25191 LenC2=    5983 LenP2D=   15629.
 LDataN:  DoStor=T MaxTD1= 4 Len=   56
 NBasis=   251 RedAO= T EigKep=  6.86D-04  NBF=   251
 NBsUse=   251 1.00D-06 EigRej= -1.00D+00 NBFU=   251
 Initial guess from the checkpoint file:  "A12_crest_conformers_censo-1.chk"
 B after Tr=     0.000000   -0.000000   -0.000000
         Rot=    1.000000   -0.000876    0.000029   -0.000169 Ang=  -0.10 deg.
 ExpMin= 1.22D-01 ExpMax= 2.27D+03 ExpMxC= 3.41D+02 IAcc=3 IRadAn=         5 AccDes= 0.00D+00
 Harris functional with IExCor= 1009 and IRadAn=       5 diagonalized for initial guess.
 HarFok:  IExCor= 1009 AccDes= 0.00D+00 IRadAn=         5 IDoV= 1 UseB2=F ITyADJ=14
 ICtDFT=  3500011 ScaDFX=  1.000000  1.000000  1.000000  1.000000
 FoFCou: FMM=F IPFlag=           0 FMFlag=      100000 FMFlg1=           0
         NFxFlg=           0 DoJE=T BraDBF=F KetDBF=T FulRan=T
         wScrn=  0.000000 ICntrl=       500 IOpCl=  0 I1Cent=   200000004 NGrid=           0
         NMat0=    1 NMatS0=      1 NMatT0=    0 NMatD0=    1 NMtDS0=    0 NMtDT0=    0
 Petite list used in FoFCou.
 Requested convergence on RMS density matrix=1.00D-08 within 128 cycles.
 Requested convergence on MAX density matrix=1.00D-06.
 Requested convergence on             energy=1.00D-06.
 No special actions if energy rises.
 Integral accuracy reduced to 1.0D-05 until final iterations.
 Initial convergence to 1.0D-05 achieved.  Increase integral accuracy.
 SCF Done:  E(RM062X) =  -646.915746277     A.U. after   12 cycles
            NFock= 12  Conv=0.66D-08     -V/T= 2.0096
   1 Symmetry operations used in ECPInt.
 ECPInt:  NShTT=    6903 NPrTT=   25191 LenC2=    5983 LenP2D=   15629.
 LDataN:  DoStor=T MaxTD1= 5 Len=  102
 Calling FoFJK, ICntrl=      2127 FMM=F ISym2X=0 I1Cent= 0 IOpClX= 0 NMat=1 NMatS=1 NMatT=0.
 ***** Axes restored to original set *****
 -------------------------------------------------------------------
 Center     Atomic                   Forces (Hartrees/Bohr)
 Number     Number              X              Y              Z
 -------------------------------------------------------------------
      1        8           0.000305868   -0.000010542   -0.000762123
      2        6           0.001390373    0.001141922    0.001134906
      3        6          -0.000862302   -0.000048344   -0.000438956
      4        7           0.000726873    0.000207647   -0.000338210
      5        6          -0.000298970    0.000117584    0.000053044
      6        6          -0.000405836    0.000403347   -0.000087721
      7        6           0.000220820   -0.000509244    0.000156089
      8        6          -0.000108416   -0.000032821    0.000009234
      9        6           0.000231953    0.000209597   -0.000074114
     10        7           0.000202814   -0.000316551    0.000092609
     11        6           0.000136552   -0.000086156    0.000027628
     12        8          -0.000682944   -0.000888761    0.000542777
     13        6           0.000068153    0.000324555   -0.001160238
     14        6          -0.000014905   -0.000272052    0.000117076
     15        1          -0.000057646   -0.000286695    0.000045411
     16        1          -0.000156090   -0.000271602    0.000086274
     17        1          -0.000416954    0.000419219   -0.000126593
     18        1           0.000022356    0.000419589   -0.000146628
     19        1           0.000350929    0.000063155   -0.000024092
     20        1          -0.000123998   -0.000415350    0.000142036
     21        1          -0.000245245   -0.000102075    0.000360279
     22        1           0.000015002    0.000000559    0.000381667
     23        1          -0.000050874   -0.000181670    0.000389695
     24        1          -0.000376726    0.000357985   -0.000074032
     25        1           0.000129214   -0.000243296   -0.000306017
 -------------------------------------------------------------------
 Cartesian Forces:  Max     0.001390373 RMS     0.000417244

 GradGradGradGradGradGradGradGradGradGradGradGradGradGradGradGradGradGrad
 Berny optimization.
 Using GEDIIS/GDIIS optimizer.
 FormGI is forming the generalized inverse of G from B-inverse, IUseBI=4.
 Internal  Forces:  Max     0.001528028 RMS     0.000339015
 Search for a local minimum.
 Step number   3 out of a maximum of  120
 All quantities printed in internal units (Hartrees-Bohrs-Radians)
 Mixed Optimization -- En-DIIS/RFO-DIIS
 Swapping is turned off.
 Update second derivatives using D2CorX and points    1    2    3
 DE= -1.94D-04 DEPred=-1.86D-04 R= 1.05D+00
 TightC=F SS=  1.41D+00  RLast= 7.27D-02 DXNew= 6.5843D-01 2.1818D-01
 Trust test= 1.05D+00 RLast= 7.27D-02 DXMaxT set to 3.92D-01
 ITU=  1  1  0
     Eigenvalues ---    0.00487   0.01195   0.01586   0.01865   0.01929
     Eigenvalues ---    0.01981   0.02024   0.02167   0.02231   0.02247
     Eigenvalues ---    0.02251   0.02282   0.02297   0.02303   0.02369
     Eigenvalues ---    0.02583   0.02805   0.02965   0.05306   0.05643
     Eigenvalues ---    0.05746   0.05805   0.11152   0.13677   0.15224
     Eigenvalues ---    0.16000   0.16000   0.16000   0.16000   0.16000
     Eigenvalues ---    0.16000   0.16041   0.16095   0.19909   0.21938
     Eigenvalues ---    0.22004   0.22160   0.23168   0.23405   0.24627
     Eigenvalues ---    0.25000   0.25000   0.25061   0.29739   0.31255
     Eigenvalues ---    0.33336   0.33612   0.33800   0.33890   0.35099
     Eigenvalues ---    0.35129   0.35223   0.35389   0.35553   0.35826
     Eigenvalues ---    0.36881   0.39819   0.41826   0.43139   0.44124
     Eigenvalues ---    0.44538   0.44631   0.46569   0.48906   0.58333
     Eigenvalues ---    0.61521   0.63651   0.68602   0.92713
 En-DIIS/RFO-DIIS/Sim-DIIS IScMMF=       -3 using points:     3    2
 RFO step:  Lambda=-1.55243858D-04.
 DidBck=F Rises=F RFO-DIIS coefs:    1.60854   -0.60854
 Iteration  1 RMS(Cart)=  0.04424195 RMS(Int)=  0.00060502
 Iteration  2 RMS(Cart)=  0.00110609 RMS(Int)=  0.00005781
 Iteration  3 RMS(Cart)=  0.00000033 RMS(Int)=  0.00005780
 Variable       Old X    -DE/DX   Delta X   Delta X   Delta X     New X
                                 (Linear)    (Quad)   (Total)
    R1        2.29764  -0.00023  -0.00189  -0.00005  -0.00194   2.29570
    R2        2.70734   0.00046   0.00304   0.00137   0.00441   2.71176
    R3        2.63325  -0.00153  -0.00449  -0.00294  -0.00743   2.62582
    R4        2.50190  -0.00046  -0.00190   0.00023  -0.00167   2.50022
    R5        2.08061  -0.00029  -0.00052  -0.00063  -0.00114   2.07947
    R6        2.47094   0.00027  -0.00218   0.00135  -0.00083   2.47011
    R7        2.72387  -0.00017  -0.00046   0.00101   0.00055   2.72442
    R8        2.09083  -0.00030   0.00005  -0.00081  -0.00076   2.09007
    R9        2.67124  -0.00011  -0.00258   0.00078  -0.00180   2.66944
   R10        2.67709  -0.00051  -0.00110  -0.00050  -0.00160   2.67548
   R11        2.61967  -0.00037  -0.00149   0.00030  -0.00120   2.61848
   R12        2.06456  -0.00060   0.00080  -0.00134  -0.00054   2.06402
   R13        2.64640  -0.00046   0.00003  -0.00062  -0.00059   2.64581
   R14        2.06603  -0.00044   0.00052  -0.00096  -0.00044   2.06559
   R15        2.52147  -0.00055  -0.00107  -0.00038  -0.00144   2.52003
   R16        2.07098  -0.00035  -0.00026  -0.00040  -0.00066   2.07032
   R17        2.50951  -0.00042  -0.00114   0.00022  -0.00093   2.50859
   R18        2.07546  -0.00045   0.00014  -0.00077  -0.00063   2.07483
   R19        2.65154  -0.00038  -0.00071  -0.00086  -0.00157   2.64997
   R20        2.86615  -0.00047  -0.00075  -0.00162  -0.00237   2.86378
   R21        2.08830  -0.00017   0.00042  -0.00045  -0.00003   2.08827
   R22        2.08191   0.00035   0.00029   0.00114   0.00142   2.08334
   R23        2.07868  -0.00043   0.00065  -0.00087  -0.00022   2.07847
   R24        2.08009  -0.00051   0.00121  -0.00128  -0.00007   2.08002
   R25        2.07847  -0.00039   0.00084  -0.00081   0.00002   2.07849
    A1        2.27594  -0.00015  -0.00426   0.00087  -0.00374   2.27220
    A2        2.08416  -0.00090   0.00670  -0.00581   0.00054   2.08470
    A3        1.92302   0.00106  -0.00246   0.00557   0.00275   1.92577
    A4        2.10383  -0.00034  -0.00654  -0.00022  -0.00676   2.09707
    A5        2.04798   0.00017   0.00306   0.00027   0.00333   2.05131
    A6        2.13138   0.00018   0.00347  -0.00005   0.00343   2.13481
    A7        2.15449   0.00085  -0.00081   0.00452   0.00371   2.15820
    A8        2.11476  -0.00011  -0.00708   0.00164  -0.00544   2.10931
    A9        2.11763   0.00019   0.00590  -0.00079   0.00511   2.12274
   A10        2.05080  -0.00008   0.00118  -0.00084   0.00034   2.05113
   A11        2.13860  -0.00018  -0.00269   0.00007  -0.00262   2.13598
   A12        2.12807   0.00017   0.00010   0.00062   0.00071   2.12878
   A13        2.01651   0.00002   0.00260  -0.00069   0.00191   2.01842
   A14        2.08587  -0.00012  -0.00188   0.00021  -0.00168   2.08419
   A15        2.05662  -0.00003   0.00053  -0.00076  -0.00022   2.05639
   A16        2.14070   0.00015   0.00135   0.00055   0.00190   2.14260
   A17        2.08474  -0.00003  -0.00078   0.00032  -0.00046   2.08428
   A18        2.10498   0.00008  -0.00088   0.00062  -0.00026   2.10472
   A19        2.09346  -0.00005   0.00166  -0.00094   0.00072   2.09418
   A20        2.13462   0.00015   0.00307  -0.00068   0.00239   2.13702
   A21        2.10775  -0.00012  -0.00288   0.00001  -0.00288   2.10487
   A22        2.04081  -0.00003  -0.00019   0.00067   0.00048   2.04129
   A23        2.06113  -0.00004  -0.00325   0.00074  -0.00251   2.05861
   A24        2.18350   0.00003   0.00025   0.00010   0.00035   2.18385
   A25        2.06707   0.00006  -0.00095   0.00010  -0.00085   2.06622
   A26        2.03261  -0.00008   0.00070  -0.00020   0.00050   2.03311
   A27        2.01313  -0.00112   0.00442  -0.00601  -0.00159   2.01155
   A28        1.88116   0.00015   0.00120  -0.00002   0.00117   1.88233
   A29        1.92752  -0.00009   0.00010   0.00040   0.00049   1.92800
   A30        1.92663  -0.00011   0.00018  -0.00107  -0.00089   1.92574
   A31        1.93420   0.00017   0.00178   0.00160   0.00337   1.93757
   A32        1.94557  -0.00004   0.00085  -0.00050   0.00036   1.94593
   A33        1.84944  -0.00009  -0.00412  -0.00041  -0.00454   1.84490
   A34        1.92665  -0.00012   0.00016  -0.00075  -0.00059   1.92607
   A35        1.93546   0.00017   0.00487  -0.00000   0.00486   1.94032
   A36        1.92224   0.00015   0.00089   0.00086   0.00175   1.92399
   A37        1.89689  -0.00003  -0.00205   0.00017  -0.00189   1.89500
   A38        1.88313  -0.00004  -0.00206  -0.00011  -0.00217   1.88096
   A39        1.89835  -0.00014  -0.00204  -0.00018  -0.00223   1.89611
    D1       -0.00711   0.00043  -0.00450   0.02603   0.02152   0.01441
    D2        3.13439   0.00048  -0.00552   0.02847   0.02295  -3.12585
    D3       -3.13613  -0.00058   0.00790  -0.03434  -0.02644   3.12062
    D4        0.00538  -0.00053   0.00688  -0.03189  -0.02501  -0.01963
    D5       -0.00719  -0.00041  -0.00120  -0.02235  -0.02356  -0.03075
    D6        3.12341   0.00048  -0.01200   0.03046   0.01847  -3.14131
    D7       -3.14110  -0.00008   0.00043  -0.00321  -0.00278   3.13931
    D8        0.00059  -0.00013   0.00149  -0.00577  -0.00428  -0.00369
    D9       -3.14119   0.00000   0.00009   0.00023   0.00031  -3.14087
   D10       -0.00012  -0.00000   0.00022  -0.00007   0.00015   0.00004
   D11        0.00090  -0.00001  -0.00045  -0.00074  -0.00119  -0.00029
   D12       -3.14108  -0.00000  -0.00072  -0.00015  -0.00087   3.14123
   D13       -3.14019  -0.00001  -0.00059  -0.00045  -0.00104  -3.14122
   D14        0.00101  -0.00000  -0.00085   0.00013  -0.00072   0.00029
   D15        3.14122   0.00001  -0.00049   0.00060   0.00011   3.14132
   D16       -0.00030   0.00001  -0.00029   0.00046   0.00018  -0.00013
   D17       -0.00000   0.00000  -0.00024   0.00005  -0.00019  -0.00020
   D18       -3.14153  -0.00000  -0.00004  -0.00008  -0.00012   3.14154
   D19       -3.14124  -0.00001   0.00042  -0.00049  -0.00007  -3.14131
   D20        0.00029  -0.00001   0.00057  -0.00050   0.00008   0.00037
   D21       -0.00001   0.00000   0.00017   0.00005   0.00022   0.00021
   D22        3.14152   0.00000   0.00033   0.00005   0.00037  -3.14129
   D23        0.00003  -0.00000   0.00017  -0.00017   0.00001   0.00004
   D24       -3.14141  -0.00000   0.00011  -0.00014  -0.00003  -3.14144
   D25        3.14155  -0.00000  -0.00004  -0.00003  -0.00007   3.14148
   D26        0.00011  -0.00000  -0.00010  -0.00000  -0.00011   0.00000
   D27       -0.00004   0.00000  -0.00001   0.00020   0.00019   0.00014
   D28        3.14156   0.00000   0.00010   0.00013   0.00023  -3.14140
   D29        3.14140   0.00000   0.00005   0.00018   0.00023  -3.14156
   D30       -0.00019   0.00000   0.00016   0.00011   0.00027   0.00008
   D31        0.00002  -0.00000  -0.00007  -0.00010  -0.00017  -0.00014
   D32       -3.14157  -0.00000  -0.00017  -0.00004  -0.00021   3.14140
   D33        0.00000  -0.00000  -0.00002  -0.00003  -0.00004  -0.00004
   D34       -3.14153  -0.00000  -0.00017  -0.00002  -0.00019   3.14146
   D35       -3.00792  -0.00030  -0.01962  -0.01929  -0.03891  -3.04683
   D36        1.16008  -0.00055  -0.02260  -0.02148  -0.04407   1.11601
   D37       -0.87932  -0.00032  -0.01770  -0.02057  -0.03827  -0.91759
   D38       -1.02928  -0.00005   0.00131  -0.00214  -0.00083  -1.03011
   D39       -3.13259  -0.00004   0.00060  -0.00185  -0.00125  -3.13385
   D40        1.04838  -0.00008  -0.00057  -0.00220  -0.00278   1.04560
   D41        1.08172   0.00004   0.00325  -0.00070   0.00256   1.08428
   D42       -1.02159   0.00004   0.00254  -0.00041   0.00214  -1.01945
   D43       -3.12380   0.00001   0.00137  -0.00076   0.00061  -3.12319
   D44        3.13707   0.00002  -0.00021  -0.00050  -0.00071   3.13636
   D45        1.03376   0.00003  -0.00092  -0.00021  -0.00113   1.03263
   D46       -1.06845  -0.00001  -0.00209  -0.00056  -0.00266  -1.07111
         Item               Value     Threshold  Converged?
 Maximum Force            0.001528     0.000450     NO 
 RMS     Force            0.000339     0.000300     NO 
 Maximum Displacement     0.130591     0.001800     NO 
 RMS     Displacement     0.044363     0.001200     NO 
 Predicted change in Energy=-7.830242D-05
 GradGradGradGradGradGradGradGradGradGradGradGradGradGradGradGradGradGrad

                          Input orientation:                          
 ---------------------------------------------------------------------
 Center     Atomic      Atomic             Coordinates (Angstroms)
 Number     Number       Type             X           Y           Z
 ---------------------------------------------------------------------
      1          8           0        2.411251   -1.395079    0.427886
      2          6           0        2.397592   -0.237645    0.059132
      3          6           0        1.290996    0.632919   -0.217979
      4          7           0        0.050222    0.200653   -0.062682
      5          6           0       -1.006696    0.934617   -0.292468
      6          6           0       -2.332656    0.401579   -0.102218
      7          6           0       -2.560334   -0.922020    0.335625
      8          6           0       -3.861171   -1.370773    0.498215
      9          6           0       -4.926709   -0.504396    0.225610
     10          7           0       -4.741178    0.749397   -0.189012
     11          6           0       -3.493443    1.175434   -0.343517
     12          8           0        3.598990    0.412034   -0.196489
     13          6           0        4.752822   -0.348765    0.040802
     14          6           0        5.953599    0.554014   -0.158453
     15          1           0        1.519922    1.653675   -0.559366
     16          1           0       -0.921570    1.981988   -0.637484
     17          1           0       -1.689219   -1.550820    0.532456
     18          1           0       -4.059454   -2.391192    0.836180
     19          1           0       -5.962774   -0.838929    0.347774
     20          1           0       -3.368460    2.211148   -0.685828
     21          1           0        4.791230   -1.215998   -0.643009
     22          1           0        4.730108   -0.771988    1.058531
     23          1           0        5.960731    0.961256   -1.180134
     24          1           0        6.894174    0.006919    0.007510
     25          1           0        5.912148    1.402089    0.540698
 ---------------------------------------------------------------------
                    Distance matrix (angstroms):
                    1          2          3          4          5
     1  O    0.000000
     2  C    1.214833   0.000000
     3  C    2.405180   1.435001   0.000000
     4  N    2.891621   2.391043   1.323061   0.000000
     5  C    4.198660   3.617595   2.318611   1.307127   0.000000
     6  C    5.100357   4.775969   3.632873   2.391661   1.441698
     7  C    4.994892   5.012569   4.190114   2.869502   2.501078
     8  C    6.272863   6.375648   5.574275   4.252409   3.753403
     9  C    7.394584   7.331047   6.336411   5.034883   4.207810
    10  N    7.492434   7.210954   6.033367   4.824375   3.740503
    11  C    6.485986   6.071508   4.816736   3.686005   2.498902
    12  O    2.250828   1.389526   2.318639   3.557575   4.636231
    13  C    2.593754   2.357921   3.607619   4.735717   5.910176
    14  C    4.085461   3.649555   4.663651   5.914718   6.971981
    15  H    3.326264   2.174841   1.100406   2.125555   2.640469
    16  H    4.862848   4.053256   2.625151   2.109013   1.106015
    17  H    4.104759   4.318621   3.770086   2.539193   2.706240
    18  H    6.559647   6.850913   6.235689   4.941159   4.653406
    19  H    8.392855   8.386929   7.423179   6.115989   5.302649
    20  H    6.902918   6.308637   4.941681   4.014697   2.713336
    21  H    2.615948   2.679492   3.981304   4.982051   6.193864
    22  H    2.482550   2.593251   3.928197   4.909631   6.135847
    23  H    4.553773   3.958422   4.779118   6.063112   7.023794
    24  H    4.715815   4.503524   5.642546   6.847053   7.960801
    25  H    4.482539   3.908035   4.745763   6.014125   6.984490
                    6          7          8          9         10
     6  C    0.000000
     7  C    1.412607   0.000000
     8  C    2.416219   1.385638   0.000000
     9  C    2.767196   2.405461   1.400104   0.000000
    10  N    2.435054   2.797313   2.396208   1.333541   0.000000
    11  C    1.415805   2.394001   2.706826   2.280348   1.327486
    12  O    5.932404   6.324564   7.701624   8.585193   8.346991
    13  C    7.126532   7.341511   8.686461   9.682545   9.560063
    14  C    8.287847   8.655047  10.023260  10.938411  10.696605
    15  H    4.076651   4.907514   6.262741   6.843428   6.336896
    16  H    2.185261   3.473579   4.601312   4.792512   4.038540
    17  H    2.151438   1.092233   2.179671   3.416210   3.889211
    18  H    3.414966   2.157865   1.093065   2.164469   3.373287
    19  H    3.862527   3.403476   2.173068   1.095567   2.074420
    20  H    2.165186   3.393107   3.804587   3.260835   2.065889
    21  H    7.325213   7.422239   8.728711   9.782597   9.743494
    22  H    7.253084   7.327731   8.630329   9.696364   9.673481
    23  H    8.381849   8.857358  10.233522  11.075224  10.749793
    24  H    9.235918   9.505698  10.854321  11.833946  11.660673
    25  H    8.330135   8.787860  10.159151  11.009759  10.698216
                   11         12         13         14         15
    11  C    0.000000
    12  O    7.134914   0.000000
    13  C    8.394747   1.402302   0.000000
    14  C    9.469267   2.359193   1.515447   0.000000
    15  H    5.040748   2.448647   3.849884   4.585573   0.000000
    16  H    2.711361   4.805694   6.171808   7.038219   2.464706
    17  H    3.384526   5.687646   6.571648   7.957409   4.664702
    18  H    3.799062   8.220477   9.080767  10.484501   7.031211
    19  H    3.260849   9.658595  10.731192  12.008185   7.938936
    20  H    1.097954   7.212601   8.546131   9.482879   4.921691
    21  H    8.628120   2.066713   1.105063   2.172289   4.352410
    22  H    8.566504   2.063107   1.102454   2.176295   4.336672
    23  H    9.493535   2.616682   2.160066   1.099877   4.537133
    24  H   10.459027   3.326255   2.170946   1.100699   5.649401
    25  H    9.449781   2.621899   2.158570   1.099892   4.534875
                   16         17         18         19         20
    16  H    0.000000
    17  H    3.799839   0.000000
    18  H    5.580565   2.533078   0.000000
    19  H    5.860208   4.336377   2.504134   0.000000
    20  H    2.458072   4.296099   4.896480   4.135429   0.000000
    21  H    6.547001   6.594698   9.050065  10.806129   8.850293
    22  H    6.511706   6.487765   8.940227  10.716687   8.805038
    23  H    6.978712   8.231964  10.756790  12.155045   9.425516
    24  H    8.087198   8.739380  11.243647  12.889234  10.519553
    25  H    6.958743   8.154786  10.672822  12.086073   9.396203
                   21         22         23         24         25
    21  H    0.000000
    22  H    1.759579   0.000000
    23  H    2.529164   3.087100   0.000000
    24  H    2.518149   2.528739   1.786777   0.000000
    25  H    3.084153   2.528237   1.777064   1.787502   0.000000
 Stoichiometry    C10H11N2O2(1-)
 Framework group  C1[X(C10H11N2O2)]
 Deg. of freedom    69
 Full point group                 C1      NOp   1
 Largest Abelian subgroup         C1      NOp   1
 Largest concise Abelian subgroup C1      NOp   1
                         Standard orientation:                         
 ---------------------------------------------------------------------
 Center     Atomic      Atomic             Coordinates (Angstroms)
 Number     Number       Type             X           Y           Z
 ---------------------------------------------------------------------
      1          8           0       -2.329567    1.509061   -0.006762
      2          6           0       -2.331399    0.294236   -0.002680
      3          6           0       -1.236582   -0.633430   -0.008849
      4          7           0        0.010043   -0.190261   -0.004413
      5          6           0        1.057062   -0.972772   -0.007028
      6          6           0        2.390245   -0.424065   -0.000984
      7          6           0        2.635805    0.967008    0.007614
      8          6           0        3.942732    1.427337    0.013413
      9          6           0        4.996590    0.505563    0.010602
     10          7           0        4.794118   -0.812491    0.002320
     11          6           0        3.540603   -1.249400   -0.003214
     12          8           0       -3.541939   -0.387123   -0.036225
     13          6           0       -4.685514    0.424469   -0.033864
     14          6           0       -5.897156   -0.480488    0.063892
     15          1           0       -1.479337   -1.706682   -0.018563
     16          1           0        0.957793   -2.074305   -0.013272
     17          1           0        1.773167    1.636951    0.009528
     18          1           0        4.154802    2.499611    0.020238
     19          1           0        6.037198    0.848172    0.015263
     20          1           0        3.401624   -2.338500   -0.010116
     21          1           0       -4.723975    1.040573   -0.950434
     22          1           0       -4.646414    1.139128    0.804670
     23          1           0       -5.920572   -1.181350   -0.783441
     24          1           0       -6.830399    0.103115    0.062100
     25          1           0       -5.855284   -1.073694    0.989157
 ---------------------------------------------------------------------
 Rotational constants (GHZ):           3.1389550           0.2095935           0.1969744
 Standard basis: def2SVP (5D, 7F)
 There are   265 symmetry adapted cartesian basis functions of A   symmetry.
 There are   251 symmetry adapted basis functions of A   symmetry.
   251 basis functions,   427 primitive gaussians,   265 cartesian basis functions
    51 alpha electrons       51 beta electrons
       nuclear repulsion energy       781.9001519672 Hartrees.
 NAtoms=   25 NActive=   25 NUniq=   25 SFac= 1.00D+00 NAtFMM=   60 NAOKFM=F Big=F
 Integral buffers will be    131072 words long.
 Raffenetti 2 integral format.
 Two-electron integral symmetry is turned on.
 Nuclear repulsion after empirical dispersion term =      781.8993102502 Hartrees.
 One-electron integrals computed using PRISM.
   1 Symmetry operations used in ECPInt.
 ECPInt:  NShTT=    6903 NPrTT=   25191 LenC2=    5990 LenP2D=   15646.
 LDataN:  DoStor=T MaxTD1= 4 Len=   56
 NBasis=   251 RedAO= T EigKep=  6.83D-04  NBF=   251
 NBsUse=   251 1.00D-06 EigRej= -1.00D+00 NBFU=   251
 Initial guess from the checkpoint file:  "A12_crest_conformers_censo-1.chk"
 B after Tr=     0.000000    0.000000    0.000000
         Rot=    1.000000   -0.000792    0.000110   -0.000197 Ang=  -0.09 deg.
 ExpMin= 1.22D-01 ExpMax= 2.27D+03 ExpMxC= 3.41D+02 IAcc=3 IRadAn=         5 AccDes= 0.00D+00
 Harris functional with IExCor= 1009 and IRadAn=       5 diagonalized for initial guess.
 HarFok:  IExCor= 1009 AccDes= 0.00D+00 IRadAn=         5 IDoV= 1 UseB2=F ITyADJ=14
 ICtDFT=  3500011 ScaDFX=  1.000000  1.000000  1.000000  1.000000
 FoFCou: FMM=F IPFlag=           0 FMFlag=      100000 FMFlg1=           0
         NFxFlg=           0 DoJE=T BraDBF=F KetDBF=T FulRan=T
         wScrn=  0.000000 ICntrl=       500 IOpCl=  0 I1Cent=   200000004 NGrid=           0
         NMat0=    1 NMatS0=      1 NMatT0=    0 NMatD0=    1 NMtDS0=    0 NMtDT0=    0
 Petite list used in FoFCou.
 Requested convergence on RMS density matrix=1.00D-08 within 128 cycles.
 Requested convergence on MAX density matrix=1.00D-06.
 Requested convergence on             energy=1.00D-06.
 No special actions if energy rises.
 Integral accuracy reduced to 1.0D-05 until final iterations.
 Initial convergence to 1.0D-05 achieved.  Increase integral accuracy.
 SCF Done:  E(RM062X) =  -646.915737256     A.U. after   12 cycles
            NFock= 12  Conv=0.63D-08     -V/T= 2.0096
   1 Symmetry operations used in ECPInt.
 ECPInt:  NShTT=    6903 NPrTT=   25191 LenC2=    5990 LenP2D=   15646.
 LDataN:  DoStor=T MaxTD1= 5 Len=  102
 Calling FoFJK, ICntrl=      2127 FMM=F ISym2X=0 I1Cent= 0 IOpClX= 0 NMat=1 NMatS=1 NMatT=0.
 ***** Axes restored to original set *****
 -------------------------------------------------------------------
 Center     Atomic                   Forces (Hartrees/Bohr)
 Number     Number              X              Y              Z
 -------------------------------------------------------------------
      1        8           0.000517641   -0.001060926    0.002368627
      2        6          -0.001430658    0.000785333   -0.005804972
      3        6           0.000588902   -0.001052585    0.001483165
      4        7           0.000847013    0.000860896    0.000260788
      5        6          -0.001233190   -0.000361107   -0.000042829
      6        6           0.000399033    0.001037280   -0.000413906
      7        6           0.000100644   -0.000786720    0.000266369
      8        6          -0.000028672   -0.000177254    0.000078768
      9        6          -0.000657004   -0.000621803    0.000216037
     10        7           0.000076423   -0.000214411    0.000081298
     11        6           0.000382414    0.000489996   -0.000178454
     12        8           0.000701615    0.001092453    0.001705808
     13        6           0.000327157   -0.001136759   -0.000494482
     14        6           0.000581800    0.000607616   -0.000047477
     15        1           0.000032445    0.000094755    0.000113498
     16        1           0.000170908   -0.000127003    0.000029010
     17        1          -0.000321639    0.000265515   -0.000096048
     18        1          -0.000132192    0.000302671   -0.000099475
     19        1           0.000001085    0.000099841   -0.000043263
     20        1          -0.000146835   -0.000164349    0.000061987
     21        1          -0.000235373    0.000335134    0.000220404
     22        1           0.000208546    0.000173576    0.000280606
     23        1          -0.000107549   -0.000172221    0.000247038
     24        1          -0.000611249    0.000001732    0.000000657
     25        1          -0.000031267   -0.000271660   -0.000193154
 -------------------------------------------------------------------
 Cartesian Forces:  Max     0.005804972 RMS     0.000909411

 GradGradGradGradGradGradGradGradGradGradGradGradGradGradGradGradGradGrad
 Berny optimization.
 Using GEDIIS/GDIIS optimizer.
 FormGI is forming the generalized inverse of G from B-inverse, IUseBI=4.
 Internal  Forces:  Max     0.001736553 RMS     0.000455551
 Search for a local minimum.
 Step number   4 out of a maximum of  120
 All quantities printed in internal units (Hartrees-Bohrs-Radians)
 Mixed Optimization -- En-DIIS/RFO-DIIS
 Swapping is turned off.
 Update second derivatives using D2CorX and points    1    2    3    4
 DE=  9.02D-06 DEPred=-7.83D-05 R=-1.15D-01
 Trust test=-1.15D-01 RLast= 9.26D-02 DXMaxT set to 1.96D-01
 ITU= -1  1  1  0
     Eigenvalues ---    0.00487   0.00690   0.01597   0.01865   0.01929
     Eigenvalues ---    0.01983   0.02024   0.02167   0.02231   0.02252
     Eigenvalues ---    0.02270   0.02282   0.02297   0.02369   0.02582
     Eigenvalues ---    0.02777   0.02965   0.05155   0.05490   0.05610
     Eigenvalues ---    0.05764   0.06036   0.11163   0.13602   0.15459
     Eigenvalues ---    0.16000   0.16000   0.16000   0.16000   0.16000
     Eigenvalues ---    0.16003   0.16081   0.16119   0.20119   0.21927
     Eigenvalues ---    0.22005   0.22220   0.23200   0.23398   0.24540
     Eigenvalues ---    0.24999   0.25007   0.25092   0.29922   0.31880
     Eigenvalues ---    0.33338   0.33672   0.33779   0.33934   0.35106
     Eigenvalues ---    0.35129   0.35260   0.35460   0.35554   0.35833
     Eigenvalues ---    0.37293   0.39612   0.41754   0.43120   0.44440
     Eigenvalues ---    0.44534   0.44833   0.46503   0.49002   0.58360
     Eigenvalues ---    0.61541   0.63617   0.70059   0.94509
 En-DIIS/RFO-DIIS/Sim-DIIS IScMMF=       -3 using points:     4    3    2
 RFO step:  Lambda=-1.68718104D-04.
 EnCoef did     1 forward-backward iterations
 DidBck=T Rises=T En-DIIS coefs:    0.50216    0.24612    0.25172
 Iteration  1 RMS(Cart)=  0.02193772 RMS(Int)=  0.00016570
 Iteration  2 RMS(Cart)=  0.00042683 RMS(Int)=  0.00003443
 Iteration  3 RMS(Cart)=  0.00000007 RMS(Int)=  0.00003443
 Variable       Old X    -DE/DX   Delta X   Delta X   Delta X     New X
                                 (Linear)    (Quad)   (Total)
    R1        2.29570   0.00174   0.00175  -0.00249  -0.00075   2.29496
    R2        2.71176  -0.00059  -0.00345   0.00713   0.00368   2.71544
    R3        2.62582   0.00069   0.00556  -0.01086  -0.00531   2.62052
    R4        2.50022   0.00032   0.00162  -0.00225  -0.00063   2.49959
    R5        2.07947   0.00006   0.00078  -0.00141  -0.00063   2.07884
    R6        2.47011   0.00102   0.00132  -0.00091   0.00041   2.47052
    R7        2.72442   0.00019  -0.00008   0.00190   0.00182   2.72623
    R8        2.09007  -0.00012   0.00036  -0.00097  -0.00061   2.08945
    R9        2.66944   0.00090   0.00197  -0.00201  -0.00005   2.66939
   R10        2.67548   0.00010   0.00125  -0.00198  -0.00072   2.67476
   R11        2.61848   0.00043   0.00121  -0.00111   0.00010   2.61858
   R12        2.06402  -0.00043  -0.00006  -0.00037  -0.00043   2.06359
   R13        2.64581  -0.00011   0.00028  -0.00043  -0.00015   2.64566
   R14        2.06559  -0.00029  -0.00000  -0.00029  -0.00029   2.06531
   R15        2.52003   0.00021   0.00116  -0.00178  -0.00062   2.51941
   R16        2.07032  -0.00004   0.00043  -0.00044  -0.00001   2.07032
   R17        2.50859   0.00048   0.00093  -0.00065   0.00029   2.50887
   R18        2.07483  -0.00019   0.00025  -0.00044  -0.00018   2.07465
   R19        2.64997   0.00037   0.00107  -0.00191  -0.00084   2.64913
   R20        2.86378  -0.00004   0.00149  -0.00351  -0.00202   2.86176
   R21        2.08827  -0.00041  -0.00016  -0.00036  -0.00052   2.08775
   R22        2.08334   0.00019  -0.00083   0.00234   0.00151   2.08484
   R23        2.07847  -0.00030  -0.00016   0.00014  -0.00002   2.07844
   R24        2.08002  -0.00052  -0.00046   0.00019  -0.00028   2.07974
   R25        2.07849  -0.00033  -0.00036   0.00045   0.00010   2.07859
    A1        2.27220   0.00021   0.00362  -0.00569  -0.00227   2.26993
    A2        2.08470  -0.00088  -0.00304   0.00204  -0.00120   2.08350
    A3        1.92577   0.00075  -0.00035   0.00448   0.00393   1.92970
    A4        2.09707   0.00075   0.00607  -0.00985  -0.00378   2.09329
    A5        2.05131  -0.00040  -0.00293   0.00480   0.00188   2.05319
    A6        2.13481  -0.00035  -0.00314   0.00505   0.00190   2.13671
    A7        2.15820   0.00068  -0.00151   0.00637   0.00485   2.16305
    A8        2.10931   0.00100   0.00564  -0.00726  -0.00162   2.10770
    A9        2.12274  -0.00069  -0.00498   0.00680   0.00182   2.12456
   A10        2.05113  -0.00031  -0.00066   0.00045  -0.00020   2.05093
   A11        2.13598   0.00035   0.00242  -0.00356  -0.00114   2.13484
   A12        2.12878   0.00009  -0.00040   0.00111   0.00071   2.12950
   A13        2.01842  -0.00044  -0.00202   0.00245   0.00043   2.01885
   A14        2.08419   0.00025   0.00161  -0.00225  -0.00063   2.08356
   A15        2.05639  -0.00016  -0.00011  -0.00064  -0.00075   2.05565
   A16        2.14260  -0.00009  -0.00150   0.00288   0.00138   2.14398
   A17        2.08428   0.00013   0.00055  -0.00043   0.00012   2.08440
   A18        2.10472   0.00013   0.00049  -0.00030   0.00019   2.10491
   A19        2.09418  -0.00026  -0.00104   0.00073  -0.00031   2.09387
   A20        2.13702  -0.00042  -0.00246   0.00288   0.00042   2.13744
   A21        2.10487   0.00032   0.00262  -0.00414  -0.00152   2.10336
   A22        2.04129   0.00010  -0.00016   0.00126   0.00109   2.04239
   A23        2.05861   0.00056   0.00260  -0.00310  -0.00051   2.05810
   A24        2.18385  -0.00008  -0.00028   0.00044   0.00017   2.18402
   A25        2.06622   0.00017   0.00082  -0.00150  -0.00068   2.06554
   A26        2.03311  -0.00009  -0.00054   0.00105   0.00051   2.03363
   A27        2.01155  -0.00063  -0.00104  -0.00121  -0.00225   2.00930
   A28        1.88233  -0.00008  -0.00108   0.00106  -0.00001   1.88231
   A29        1.92800  -0.00012  -0.00028   0.00016  -0.00012   1.92788
   A30        1.92574   0.00015   0.00037  -0.00005   0.00032   1.92606
   A31        1.93757   0.00014  -0.00241   0.00559   0.00318   1.94076
   A32        1.94593  -0.00019  -0.00053   0.00027  -0.00026   1.94567
   A33        1.84490   0.00010   0.00396  -0.00708  -0.00312   1.84178
   A34        1.92607  -0.00009   0.00022  -0.00072  -0.00049   1.92558
   A35        1.94032  -0.00044  -0.00443   0.00669   0.00226   1.94258
   A36        1.92399   0.00004  -0.00124   0.00287   0.00163   1.92562
   A37        1.89500   0.00024   0.00179  -0.00279  -0.00100   1.89401
   A38        1.88096   0.00008   0.00193  -0.00319  -0.00126   1.87970
   A39        1.89611   0.00019   0.00196  -0.00328  -0.00131   1.89480
    D1        0.01441  -0.00112  -0.00885  -0.01252  -0.02135  -0.00694
    D2       -3.12585  -0.00123  -0.00914  -0.01412  -0.02323   3.13411
    D3        3.12062   0.00138   0.00989   0.01575   0.02561  -3.13695
    D4       -0.01963   0.00127   0.00960   0.01416   0.02373   0.00410
    D5       -0.03075   0.00122   0.01223   0.01012   0.02241  -0.00833
    D6       -3.14131  -0.00099  -0.00423  -0.01449  -0.01879   3.12309
    D7        3.13931   0.00018   0.00121   0.00029   0.00150   3.14081
    D8       -0.00369   0.00029   0.00151   0.00196   0.00347  -0.00021
    D9       -3.14087  -0.00004  -0.00019  -0.00039  -0.00059  -3.14146
   D10        0.00004  -0.00001  -0.00017   0.00011  -0.00006  -0.00002
   D11       -0.00029   0.00001   0.00078  -0.00134  -0.00056  -0.00085
   D12        3.14123   0.00000   0.00073  -0.00146  -0.00073   3.14050
   D13       -3.14122  -0.00001   0.00076  -0.00183  -0.00107   3.14089
   D14        0.00029  -0.00002   0.00071  -0.00195  -0.00123  -0.00094
   D15        3.14132  -0.00001   0.00015  -0.00052  -0.00037   3.14096
   D16       -0.00013  -0.00001   0.00003  -0.00038  -0.00035  -0.00048
   D17       -0.00020  -0.00000   0.00020  -0.00041  -0.00021  -0.00041
   D18        3.14154  -0.00000   0.00008  -0.00027  -0.00019   3.14134
   D19       -3.14131   0.00001  -0.00014   0.00051   0.00037  -3.14094
   D20        0.00037   0.00000  -0.00028   0.00051   0.00024   0.00061
   D21        0.00021   0.00000  -0.00018   0.00040   0.00022   0.00042
   D22       -3.14129  -0.00001  -0.00032   0.00040   0.00008  -3.14121
   D23        0.00004   0.00000  -0.00007   0.00017   0.00010   0.00013
   D24       -3.14144  -0.00000  -0.00003  -0.00005  -0.00008  -3.14152
   D25        3.14148   0.00000   0.00005   0.00002   0.00008   3.14156
   D26        0.00000  -0.00000   0.00010  -0.00019  -0.00010  -0.00010
   D27        0.00014  -0.00000  -0.00009   0.00014   0.00005   0.00019
   D28       -3.14140  -0.00001  -0.00016   0.00013  -0.00002  -3.14142
   D29       -3.14156   0.00000  -0.00013   0.00035   0.00022  -3.14134
   D30        0.00008  -0.00000  -0.00020   0.00035   0.00015   0.00023
   D31       -0.00014   0.00000   0.00011  -0.00017  -0.00006  -0.00020
   D32        3.14140   0.00001   0.00018  -0.00017   0.00001   3.14141
   D33       -0.00004  -0.00000   0.00003  -0.00011  -0.00008  -0.00012
   D34        3.14146   0.00001   0.00017  -0.00012   0.00005   3.14151
   D35       -3.04683  -0.00018   0.02748  -0.06689  -0.03940  -3.08623
   D36        1.11601  -0.00024   0.03129  -0.07452  -0.04323   1.07277
   D37       -0.91759  -0.00038   0.02637  -0.06591  -0.03954  -0.95713
   D38       -1.03011  -0.00000  -0.00013  -0.00086  -0.00099  -1.03111
   D39       -3.13385   0.00004   0.00037  -0.00128  -0.00090  -3.13475
   D40        1.04560   0.00007   0.00162  -0.00346  -0.00184   1.04376
   D41        1.08428  -0.00011  -0.00262   0.00342   0.00079   1.08508
   D42       -1.01945  -0.00006  -0.00211   0.00300   0.00089  -1.01857
   D43       -3.12319  -0.00004  -0.00087   0.00082  -0.00005  -3.12324
   D44        3.13636  -0.00002   0.00044  -0.00166  -0.00122   3.13514
   D45        1.03263   0.00003   0.00095  -0.00208  -0.00113   1.03150
   D46       -1.07111   0.00005   0.00219  -0.00426  -0.00207  -1.07317
         Item               Value     Threshold  Converged?
 Maximum Force            0.001737     0.000450     NO 
 RMS     Force            0.000456     0.000300     NO 
 Maximum Displacement     0.076267     0.001800     NO 
 RMS     Displacement     0.022038     0.001200     NO 
 Predicted change in Energy=-8.180295D-05
 GradGradGradGradGradGradGradGradGradGradGradGradGradGradGradGradGradGrad

                          Input orientation:                          
 ---------------------------------------------------------------------
 Center     Atomic      Atomic             Coordinates (Angstroms)
 Number     Number       Type             X           Y           Z
 ---------------------------------------------------------------------
      1          8           0        2.401814   -1.385607    0.405433
      2          6           0        2.395137   -0.231454    0.027612
      3          6           0        1.290430    0.648199   -0.238188
      4          7           0        0.050123    0.216586   -0.080220
      5          6           0       -1.010753    0.948771   -0.298380
      6          6           0       -2.333738    0.407393   -0.103730
      7          6           0       -2.550564   -0.921010    0.324898
      8          6           0       -3.847926   -1.377921    0.492907
      9          6           0       -4.919891   -0.515179    0.234774
     10          7           0       -4.744562    0.742634   -0.170962
     11          6           0       -3.500049    1.176558   -0.330715
     12          8           0        3.599766    0.418807   -0.193783
     13          6           0        4.745524   -0.347937    0.060293
     14          6           0        5.954392    0.538151   -0.156087
     15          1           0        1.521167    1.671278   -0.570196
     16          1           0       -0.933199    1.998681   -0.636354
     17          1           0       -1.674114   -1.545519    0.510099
     18          1           0       -4.038699   -2.401925    0.823785
     19          1           0       -5.952721   -0.857754    0.361921
     20          1           0       -3.382350    2.215487   -0.665474
     21          1           0        4.773906   -1.231260   -0.602650
     22          1           0        4.718137   -0.750185    1.087234
     23          1           0        5.966480    0.923069   -1.186326
     24          1           0        6.890587   -0.012192    0.022450
     25          1           0        5.921222    1.402451    0.523441
 ---------------------------------------------------------------------
                    Distance matrix (angstroms):
                    1          2          3          4          5
     1  O    0.000000
     2  C    1.214438   0.000000
     3  C    2.405367   1.436947   0.000000
     4  N    2.886751   2.389866   1.322726   0.000000
     5  C    4.194078   3.619294   2.321511   1.307344   0.000000
     6  C    5.089160   4.773639   3.634647   2.391600   1.442660
     7  C    4.974775   5.002382   4.187209   2.867372   2.501115
     8  C    6.250357   6.364488   5.571567   4.250378   3.753555
     9  C    7.375238   7.323459   6.336027   5.033462   4.208178
    10  N    7.478792   7.208577   6.036106   4.824310   3.741665
    11  C    6.476001   6.071583   4.820417   3.686193   2.499905
    12  O    2.247233   1.386718   2.321126   3.557212   4.642057
    13  C    2.586282   2.353499   3.608192   4.731302   5.911415
    14  C    4.078843   3.646140   4.665982   5.913506   6.978689
    15  H    3.327452   2.177519   1.100072   2.126070   2.646983
    16  H    4.864261   4.061056   2.631894   2.109992   1.105690
    17  H    4.080407   4.303297   3.763092   2.535052   2.704658
    18  H    6.533615   6.836598   6.231425   4.938855   4.653480
    19  H    8.371307   8.377992   7.422349   6.114232   5.303072
    20  H    6.897193   6.312467   4.947104   4.014972   2.713632
    21  H    2.582030   2.656197   3.974896   4.968231   6.189297
    22  H    2.496790   2.605419   3.932098   4.907947   6.134049
    23  H    4.535474   3.944751   4.779117   6.060187   7.033555
    24  H    4.709780   4.500797   5.644981   6.845059   7.966026
    25  H    4.491483   3.917750   4.753231   6.020007   6.995248
                    6          7          8          9         10
     6  C    0.000000
     7  C    1.412583   0.000000
     8  C    2.415799   1.385691   0.000000
     9  C    2.766571   2.405521   1.400023   0.000000
    10  N    2.434950   2.797717   2.396128   1.333213   0.000000
    11  C    1.415422   2.393981   2.706424   2.279847   1.327639
    12  O    5.934198   6.315909   7.692067   8.581408   8.350641
    13  C    7.121332   7.323341   8.665760   9.668436   9.555342
    14  C    8.289327   8.642614  10.008894  10.932169  10.700919
    15  H    4.083539   4.909190   6.265378   6.849511   6.346742
    16  H    2.185725   3.473395   4.601336   4.792919   4.039893
    17  H    2.150757   1.092005   2.180330   3.416500   3.889362
    18  H    3.414592   2.157902   1.092913   2.164080   3.372835
    19  H    3.861925   3.402946   2.172071   1.095564   2.074814
    20  H    2.164336   3.392686   3.804101   3.260524   2.066267
    21  H    7.311136   7.389483   8.692395   9.756216   9.730563
    22  H    7.244813   7.310564   8.609570   9.678507   9.662000
    23  H    8.386391   8.844460  10.219439  11.072541  10.760574
    24  H    9.234725   9.489614  10.835230  11.823091  11.661212
    25  H    8.338336   8.786868  10.157147  11.013190  10.708712
                   11         12         13         14         15
    11  C    0.000000
    12  O    7.141451   0.000000
    13  C    8.394429   1.401860   0.000000
    14  C    9.477580   2.357949   1.514376   0.000000
    15  H    5.051209   2.455798   3.856322   4.594447   0.000000
    16  H    2.712567   4.820752   6.183836   7.057104   2.476991
    17  H    3.383890   5.671670   6.545860   7.935968   4.660971
    18  H    3.798493   8.205981   9.053417  10.462603   7.031805
    19  H    3.260946   9.653415  10.714632  11.999843   7.945052
    20  H    1.097857   7.224991   8.553374   9.499878   4.934544
    21  H    8.621477   2.066034   1.104788   2.173426   4.359597
    22  H    8.559293   2.063565   1.103251   2.175772   4.339490
    23  H    9.508496   2.615484   2.158761   1.099864   4.549752
    24  H   10.464377   3.325961   2.171510   1.100552   5.658266
    25  H    9.462608   2.621282   2.158850   1.099942   4.541893
                   16         17         18         19         20
    16  H    0.000000
    17  H    3.797981   0.000000
    18  H    5.580453   2.534382   0.000000
    19  H    5.861004   4.336064   2.502251   0.000000
    20  H    2.458901   4.294789   4.895832   4.136080   0.000000
    21  H    6.557797   6.550873   9.003732  10.776383   8.854859
    22  H    6.516488   6.467342   8.915145  10.696020   8.802561
    23  H    7.004640   8.206733  10.733114  12.150545   9.452103
    24  H    8.104891   8.714528  11.216161  12.875588  10.534184
    25  H    6.977370   8.147382  10.665998  12.088223   9.414403
                   21         22         23         24         25
    21  H    0.000000
    22  H    1.757911   0.000000
    23  H    2.530621   3.086619   0.000000
    24  H    2.521351   2.529415   1.786009   0.000000
    25  H    3.085587   2.529649   1.776277   1.786583   0.000000
 Stoichiometry    C10H11N2O2(1-)
 Framework group  C1[X(C10H11N2O2)]
 Deg. of freedom    69
 Full point group                 C1      NOp   1
 Largest Abelian subgroup         C1      NOp   1
 Largest concise Abelian subgroup C1      NOp   1
                         Standard orientation:                         
 ---------------------------------------------------------------------
 Center     Atomic      Atomic             Coordinates (Angstroms)
 Number     Number       Type             X           Y           Z
 ---------------------------------------------------------------------
      1          8           0       -2.320371    1.496834   -0.013862
      2          6           0       -2.329642    0.282490   -0.025898
      3          6           0       -1.236947   -0.650694   -0.024138
      4          7           0        0.009378   -0.207748   -0.015261
      5          6           0        1.060277   -0.985404   -0.012170
      6          6           0        2.390795   -0.427828   -0.002206
      7          6           0        2.625868    0.965046    0.003620
      8          6           0        3.929612    1.434393    0.013909
      9          6           0        4.989830    0.520072    0.018179
     10          7           0        4.797222   -0.799143    0.012493
     11          6           0        3.546646   -1.244775    0.002651
     12          8           0       -3.543210   -0.388498   -0.029605
     13          6           0       -4.678188    0.434044   -0.008096
     14          6           0       -5.898203   -0.460202    0.064171
     15          1           0       -1.481753   -1.723166   -0.029843
     16          1           0        0.968300   -2.087251   -0.016888
     17          1           0        1.757913    1.627704   -0.000115
     18          1           0        4.134453    2.507927    0.018628
     19          1           0        6.027452    0.871543    0.026460
     20          1           0        3.414676   -2.334662   -0.001943
     21          1           0       -4.706523    1.076595   -0.906361
     22          1           0       -4.633811    1.126880    0.849326
     23          1           0       -5.927157   -1.137712   -0.801765
     24          1           0       -6.826695    0.130519    0.077013
     25          1           0       -5.864685   -1.079680    0.972464
 ---------------------------------------------------------------------
 Rotational constants (GHZ):           3.1396235           0.2098821           0.1972313
 Standard basis: def2SVP (5D, 7F)
 There are   265 symmetry adapted cartesian basis functions of A   symmetry.
 There are   251 symmetry adapted basis functions of A   symmetry.
   251 basis functions,   427 primitive gaussians,   265 cartesian basis functions
    51 alpha electrons       51 beta electrons
       nuclear repulsion energy       782.1744796389 Hartrees.
 NAtoms=   25 NActive=   25 NUniq=   25 SFac= 1.00D+00 NAtFMM=   60 NAOKFM=F Big=F
 Integral buffers will be    131072 words long.
 Raffenetti 2 integral format.
 Two-electron integral symmetry is turned on.
 Nuclear repulsion after empirical dispersion term =      782.1736376725 Hartrees.
 One-electron integrals computed using PRISM.
   1 Symmetry operations used in ECPInt.
 ECPInt:  NShTT=    6903 NPrTT=   25191 LenC2=    5989 LenP2D=   15648.
 LDataN:  DoStor=T MaxTD1= 4 Len=   56
 NBasis=   251 RedAO= T EigKep=  6.84D-04  NBF=   251
 NBsUse=   251 1.00D-06 EigRej= -1.00D+00 NBFU=   251
 Initial guess from the checkpoint file:  "A12_crest_conformers_censo-1.chk"
 B after Tr=     0.000000    0.000000   -0.000000
         Rot=    1.000000   -0.000689    0.000011   -0.000152 Ang=  -0.08 deg.
 ExpMin= 1.22D-01 ExpMax= 2.27D+03 ExpMxC= 3.41D+02 IAcc=3 IRadAn=         5 AccDes= 0.00D+00
 Harris functional with IExCor= 1009 and IRadAn=       5 diagonalized for initial guess.
 HarFok:  IExCor= 1009 AccDes= 0.00D+00 IRadAn=         5 IDoV= 1 UseB2=F ITyADJ=14
 ICtDFT=  3500011 ScaDFX=  1.000000  1.000000  1.000000  1.000000
 FoFCou: FMM=F IPFlag=           0 FMFlag=      100000 FMFlg1=           0
         NFxFlg=           0 DoJE=T BraDBF=F KetDBF=T FulRan=T
         wScrn=  0.000000 ICntrl=       500 IOpCl=  0 I1Cent=   200000004 NGrid=           0
         NMat0=    1 NMatS0=      1 NMatT0=    0 NMatD0=    1 NMtDS0=    0 NMtDT0=    0
 Petite list used in FoFCou.
 Requested convergence on RMS density matrix=1.00D-08 within 128 cycles.
 Requested convergence on MAX density matrix=1.00D-06.
 Requested convergence on             energy=1.00D-06.
 No special actions if energy rises.
 Integral accuracy reduced to 1.0D-05 until final iterations.
 Initial convergence to 1.0D-05 achieved.  Increase integral accuracy.
 SCF Done:  E(RM062X) =  -646.915792854     A.U. after   12 cycles
            NFock= 12  Conv=0.53D-08     -V/T= 2.0095
   1 Symmetry operations used in ECPInt.
 ECPInt:  NShTT=    6903 NPrTT=   25191 LenC2=    5989 LenP2D=   15648.
 LDataN:  DoStor=T MaxTD1= 5 Len=  102
 Calling FoFJK, ICntrl=      2127 FMM=F ISym2X=0 I1Cent= 0 IOpClX= 0 NMat=1 NMatS=1 NMatT=0.
 ***** Axes restored to original set *****
 -------------------------------------------------------------------
 Center     Atomic                   Forces (Hartrees/Bohr)
 Number     Number              X              Y              Z
 -------------------------------------------------------------------
      1        8           0.000132320   -0.002733764    0.000261582
      2        6          -0.003161343    0.003435817    0.000392075
      3        6           0.001321247   -0.002402834    0.000312365
      4        7           0.000461173    0.000734429   -0.000425718
      5        6          -0.001431233   -0.000756236    0.000296115
      6        6           0.001146007    0.001144577   -0.000356735
      7        6          -0.000161225   -0.000635898    0.000217270
      8        6           0.000235946   -0.000189009    0.000047035
      9        6          -0.000769153   -0.000924750    0.000308017
     10        7           0.000163387   -0.000012226   -0.000006804
     11        6           0.000293833    0.000618542   -0.000212470
     12        8           0.001290038    0.001464791   -0.000596878
     13        6           0.000542930   -0.001900348    0.000116235
     14        6           0.001078656    0.001150128   -0.000331804
     15        1           0.000112418    0.000246316   -0.000117588
     16        1           0.000277079    0.000054239   -0.000015006
     17        1          -0.000248703    0.000108970   -0.000019231
     18        1          -0.000137485    0.000198389   -0.000057246
     19        1          -0.000075981    0.000222156   -0.000072721
     20        1          -0.000227599   -0.000085824    0.000039362
     21        1          -0.000072338    0.000519720    0.000041465
     22        1           0.000143058    0.000431919    0.000041629
     23        1          -0.000116887   -0.000166329    0.000193121
     24        1          -0.000649372   -0.000193653    0.000077150
     25        1          -0.000146773   -0.000329120   -0.000131218
 -------------------------------------------------------------------
 Cartesian Forces:  Max     0.003435817 RMS     0.000882853

 GradGradGradGradGradGradGradGradGradGradGradGradGradGradGradGradGradGrad
 Berny optimization.
 Using GEDIIS/GDIIS optimizer.
 FormGI is forming the generalized inverse of G from B-inverse, IUseBI=4.
 Internal  Forces:  Max     0.002681115 RMS     0.000508850
 Search for a local minimum.
 Step number   5 out of a maximum of  120
 All quantities printed in internal units (Hartrees-Bohrs-Radians)
 Mixed Optimization -- En-DIIS/RFO-DIIS
 Swapping is turned off.
 Update second derivatives using D2CorX and points    1    2    3    4    5
 DE= -5.56D-05 DEPred=-8.18D-05 R= 6.80D-01
 TightC=F SS=  1.41D+00  RLast= 9.09D-02 DXNew= 3.2922D-01 2.7270D-01
 Trust test= 6.80D-01 RLast= 9.09D-02 DXMaxT set to 2.73D-01
 ITU=  1 -1  1  1  0
     Eigenvalues ---    0.00485   0.00564   0.01596   0.01865   0.01929
     Eigenvalues ---    0.01983   0.02024   0.02167   0.02231   0.02252
     Eigenvalues ---    0.02270   0.02282   0.02298   0.02369   0.02582
     Eigenvalues ---    0.02782   0.02965   0.05271   0.05592   0.05751
     Eigenvalues ---    0.05837   0.07245   0.11314   0.13651   0.15922
     Eigenvalues ---    0.16000   0.16000   0.16000   0.16000   0.16000
     Eigenvalues ---    0.16003   0.16028   0.16383   0.21677   0.21960
     Eigenvalues ---    0.22000   0.22721   0.23359   0.24014   0.24705
     Eigenvalues ---    0.24999   0.25000   0.26050   0.30091   0.31519
     Eigenvalues ---    0.33326   0.33663   0.33892   0.33941   0.34975
     Eigenvalues ---    0.35109   0.35133   0.35270   0.35508   0.35643
     Eigenvalues ---    0.36085   0.41605   0.42881   0.43699   0.44201
     Eigenvalues ---    0.44719   0.45804   0.48353   0.49424   0.58705
     Eigenvalues ---    0.61683   0.63499   0.70589   1.00313
 En-DIIS/RFO-DIIS/Sim-DIIS IScMMF=       -3 using points:     5    4    3    2
 RFO step:  Lambda=-6.55091671D-05.
 DidBck=F Rises=F RFO-DIIS coefs:    0.89522    0.17697   -0.15207    0.07988
 Iteration  1 RMS(Cart)=  0.01290115 RMS(Int)=  0.00002635
 Iteration  2 RMS(Cart)=  0.00007267 RMS(Int)=  0.00000707
 Iteration  3 RMS(Cart)=  0.00000000 RMS(Int)=  0.00000707
 Variable       Old X    -DE/DX   Delta X   Delta X   Delta X     New X
                                 (Linear)    (Quad)   (Total)
    R1        2.29496   0.00268   0.00019   0.00184   0.00203   2.29699
    R2        2.71544  -0.00174  -0.00047  -0.00318  -0.00364   2.71179
    R3        2.62052   0.00234   0.00061   0.00390   0.00451   2.62503
    R4        2.49959   0.00025   0.00019  -0.00000   0.00019   2.49978
    R5        2.07884   0.00029   0.00005   0.00050   0.00055   2.07939
    R6        2.47052   0.00060   0.00018   0.00020   0.00039   2.47091
    R7        2.72623  -0.00039  -0.00009  -0.00140  -0.00149   2.72474
    R8        2.08945   0.00008   0.00000   0.00016   0.00016   2.08962
    R9        2.66939   0.00099   0.00021   0.00106   0.00127   2.67067
   R10        2.67476   0.00031   0.00010   0.00030   0.00041   2.67516
   R11        2.61858   0.00036   0.00010   0.00003   0.00013   2.61870
   R12        2.06359  -0.00027  -0.00010  -0.00061  -0.00071   2.06288
   R13        2.64566   0.00004  -0.00003  -0.00014  -0.00017   2.64549
   R14        2.06531  -0.00018  -0.00007  -0.00045  -0.00052   2.06479
   R15        2.51941   0.00044   0.00010   0.00032   0.00042   2.51983
   R16        2.07032  -0.00001  -0.00001  -0.00029  -0.00030   2.07001
   R17        2.50887   0.00044   0.00005   0.00003   0.00008   2.50896
   R18        2.07465  -0.00012  -0.00005  -0.00043  -0.00048   2.07417
   R19        2.64913   0.00092   0.00007   0.00138   0.00145   2.65058
   R20        2.86176   0.00042   0.00014   0.00117   0.00131   2.86306
   R21        2.08775  -0.00044  -0.00000  -0.00078  -0.00078   2.08697
   R22        2.08484  -0.00012  -0.00009  -0.00047  -0.00057   2.08428
   R23        2.07844  -0.00024  -0.00010  -0.00064  -0.00074   2.07770
   R24        2.07974  -0.00044  -0.00013  -0.00089  -0.00103   2.07871
   R25        2.07859  -0.00034  -0.00012  -0.00080  -0.00091   2.07768
    A1        2.26993   0.00023   0.00053   0.00055   0.00112   2.27104
    A2        2.08350  -0.00006  -0.00071   0.00067   0.00000   2.08350
    A3        1.92970  -0.00017   0.00011  -0.00121  -0.00106   1.92864
    A4        2.09329   0.00127   0.00077   0.00374   0.00450   2.09779
    A5        2.05319  -0.00069  -0.00036  -0.00215  -0.00251   2.05068
    A6        2.13671  -0.00058  -0.00041  -0.00159  -0.00200   2.13471
    A7        2.16305  -0.00014  -0.00013  -0.00140  -0.00154   2.16151
    A8        2.10770   0.00117   0.00071   0.00286   0.00356   2.11126
    A9        2.12456  -0.00087  -0.00060  -0.00239  -0.00299   2.12157
   A10        2.05093  -0.00030  -0.00011  -0.00046  -0.00057   2.05036
   A11        2.13484   0.00048   0.00028   0.00107   0.00135   2.13619
   A12        2.12950  -0.00002  -0.00004  -0.00018  -0.00021   2.12929
   A13        2.01885  -0.00046  -0.00025  -0.00089  -0.00114   2.01771
   A14        2.08356   0.00034   0.00019   0.00082   0.00102   2.08457
   A15        2.05565  -0.00011  -0.00001   0.00002   0.00001   2.05565
   A16        2.14398  -0.00023  -0.00018  -0.00084  -0.00102   2.14296
   A17        2.08440   0.00011   0.00006   0.00007   0.00013   2.08453
   A18        2.10491   0.00012   0.00008   0.00051   0.00059   2.10550
   A19        2.09387  -0.00023  -0.00013  -0.00059  -0.00072   2.09315
   A20        2.13744  -0.00048  -0.00027  -0.00100  -0.00128   2.13616
   A21        2.10336   0.00050   0.00033   0.00173   0.00206   2.10542
   A22        2.04239  -0.00002  -0.00006  -0.00073  -0.00078   2.04161
   A23        2.05810   0.00063   0.00030   0.00134   0.00164   2.05974
   A24        2.18402  -0.00014  -0.00003  -0.00035  -0.00037   2.18365
   A25        2.06554   0.00029   0.00013   0.00126   0.00140   2.06694
   A26        2.03363  -0.00015  -0.00011  -0.00092  -0.00103   2.03260
   A27        2.00930   0.00033  -0.00046   0.00145   0.00099   2.01029
   A28        1.88231  -0.00004  -0.00007  -0.00016  -0.00023   1.88208
   A29        1.92788  -0.00003   0.00004  -0.00077  -0.00073   1.92715
   A30        1.92606   0.00007  -0.00012   0.00007  -0.00005   1.92600
   A31        1.94076  -0.00007  -0.00032  -0.00070  -0.00102   1.93974
   A32        1.94567  -0.00019  -0.00006  -0.00083  -0.00088   1.94478
   A33        1.84178   0.00027   0.00054   0.00238   0.00292   1.84471
   A34        1.92558  -0.00003  -0.00001   0.00004   0.00003   1.92561
   A35        1.94258  -0.00070  -0.00053  -0.00292  -0.00345   1.93913
   A36        1.92562  -0.00011  -0.00016  -0.00053  -0.00069   1.92493
   A37        1.89401   0.00036   0.00024   0.00124   0.00148   1.89549
   A38        1.87970   0.00017   0.00025   0.00121   0.00146   1.88116
   A39        1.89480   0.00036   0.00024   0.00113   0.00137   1.89617
    D1       -0.00694   0.00038   0.00438   0.00028   0.00466  -0.00228
    D2        3.13411   0.00042   0.00481   0.00048   0.00530   3.13940
    D3       -3.13695  -0.00049  -0.00563  -0.00038  -0.00601   3.14023
    D4        0.00410  -0.00044  -0.00519  -0.00018  -0.00537  -0.00127
    D5       -0.00833  -0.00029  -0.00389   0.00260  -0.00130  -0.00964
    D6        3.12309   0.00047   0.00488   0.00318   0.00806   3.13115
    D7        3.14081  -0.00003  -0.00041   0.00073   0.00032   3.14112
    D8       -0.00021  -0.00008  -0.00087   0.00051  -0.00036  -0.00057
    D9       -3.14146   0.00002   0.00007   0.00004   0.00011  -3.14135
   D10       -0.00002   0.00001  -0.00001   0.00017   0.00016   0.00014
   D11       -0.00085   0.00001   0.00003   0.00047   0.00050  -0.00035
   D12        3.14050   0.00001   0.00011   0.00050   0.00061   3.14111
   D13        3.14089   0.00001   0.00011   0.00034   0.00046   3.14135
   D14       -0.00094   0.00002   0.00019   0.00038   0.00057  -0.00037
   D15        3.14096   0.00001   0.00011   0.00020   0.00031   3.14127
   D16       -0.00048   0.00001   0.00009   0.00018   0.00027  -0.00021
   D17       -0.00041   0.00001   0.00004   0.00017   0.00021  -0.00020
   D18        3.14134   0.00001   0.00002   0.00015   0.00016   3.14151
   D19       -3.14094  -0.00001  -0.00010  -0.00024  -0.00034  -3.14128
   D20        0.00061  -0.00001  -0.00009  -0.00020  -0.00030   0.00031
   D21        0.00042  -0.00001  -0.00003  -0.00021  -0.00024   0.00019
   D22       -3.14121  -0.00001  -0.00002  -0.00017  -0.00019  -3.14141
   D23        0.00013  -0.00000  -0.00003  -0.00002  -0.00005   0.00008
   D24       -3.14152  -0.00000  -0.00001  -0.00002  -0.00003  -3.14155
   D25        3.14156  -0.00000  -0.00001   0.00001   0.00000   3.14156
   D26       -0.00010  -0.00000   0.00002   0.00001   0.00002  -0.00007
   D27        0.00019  -0.00000   0.00001  -0.00013  -0.00012   0.00007
   D28       -3.14142  -0.00000   0.00001  -0.00009  -0.00009  -3.14151
   D29       -3.14134  -0.00000  -0.00001  -0.00013  -0.00014  -3.14148
   D30        0.00023  -0.00000  -0.00002  -0.00009  -0.00011   0.00013
   D31       -0.00020   0.00000   0.00000   0.00010   0.00011  -0.00009
   D32        3.14141   0.00000   0.00001   0.00007   0.00007   3.14149
   D33       -0.00012   0.00000   0.00001   0.00007   0.00008  -0.00004
   D34        3.14151   0.00000   0.00000   0.00003   0.00004   3.14155
   D35       -3.08623  -0.00015   0.00389  -0.00142   0.00248  -3.08375
   D36        1.07277  -0.00002   0.00431   0.00001   0.00432   1.07710
   D37       -0.95713  -0.00037   0.00370  -0.00249   0.00121  -0.95592
   D38       -1.03111  -0.00004  -0.00013  -0.00095  -0.00108  -1.03219
   D39       -3.13475  -0.00001  -0.00007  -0.00062  -0.00069  -3.13544
   D40        1.04376   0.00007   0.00007   0.00024   0.00031   1.04407
   D41        1.08508  -0.00015  -0.00033  -0.00243  -0.00275   1.08232
   D42       -1.01857  -0.00012  -0.00027  -0.00209  -0.00237  -1.02093
   D43       -3.12324  -0.00003  -0.00013  -0.00123  -0.00136  -3.12460
   D44        3.13514   0.00002   0.00010  -0.00042  -0.00032   3.13482
   D45        1.03150   0.00005   0.00016  -0.00009   0.00007   1.03157
   D46       -1.07317   0.00013   0.00030   0.00077   0.00107  -1.07210
         Item               Value     Threshold  Converged?
 Maximum Force            0.002681     0.000450     NO 
 RMS     Force            0.000509     0.000300     NO 
 Maximum Displacement     0.037332     0.001800     NO 
 RMS     Displacement     0.012892     0.001200     NO 
 Predicted change in Energy=-3.256518D-05
 GradGradGradGradGradGradGradGradGradGradGradGradGradGradGradGradGradGrad

                          Input orientation:                          
 ---------------------------------------------------------------------
 Center     Atomic      Atomic             Coordinates (Angstroms)
 Number     Number       Type             X           Y           Z
 ---------------------------------------------------------------------
      1          8           0        2.411559   -1.393413    0.415992
      2          6           0        2.398630   -0.237215    0.041144
      3          6           0        1.291630    0.636047   -0.225777
      4          7           0        0.051001    0.204202   -0.070132
      5          6           0       -1.008586    0.937500   -0.292016
      6          6           0       -2.334030    0.402717   -0.101774
      7          6           0       -2.560526   -0.924298    0.328369
      8          6           0       -3.860816   -1.374792    0.491550
      9          6           0       -4.927604   -0.507615    0.227389
     10          7           0       -4.743014    0.748700   -0.179606
     11          6           0       -3.495961    1.177056   -0.334889
     12          8           0        3.601705    0.418315   -0.187991
     13          6           0        4.753031   -0.344584    0.056525
     14          6           0        5.956918    0.548433   -0.163949
     15          1           0        1.520721    1.659454   -0.558877
     16          1           0       -0.925583    1.986741   -0.631055
     17          1           0       -1.688828   -1.553264    0.518627
     18          1           0       -4.058454   -2.396936    0.823239
     19          1           0       -5.963126   -0.843148    0.349951
     20          1           0       -3.373574    2.214833   -0.670709
     21          1           0        4.781666   -1.223741   -0.611237
     22          1           0        4.734172   -0.749532    1.082276
     23          1           0        5.961579    0.936191   -1.192766
     24          1           0        6.894308   -0.000786    0.008318
     25          1           0        5.923304    1.409256    0.519178
 ---------------------------------------------------------------------
                    Distance matrix (angstroms):
                    1          2          3          4          5
     1  O    0.000000
     2  C    1.215513   0.000000
     3  C    2.405165   1.435020   0.000000
     4  N    2.891527   2.391358   1.322829   0.000000
     5  C    4.199026   3.619402   2.320831   1.307548   0.000000
     6  C    5.100468   4.777866   3.635275   2.393487   1.441869
     7  C    4.994935   5.014759   4.192954   2.872697   2.501937
     8  C    6.272857   6.377900   5.577251   4.255704   3.754449
     9  C    7.394830   7.333587   6.339731   5.038026   4.209138
    10  N    7.492082   7.212755   6.035872   4.826079   3.740887
    11  C    6.486133   6.073530   4.819297   3.687476   2.499252
    12  O    2.250245   1.389105   2.320621   3.559106   4.640598
    13  C    2.590705   2.356899   3.608689   4.735642   5.912821
    14  C    4.083708   3.649757   4.666521   5.916685   6.977537
    15  H    3.326253   2.174419   1.100363   2.125255   2.643828
    16  H    4.863976   4.055641   2.627672   2.108506   1.105777
    17  H    4.104785   4.320565   3.772314   2.542111   2.706248
    18  H    6.560029   6.853466   6.238816   4.944861   4.654456
    19  H    8.393003   8.389367   7.426370   6.119079   5.303801
    20  H    6.904211   6.311704   4.945165   4.016347   2.714435
    21  H    2.588706   2.660395   3.973380   4.971018   6.188690
    22  H    2.500610   2.607907   3.934708   4.916274   6.141174
    23  H    4.540683   3.948927   4.778449   6.060615   7.028126
    24  H    4.711756   4.502010   5.643612   6.846826   7.964064
    25  H    4.494213   3.919529   4.754494   6.023569   6.995119
                    6          7          8          9         10
     6  C    0.000000
     7  C    1.413257   0.000000
     8  C    2.417157   1.385758   0.000000
     9  C    2.768335   2.405593   1.399933   0.000000
    10  N    2.434947   2.796465   2.395400   1.333434   0.000000
    11  C    1.415636   2.393875   2.707037   2.281200   1.327683
    12  O    5.936381   6.327901   7.704948   8.589470   8.351261
    13  C    7.128110   7.341532   8.686135   9.683515   9.561689
    14  C    8.292462   8.657839  10.025786  10.942633  10.701818
    15  H    4.080127   4.911167   6.266657   6.848014   6.340954
    16  H    2.184718   3.473857   4.601710   4.793215   4.038481
    17  H    2.151057   1.091629   2.179477   3.415827   3.887753
    18  H    3.415750   2.158089   1.092638   2.163329   3.371846
    19  H    3.863493   3.403636   2.173109   1.095404   2.074388
    20  H    2.165203   3.393133   3.804426   3.260876   2.065452
    21  H    7.316970   7.408125   8.713866   9.771697   9.736342
    22  H    7.258728   7.335635   8.637924   9.702539   9.677505
    23  H    8.384031   8.854465  10.230200  11.075907  10.754067
    24  H    9.237811   9.505219  10.853299  11.834799  11.662946
    25  H    8.341598   8.800980  10.172545  11.022782  10.709573
                   11         12         13         14         15
    11  C    0.000000
    12  O    7.139616   0.000000
    13  C    8.397289   1.402625   0.000000
    14  C    9.475300   2.358928   1.515068   0.000000
    15  H    5.044797   2.451218   3.852624   4.590226   0.000000
    16  H    2.711115   4.811715   6.176934   7.046683   2.469156
    17  H    3.383618   5.690006   6.570540   7.958673   4.667310
    18  H    3.798826   8.223519   9.079773  10.486059   7.035037
    19  H    3.261462   9.662643  10.731761  12.011996   7.943360
    20  H    1.097604   7.219073   8.551094   9.491670   4.926975
    21  H    8.623184   2.065864   1.104375   2.172989   4.353081
    22  H    8.570600   2.063959   1.102952   2.175523   4.338532
    23  H    9.499423   2.616634   2.159097   1.099473   4.543802
    24  H   10.462446   3.324969   2.169236   1.100007   5.652746
    25  H    9.460755   2.621426   2.158596   1.099459   4.539552
                   16         17         18         19         20
    16  H    0.000000
    17  H    3.799467   0.000000
    18  H    5.580903   2.533713   0.000000
    19  H    5.860673   4.336167   2.503205   0.000000
    20  H    2.458914   4.295515   4.895851   4.135067   0.000000
    21  H    6.548304   6.576661   9.032267  10.794411   8.850722
    22  H    6.515790   6.497585   8.949375  10.722744   8.808857
    23  H    6.989433   8.225265  10.750585  12.155024   9.436766
    24  H    8.093810   8.737323  11.241380  12.889527  10.526132
    25  H    6.968772   8.168297  10.687144  12.099140   9.407270
                   21         22         23         24         25
    21  H    0.000000
    22  H    1.759294   0.000000
    23  H    2.528967   3.086098   0.000000
    24  H    2.518476   2.525904   1.786200   0.000000
    25  H    3.084452   2.528137   1.776516   1.786629   0.000000
 Stoichiometry    C10H11N2O2(1-)
 Framework group  C1[X(C10H11N2O2)]
 Deg. of freedom    69
 Full point group                 C1      NOp   1
 Largest Abelian subgroup         C1      NOp   1
 Largest concise Abelian subgroup C1      NOp   1
                         Standard orientation:                         
 ---------------------------------------------------------------------
 Center     Atomic      Atomic             Coordinates (Angstroms)
 Number     Number       Type             X           Y           Z
 ---------------------------------------------------------------------
      1          8           0       -2.329546    1.505410   -0.010032
      2          6           0       -2.332486    0.289923   -0.017398
      3          6           0       -1.237407   -0.637485   -0.017179
      4          7           0        0.009189   -0.194956   -0.010481
      5          6           0        1.058776   -0.974730   -0.009290
      6          6           0        2.391604   -0.424733   -0.001526
      7          6           0        2.636283    0.967168    0.004724
      8          6           0        3.942806    1.428973    0.012434
      9          6           0        4.997770    0.508723    0.013796
     10          7           0        4.795966   -0.809338    0.007836
     11          6           0        3.542986   -1.248348    0.000483
     12          8           0       -3.544613   -0.388510   -0.026755
     13          6           0       -4.685363    0.427516   -0.014529
     14          6           0       -5.900507   -0.474619    0.056266
     15          1           0       -1.480531   -1.710638   -0.022826
     16          1           0        0.961398   -2.076201   -0.014063
     17          1           0        1.773155    1.635497    0.003323
     18          1           0        4.154451    2.500906    0.017396
     19          1           0        6.037940    0.852119    0.019924
     20          1           0        3.406380   -2.337407   -0.004345
     21          1           0       -4.713668    1.063697   -0.916812
     22          1           0       -4.649929    1.123578    0.840308
     23          1           0       -5.921614   -1.155411   -0.806820
     24          1           0       -6.830314    0.113119    0.062437
     25          1           0       -5.866855   -1.088743    0.967599
 ---------------------------------------------------------------------
 Rotational constants (GHZ):           3.1410487           0.2094463           0.1968478
 Standard basis: def2SVP (5D, 7F)
 There are   265 symmetry adapted cartesian basis functions of A   symmetry.
 There are   251 symmetry adapted basis functions of A   symmetry.
   251 basis functions,   427 primitive gaussians,   265 cartesian basis functions
    51 alpha electrons       51 beta electrons
       nuclear repulsion energy       781.7876977762 Hartrees.
 NAtoms=   25 NActive=   25 NUniq=   25 SFac= 1.00D+00 NAtFMM=   60 NAOKFM=F Big=F
 Integral buffers will be    131072 words long.
 Raffenetti 2 integral format.
 Two-electron integral symmetry is turned on.
 Nuclear repulsion after empirical dispersion term =      781.7868563757 Hartrees.
 One-electron integrals computed using PRISM.
   1 Symmetry operations used in ECPInt.
 ECPInt:  NShTT=    6903 NPrTT=   25191 LenC2=    5989 LenP2D=   15647.
 LDataN:  DoStor=T MaxTD1= 4 Len=   56
 NBasis=   251 RedAO= T EigKep=  6.84D-04  NBF=   251
 NBsUse=   251 1.00D-06 EigRej= -1.00D+00 NBFU=   251
 Initial guess from the checkpoint file:  "A12_crest_conformers_censo-1.chk"
 B after Tr=    -0.000000   -0.000000    0.000000
         Rot=    1.000000   -0.000001    0.000007    0.000145 Ang=  -0.02 deg.
 ExpMin= 1.22D-01 ExpMax= 2.27D+03 ExpMxC= 3.41D+02 IAcc=3 IRadAn=         5 AccDes= 0.00D+00
 Harris functional with IExCor= 1009 and IRadAn=       5 diagonalized for initial guess.
 HarFok:  IExCor= 1009 AccDes= 0.00D+00 IRadAn=         5 IDoV= 1 UseB2=F ITyADJ=14
 ICtDFT=  3500011 ScaDFX=  1.000000  1.000000  1.000000  1.000000
 FoFCou: FMM=F IPFlag=           0 FMFlag=      100000 FMFlg1=           0
         NFxFlg=           0 DoJE=T BraDBF=F KetDBF=T FulRan=T
         wScrn=  0.000000 ICntrl=       500 IOpCl=  0 I1Cent=   200000004 NGrid=           0
         NMat0=    1 NMatS0=      1 NMatT0=    0 NMatD0=    1 NMtDS0=    0 NMtDT0=    0
 Petite list used in FoFCou.
 Requested convergence on RMS density matrix=1.00D-08 within 128 cycles.
 Requested convergence on MAX density matrix=1.00D-06.
 Requested convergence on             energy=1.00D-06.
 No special actions if energy rises.
 Integral accuracy reduced to 1.0D-05 until final iterations.
 Initial convergence to 1.0D-05 achieved.  Increase integral accuracy.
 SCF Done:  E(RM062X) =  -646.915837881     A.U. after   11 cycles
            NFock= 11  Conv=0.60D-08     -V/T= 2.0096
   1 Symmetry operations used in ECPInt.
 ECPInt:  NShTT=    6903 NPrTT=   25191 LenC2=    5989 LenP2D=   15647.
 LDataN:  DoStor=T MaxTD1= 5 Len=  102
 Calling FoFJK, ICntrl=      2127 FMM=F ISym2X=0 I1Cent= 0 IOpClX= 0 NMat=1 NMatS=1 NMatT=0.
 ***** Axes restored to original set *****
 -------------------------------------------------------------------
 Center     Atomic                   Forces (Hartrees/Bohr)
 Number     Number              X              Y              Z
 -------------------------------------------------------------------
      1        8           0.000363071   -0.000813515    0.000209424
      2        6          -0.001339624    0.001036264   -0.000383006
      3        6           0.000616952   -0.000916298    0.000212003
      4        7           0.000105062    0.000260835   -0.000097228
      5        6          -0.000573616   -0.000323820    0.000105335
      6        6           0.000530245    0.000410228   -0.000137134
      7        6          -0.000130462   -0.000170064    0.000065205
      8        6           0.000158053   -0.000066248    0.000013656
      9        6          -0.000357296   -0.000353662    0.000121034
     10        7          -0.000001299    0.000018989   -0.000007954
     11        6           0.000109489    0.000235615   -0.000084490
     12        8           0.000477331    0.000715917    0.000115966
     13        6           0.000029301   -0.000936969   -0.000140531
     14        6           0.000359519    0.000484005   -0.000151910
     15        1           0.000042081    0.000152323   -0.000057709
     16        1           0.000138328    0.000072986   -0.000019138
     17        1          -0.000007164   -0.000024051    0.000010423
     18        1          -0.000059496   -0.000002768    0.000004414
     19        1          -0.000090270    0.000069796   -0.000023688
     20        1          -0.000069238    0.000039510   -0.000007749
     21        1          -0.000081615    0.000184987    0.000067799
     22        1           0.000106235    0.000203359    0.000113644
     23        1          -0.000067653   -0.000059280    0.000012811
     24        1          -0.000183786   -0.000145076    0.000060745
     25        1          -0.000074148   -0.000073062   -0.000001923
 -------------------------------------------------------------------
 Cartesian Forces:  Max     0.001339624 RMS     0.000343449

 GradGradGradGradGradGradGradGradGradGradGradGradGradGradGradGradGradGrad
 Berny optimization.
 Using GEDIIS/GDIIS optimizer.
 FormGI is forming the generalized inverse of G from B-inverse, IUseBI=4.
 Internal  Forces:  Max     0.000843187 RMS     0.000196165
 Search for a local minimum.
 Step number   6 out of a maximum of  120
 All quantities printed in internal units (Hartrees-Bohrs-Radians)
 Mixed Optimization -- En-DIIS/RFO-DIIS
 Swapping is turned off.
 Update second derivatives using D2CorX and points    1    2    3    4    5
                                                      6
 DE= -4.50D-05 DEPred=-3.26D-05 R= 1.38D+00
 TightC=F SS=  1.41D+00  RLast= 1.96D-02 DXNew= 4.5863D-01 5.8842D-02
 Trust test= 1.38D+00 RLast= 1.96D-02 DXMaxT set to 2.73D-01
 ITU=  1  1 -1  1  1  0
     Eigenvalues ---    0.00422   0.00496   0.01577   0.01865   0.01929
     Eigenvalues ---    0.01984   0.02024   0.02167   0.02231   0.02252
     Eigenvalues ---    0.02270   0.02282   0.02298   0.02369   0.02582
     Eigenvalues ---    0.02782   0.02965   0.05286   0.05615   0.05711
     Eigenvalues ---    0.05766   0.07197   0.11152   0.13638   0.14805
     Eigenvalues ---    0.15986   0.16000   0.16000   0.16000   0.16000
     Eigenvalues ---    0.16014   0.16028   0.16127   0.19575   0.21954
     Eigenvalues ---    0.22021   0.22308   0.23221   0.23423   0.24706
     Eigenvalues ---    0.24997   0.25029   0.26564   0.29528   0.31596
     Eigenvalues ---    0.33373   0.33492   0.33801   0.34105   0.35099
     Eigenvalues ---    0.35133   0.35214   0.35379   0.35568   0.35860
     Eigenvalues ---    0.37522   0.41135   0.42592   0.43284   0.43985
     Eigenvalues ---    0.44684   0.46144   0.47251   0.49063   0.58622
     Eigenvalues ---    0.61779   0.63971   0.69432   0.94456
 En-DIIS/RFO-DIIS/Sim-DIIS IScMMF=       -3 using points:     6    5    4    3    2
 RFO step:  Lambda=-3.75978756D-05.
 DidBck=F Rises=F RFO-DIIS coefs:    2.98111   -1.08585   -0.44519   -0.50674    0.05667
 Iteration  1 RMS(Cart)=  0.02665607 RMS(Int)=  0.00030107
 Iteration  2 RMS(Cart)=  0.00048619 RMS(Int)=  0.00001763
 Iteration  3 RMS(Cart)=  0.00000013 RMS(Int)=  0.00001763
 Variable       Old X    -DE/DX   Delta X   Delta X   Delta X     New X
                                 (Linear)    (Quad)   (Total)
    R1        2.29699   0.00084   0.00266  -0.00103   0.00162   2.29861
    R2        2.71179  -0.00069  -0.00222  -0.00036  -0.00258   2.70922
    R3        2.62503   0.00064   0.00126  -0.00027   0.00099   2.62601
    R4        2.49978   0.00016  -0.00076   0.00030  -0.00045   2.49933
    R5        2.07939   0.00017   0.00006   0.00080   0.00086   2.08024
    R6        2.47091   0.00024   0.00096  -0.00088   0.00008   2.47099
    R7        2.72474  -0.00015  -0.00105  -0.00027  -0.00132   2.72342
    R8        2.08962   0.00009  -0.00057   0.00102   0.00045   2.09007
    R9        2.67067   0.00040   0.00191  -0.00071   0.00121   2.67187
   R10        2.67516   0.00020  -0.00046   0.00087   0.00041   2.67557
   R11        2.61870   0.00018  -0.00006   0.00007   0.00001   2.61871
   R12        2.06288   0.00001  -0.00211   0.00199  -0.00012   2.06276
   R13        2.64549   0.00012  -0.00074   0.00113   0.00039   2.64588
   R14        2.06479   0.00001  -0.00153   0.00146  -0.00007   2.06471
   R15        2.51983   0.00024  -0.00028   0.00059   0.00032   2.52014
   R16        2.07001   0.00006  -0.00087   0.00089   0.00002   2.07003
   R17        2.50896   0.00027   0.00011   0.00033   0.00044   2.50940
   R18        2.07417   0.00003  -0.00141   0.00131  -0.00010   2.07408
   R19        2.65058   0.00026   0.00148  -0.00036   0.00112   2.65170
   R20        2.86306   0.00015  -0.00022   0.00082   0.00061   2.86367
   R21        2.08697  -0.00019  -0.00207   0.00050  -0.00157   2.08540
   R22        2.08428   0.00003   0.00084  -0.00016   0.00068   2.08496
   R23        2.07770  -0.00003  -0.00164   0.00126  -0.00038   2.07732
   R24        2.07871  -0.00007  -0.00243   0.00192  -0.00051   2.07820
   R25        2.07768  -0.00006  -0.00179   0.00135  -0.00044   2.07723
    A1        2.27104   0.00039  -0.00111   0.00307   0.00186   2.27290
    A2        2.08350  -0.00042  -0.00146  -0.00073  -0.00229   2.08122
    A3        1.92864   0.00004   0.00288  -0.00235   0.00043   1.92907
    A4        2.09779   0.00056   0.00310   0.00035   0.00345   2.10124
    A5        2.05068  -0.00029  -0.00207   0.00006  -0.00201   2.04867
    A6        2.13471  -0.00027  -0.00104  -0.00041  -0.00144   2.13327
    A7        2.16151  -0.00015   0.00304  -0.00398  -0.00094   2.16057
    A8        2.11126   0.00045   0.00382  -0.00157   0.00224   2.11350
    A9        2.12157  -0.00037  -0.00254   0.00040  -0.00214   2.11943
   A10        2.05036  -0.00009  -0.00128   0.00117  -0.00010   2.05025
   A11        2.13619   0.00018   0.00072  -0.00026   0.00046   2.13665
   A12        2.12929   0.00001   0.00053  -0.00020   0.00033   2.12961
   A13        2.01771  -0.00018  -0.00125   0.00047  -0.00078   2.01693
   A14        2.08457   0.00016   0.00087  -0.00007   0.00080   2.08538
   A15        2.05565  -0.00005  -0.00080   0.00047  -0.00034   2.05532
   A16        2.14296  -0.00010  -0.00006  -0.00040  -0.00046   2.14249
   A17        2.08453   0.00005   0.00023  -0.00013   0.00010   2.08464
   A18        2.10550   0.00004   0.00130  -0.00074   0.00056   2.10606
   A19        2.09315  -0.00009  -0.00154   0.00088  -0.00066   2.09249
   A20        2.13616  -0.00022  -0.00136   0.00032  -0.00105   2.13511
   A21        2.10542   0.00021   0.00170  -0.00007   0.00163   2.10705
   A22        2.04161   0.00000  -0.00033  -0.00024  -0.00058   2.04103
   A23        2.05974   0.00025   0.00197  -0.00062   0.00135   2.06109
   A24        2.18365  -0.00006  -0.00045   0.00003  -0.00042   2.18323
   A25        2.06694   0.00010   0.00187  -0.00059   0.00127   2.06821
   A26        2.03260  -0.00005  -0.00141   0.00056  -0.00085   2.03175
   A27        2.01029  -0.00043  -0.00117  -0.00243  -0.00360   2.00669
   A28        1.88208  -0.00007  -0.00005  -0.00084  -0.00089   1.88119
   A29        1.92715  -0.00001  -0.00134   0.00055  -0.00079   1.92636
   A30        1.92600   0.00006  -0.00023   0.00034   0.00010   1.92611
   A31        1.93974   0.00002   0.00218  -0.00025   0.00193   1.94167
   A32        1.94478  -0.00010  -0.00190  -0.00016  -0.00206   1.94272
   A33        1.84471   0.00010   0.00134   0.00040   0.00174   1.84645
   A34        1.92561  -0.00004  -0.00066   0.00009  -0.00057   1.92504
   A35        1.93913  -0.00031  -0.00308  -0.00007  -0.00315   1.93597
   A36        1.92493  -0.00005   0.00080  -0.00082  -0.00002   1.92491
   A37        1.89549   0.00017   0.00138   0.00023   0.00161   1.89709
   A38        1.88116   0.00009   0.00098   0.00033   0.00130   1.88246
   A39        1.89617   0.00016   0.00073   0.00028   0.00100   1.89718
    D1       -0.00228   0.00005   0.00022   0.00126   0.00148  -0.00080
    D2        3.13940   0.00005   0.00054   0.00098   0.00152   3.14092
    D3        3.14023  -0.00005  -0.00161   0.00144  -0.00016   3.14006
    D4       -0.00127  -0.00005  -0.00129   0.00116  -0.00012  -0.00139
    D5       -0.00964   0.00002   0.00699   0.00055   0.00753  -0.00210
    D6        3.13115   0.00011   0.00858   0.00039   0.00897   3.14012
    D7        3.14112   0.00000   0.00067  -0.00014   0.00053  -3.14153
    D8       -0.00057  -0.00001   0.00034   0.00015   0.00049  -0.00008
    D9       -3.14135  -0.00000  -0.00017   0.00003  -0.00014  -3.14148
   D10        0.00014  -0.00000   0.00031  -0.00033  -0.00002   0.00011
   D11       -0.00035   0.00000  -0.00001   0.00032   0.00032  -0.00003
   D12        3.14111   0.00001   0.00023   0.00011   0.00035   3.14146
   D13        3.14135   0.00001  -0.00046   0.00067   0.00021   3.14156
   D14       -0.00037   0.00001  -0.00022   0.00046   0.00024  -0.00013
   D15        3.14127   0.00000   0.00038  -0.00014   0.00024   3.14151
   D16       -0.00021   0.00000   0.00032  -0.00013   0.00019  -0.00002
   D17       -0.00020   0.00000   0.00016   0.00005   0.00021   0.00001
   D18        3.14151   0.00000   0.00010   0.00006   0.00016  -3.14152
   D19       -3.14128  -0.00000  -0.00041   0.00017  -0.00024  -3.14152
   D20        0.00031  -0.00000  -0.00040   0.00013  -0.00027   0.00004
   D21        0.00019  -0.00000  -0.00019  -0.00002  -0.00021  -0.00003
   D22       -3.14141  -0.00000  -0.00017  -0.00007  -0.00024   3.14154
   D23        0.00008  -0.00000  -0.00002  -0.00006  -0.00008   0.00000
   D24       -3.14155  -0.00000  -0.00015   0.00011  -0.00004  -3.14159
   D25        3.14156  -0.00000   0.00004  -0.00007  -0.00002   3.14153
   D26       -0.00007   0.00000  -0.00008   0.00010   0.00001  -0.00006
   D27        0.00007  -0.00000  -0.00011   0.00003  -0.00008  -0.00001
   D28       -3.14151  -0.00000  -0.00010   0.00003  -0.00007  -3.14158
   D29       -3.14148  -0.00000   0.00001  -0.00014  -0.00012   3.14158
   D30        0.00013  -0.00000   0.00003  -0.00014  -0.00011   0.00002
   D31       -0.00009   0.00000   0.00009   0.00000   0.00010   0.00000
   D32        3.14149   0.00000   0.00008   0.00001   0.00008   3.14157
   D33       -0.00004   0.00000   0.00007  -0.00001   0.00006   0.00002
   D34        3.14155   0.00000   0.00005   0.00004   0.00009  -3.14155
   D35       -3.08375  -0.00014  -0.04605  -0.00046  -0.04650  -3.13025
   D36        1.07710  -0.00012  -0.04788   0.00005  -0.04783   1.02927
   D37       -0.95592  -0.00028  -0.04857  -0.00098  -0.04955  -1.00546
   D38       -1.03219  -0.00003  -0.00353  -0.00100  -0.00453  -1.03672
   D39       -3.13544  -0.00001  -0.00280  -0.00130  -0.00410  -3.13955
   D40        1.04407   0.00002  -0.00222  -0.00106  -0.00328   1.04079
   D41        1.08232  -0.00007  -0.00390  -0.00102  -0.00491   1.07741
   D42       -1.02093  -0.00005  -0.00317  -0.00132  -0.00448  -1.02542
   D43       -3.12460  -0.00002  -0.00259  -0.00107  -0.00366  -3.12826
   D44        3.13482   0.00001  -0.00203  -0.00078  -0.00281   3.13201
   D45        1.03157   0.00003  -0.00130  -0.00108  -0.00238   1.02918
   D46       -1.07210   0.00006  -0.00073  -0.00083  -0.00156  -1.07367
         Item               Value     Threshold  Converged?
 Maximum Force            0.000843     0.000450     NO 
 RMS     Force            0.000196     0.000300     YES
 Maximum Displacement     0.101882     0.001800     NO 
 RMS     Displacement     0.026657     0.001200     NO 
 Predicted change in Energy=-1.766395D-05
 GradGradGradGradGradGradGradGradGradGradGradGradGradGradGradGradGradGrad

                          Input orientation:                          
 ---------------------------------------------------------------------
 Center     Atomic      Atomic             Coordinates (Angstroms)
 Number     Number       Type             X           Y           Z
 ---------------------------------------------------------------------
      1          8           0        2.421432   -1.392019    0.427001
      2          6           0        2.401627   -0.231864    0.062022
      3          6           0        1.292163    0.636956   -0.201810
      4          7           0        0.051860    0.201810   -0.055052
      5          6           0       -1.007372    0.935684   -0.276984
      6          6           0       -2.333842    0.401362   -0.098230
      7          6           0       -2.565032   -0.928822    0.321602
      8          6           0       -3.866585   -1.379472    0.473966
      9          6           0       -4.931431   -0.509675    0.209507
     10          7           0       -4.742281    0.749304   -0.187594
     11          6           0       -3.493992    1.178349   -0.332717
     12          8           0        3.602868    0.431189   -0.158079
     13          6           0        4.754430   -0.335934    0.075255
     14          6           0        5.958811    0.542854   -0.196046
     15          1           0        1.519424    1.664001   -0.526353
     16          1           0       -0.921346    1.987434   -0.608178
     17          1           0       -1.695272   -1.560076    0.512786
     18          1           0       -4.067492   -2.403585    0.797387
     19          1           0       -5.968444   -0.843793    0.323083
     20          1           0       -3.370265    2.218488   -0.660474
     21          1           0        4.757938   -1.230097   -0.571484
     22          1           0        4.759794   -0.714786    1.111471
     23          1           0        5.941992    0.902836   -1.234568
     24          1           0        6.894371   -0.010839   -0.029996
     25          1           0        5.946764    1.420815    0.465265
 ---------------------------------------------------------------------
                    Distance matrix (angstroms):
                    1          2          3          4          5
     1  O    0.000000
     2  C    1.216373   0.000000
     3  C    2.405701   1.433655   0.000000
     4  N    2.896125   2.392318   1.322589   0.000000
     5  C    4.203629   3.619305   2.320075   1.307592   0.000000
     6  C    5.109278   4.780306   3.635126   2.394423   1.441172
     7  C    5.009041   5.022035   4.195661   2.875468   2.502197
     8  C    6.288205   6.385702   5.579904   4.258465   3.754860
     9  C    7.408809   7.339801   6.341693   5.040773   4.209986
    10  N    7.502119   7.215291   6.035507   4.827122   3.740625
    11  C    6.494321   6.074771   4.818456   3.688331   2.499054
    12  O    2.249933   1.389627   2.320261   3.559900   4.639284
    13  C    2.584941   2.355140   3.607018   4.735009   5.910959
    14  C    4.079825   3.649705   4.667601   5.918468   6.977720
    15  H    3.325923   2.172273   1.100817   2.124587   2.641463
    16  H    4.864820   4.051741   2.624604   2.107494   1.106015
    17  H    4.121027   4.330349   3.776555   2.545418   2.706614
    18  H    6.577734   6.863427   6.242530   4.948110   4.655032
    19  H    8.408411   8.396469   7.428629   6.122118   5.304607
    20  H    6.911015   6.311970   4.944679   4.018018   2.715864
    21  H    2.546065   2.636285   3.954003   4.946133   6.165722
    22  H    2.528849   2.625930   3.946693   4.936149   6.157277
    23  H    4.519017   3.937368   4.770555   6.047838   7.015105
    24  H    4.703582   4.499118   5.642154   6.845861   7.962063
    25  H    4.510151   3.932169   4.767047   6.042069   7.010442
                    6          7          8          9         10
     6  C    0.000000
     7  C    1.413895   0.000000
     8  C    2.418280   1.385764   0.000000
     9  C    2.769867   2.405846   1.400137   0.000000
    10  N    2.435083   2.795675   2.395035   1.333602   0.000000
    11  C    1.415853   2.394007   2.707769   2.282469   1.327919
    12  O    5.937086   6.334249   7.711725   8.593870   8.351262
    13  C    7.128626   7.347566   8.693092   9.688350   9.562131
    14  C    8.294437   8.665431  10.034075  10.948501  10.703087
    15  H    4.077402   4.911673   6.266774   6.846889   6.337222
    16  H    2.184220   3.474298   4.602339   4.794262   4.038491
    17  H    2.151361   1.091565   2.179157   3.415852   3.886905
    18  H    3.416928   2.158398   1.092599   2.163074   3.371385
    19  H    3.865002   3.404474   2.174288   1.095413   2.074180
    20  H    2.166157   3.393882   3.805077   3.261439   2.065078
    21  H    7.292391   7.383377   8.688940   9.747453   9.711826
    22  H    7.282090   7.370399   8.675404   9.735269   9.701575
    23  H    8.368522   8.840028  10.214509  11.059470  10.736546
    24  H    9.237667   9.510343  10.859342  11.838742  11.662518
    25  H    8.362132   8.831314  10.205073  11.051124  10.729998
                   11         12         13         14         15
    11  C    0.000000
    12  O    7.138218   0.000000
    13  C    8.396187   1.403217   0.000000
    14  C    9.475126   2.358894   1.515390   0.000000
    15  H    5.040604   2.448712   3.850576   4.590669   0.000000
    16  H    2.710905   4.805517   6.170863   7.042246   2.463465
    17  H    3.383672   5.699604   6.579409   7.969301   4.669984
    18  H    3.799511   8.233060   9.089717  10.497389   7.036417
    19  H    3.262215   9.667838  10.737754  12.018806   7.942212
    20  H    1.097553   7.216053   8.548511   9.489737   4.922855
    21  H    8.599533   2.065179   1.103545   2.174030   4.343480
    22  H    8.590379   2.064824   1.103314   2.174604   4.340633
    23  H    9.482986   2.617782   2.158817   1.099271   4.543132
    24  H   10.460587   3.323521   2.167052   1.099736   5.651683
    25  H    9.477523   2.619498   2.158688   1.099224   4.543544
                   16         17         18         19         20
    16  H    0.000000
    17  H    3.800046   0.000000
    18  H    5.581657   2.533758   0.000000
    19  H    5.861424   4.336939   2.504303   0.000000
    20  H    2.460351   4.296474   4.896432   4.134669   0.000000
    21  H    6.527489   6.551980   9.007724  10.770550   8.829968
    22  H    6.521851   6.537646   8.992867  10.757940   8.822797
    23  H    6.976684   8.212611  10.735503  12.138182   9.422242
    24  H    8.087819   8.745097  11.250433  12.894591  10.522840
    25  H    6.974545   8.202969  10.724815  12.129338   9.418631
                   21         22         23         24         25
    21  H    0.000000
    22  H    1.760082   0.000000
    23  H    2.528057   3.085157   0.000000
    24  H    2.518759   2.520894   1.786847   0.000000
    25  H    3.084719   2.527306   1.777007   1.786861   0.000000
 Stoichiometry    C10H11N2O2(1-)
 Framework group  C1[X(C10H11N2O2)]
 Deg. of freedom    69
 Full point group                 C1      NOp   1
 Largest Abelian subgroup         C1      NOp   1
 Largest concise Abelian subgroup C1      NOp   1
                         Standard orientation:                         
 ---------------------------------------------------------------------
 Center     Atomic      Atomic             Coordinates (Angstroms)
 Number     Number       Type             X           Y           Z
 ---------------------------------------------------------------------
      1          8           0       -2.338451    1.507402   -0.000808
      2          6           0       -2.334608    0.291035   -0.002169
      3          6           0       -1.237118   -0.631397   -0.002120
      4          7           0        0.009139   -0.188583   -0.001308
      5          6           0        1.058253   -0.969068   -0.001279
      6          6           0        2.392041   -0.423188   -0.000232
      7          6           0        2.641519    0.968523    0.000774
      8          6           0        3.949240    1.427003    0.001851
      9          6           0        5.002101    0.504036    0.001920
     10          7           0        4.795641   -0.813487    0.000996
     11          6           0        3.541479   -1.249887   -0.000023
     12          8           0       -3.544960   -0.391681   -0.005074
     13          6           0       -4.685926    0.425150   -0.003495
     14          6           0       -5.902206   -0.478680    0.009301
     15          1           0       -1.478498   -1.705423   -0.002911
     16          1           0        0.957764   -2.070508   -0.002057
     17          1           0        1.780461    1.639413    0.000720
     18          1           0        4.164227    2.498241    0.002642
     19          1           0        6.043685    0.843198    0.002776
     20          1           0        3.403451   -2.338726   -0.000720
     21          1           0       -4.687238    1.084976   -0.888052
     22          1           0       -4.676092    1.096558    0.871957
     23          1           0       -5.900416   -1.132923   -0.874079
     24          1           0       -6.830131    0.111552    0.008946
     25          1           0       -5.892029   -1.118801    0.902852
 ---------------------------------------------------------------------
 Rotational constants (GHZ):           3.1447861           0.2092271           0.1966569
 Standard basis: def2SVP (5D, 7F)
 There are   265 symmetry adapted cartesian basis functions of A   symmetry.
 There are   251 symmetry adapted basis functions of A   symmetry.
   251 basis functions,   427 primitive gaussians,   265 cartesian basis functions
    51 alpha electrons       51 beta electrons
       nuclear repulsion energy       781.6615914611 Hartrees.
 NAtoms=   25 NActive=   25 NUniq=   25 SFac= 1.00D+00 NAtFMM=   60 NAOKFM=F Big=F
 Integral buffers will be    131072 words long.
 Raffenetti 2 integral format.
 Two-electron integral symmetry is turned on.
 Nuclear repulsion after empirical dispersion term =      781.6607503780 Hartrees.
 One-electron integrals computed using PRISM.
   1 Symmetry operations used in ECPInt.
 ECPInt:  NShTT=    6903 NPrTT=   25191 LenC2=    5987 LenP2D=   15646.
 LDataN:  DoStor=T MaxTD1= 4 Len=   56
 NBasis=   251 RedAO= T EigKep=  6.85D-04  NBF=   251
 NBsUse=   251 1.00D-06 EigRej= -1.00D+00 NBFU=   251
 Initial guess from the checkpoint file:  "A12_crest_conformers_censo-1.chk"
 B after Tr=     0.000000   -0.000000    0.000000
         Rot=    1.000000   -0.000956    0.000065    0.000043 Ang=  -0.11 deg.
 ExpMin= 1.22D-01 ExpMax= 2.27D+03 ExpMxC= 3.41D+02 IAcc=3 IRadAn=         5 AccDes= 0.00D+00
 Harris functional with IExCor= 1009 and IRadAn=       5 diagonalized for initial guess.
 HarFok:  IExCor= 1009 AccDes= 0.00D+00 IRadAn=         5 IDoV= 1 UseB2=F ITyADJ=14
 ICtDFT=  3500011 ScaDFX=  1.000000  1.000000  1.000000  1.000000
 FoFCou: FMM=F IPFlag=           0 FMFlag=      100000 FMFlg1=           0
         NFxFlg=           0 DoJE=T BraDBF=F KetDBF=T FulRan=T
         wScrn=  0.000000 ICntrl=       500 IOpCl=  0 I1Cent=   200000004 NGrid=           0
         NMat0=    1 NMatS0=      1 NMatT0=    0 NMatD0=    1 NMtDS0=    0 NMtDT0=    0
 Petite list used in FoFCou.
 Requested convergence on RMS density matrix=1.00D-08 within 128 cycles.
 Requested convergence on MAX density matrix=1.00D-06.
 Requested convergence on             energy=1.00D-06.
 No special actions if energy rises.
 Integral accuracy reduced to 1.0D-05 until final iterations.
 Initial convergence to 1.0D-05 achieved.  Increase integral accuracy.
 SCF Done:  E(RM062X) =  -646.915861444     A.U. after   11 cycles
            NFock= 11  Conv=0.93D-08     -V/T= 2.0096
   1 Symmetry operations used in ECPInt.
 ECPInt:  NShTT=    6903 NPrTT=   25191 LenC2=    5987 LenP2D=   15646.
 LDataN:  DoStor=T MaxTD1= 5 Len=  102
 Calling FoFJK, ICntrl=      2127 FMM=F ISym2X=0 I1Cent= 0 IOpClX= 0 NMat=1 NMatS=1 NMatT=0.
 ***** Axes restored to original set *****
 -------------------------------------------------------------------
 Center     Atomic                   Forces (Hartrees/Bohr)
 Number     Number              X              Y              Z
 -------------------------------------------------------------------
      1        8          -0.000141922    0.000256198   -0.000049509
      2        6          -0.000308978   -0.000536912    0.000030449
      3        6           0.000347102    0.000243696   -0.000066951
      4        7          -0.000257685   -0.000231153    0.000096500
      5        6          -0.000026087    0.000187098   -0.000064545
      6        6          -0.000073445   -0.000170457    0.000057780
      7        6          -0.000026919    0.000163235   -0.000048773
      8        6          -0.000064562    0.000028909   -0.000010516
      9        6           0.000067887    0.000017493   -0.000005811
     10        7          -0.000000702    0.000051106   -0.000015073
     11        6          -0.000112564   -0.000087624    0.000026290
     12        8           0.000285953    0.000105704    0.000080058
     13        6           0.000051504    0.000092647   -0.000090263
     14        6          -0.000012322   -0.000050719    0.000001023
     15        1          -0.000022437   -0.000049351    0.000005755
     16        1           0.000022270   -0.000017098    0.000008890
     17        1           0.000032075   -0.000057278    0.000015752
     18        1           0.000026608   -0.000050853    0.000016588
     19        1          -0.000015652   -0.000025390    0.000007216
     20        1           0.000049039    0.000036364   -0.000013290
     21        1          -0.000003838    0.000007318    0.000022005
     22        1           0.000046242    0.000017606   -0.000001497
     23        1           0.000007096    0.000010382   -0.000050234
     24        1           0.000125782   -0.000007531    0.000007169
     25        1           0.000005555    0.000066608    0.000040988
 -------------------------------------------------------------------
 Cartesian Forces:  Max     0.000536912 RMS     0.000120762

 GradGradGradGradGradGradGradGradGradGradGradGradGradGradGradGradGradGrad
 Berny optimization.
 Using GEDIIS/GDIIS optimizer.
 FormGI is forming the generalized inverse of G from B-inverse, IUseBI=4.
 Internal  Forces:  Max     0.000577863 RMS     0.000101447
 Search for a local minimum.
 Step number   7 out of a maximum of  120
 All quantities printed in internal units (Hartrees-Bohrs-Radians)
 Mixed Optimization -- En-DIIS/RFO-DIIS
 Swapping is turned off.
 Update second derivatives using D2CorX and points    1    2    3    4    5
                                                      6    7
 DE= -2.36D-05 DEPred=-1.77D-05 R= 1.33D+00
 TightC=F SS=  1.41D+00  RLast= 8.53D-02 DXNew= 4.5863D-01 2.5596D-01
 Trust test= 1.33D+00 RLast= 8.53D-02 DXMaxT set to 2.73D-01
 ITU=  1  1  1 -1  1  1  0
     Eigenvalues ---    0.00311   0.00496   0.01575   0.01865   0.01929
     Eigenvalues ---    0.01984   0.02024   0.02167   0.02230   0.02251
     Eigenvalues ---    0.02270   0.02282   0.02298   0.02369   0.02583
     Eigenvalues ---    0.02782   0.02965   0.05295   0.05637   0.05727
     Eigenvalues ---    0.05771   0.07234   0.11129   0.13616   0.14903
     Eigenvalues ---    0.15990   0.16000   0.16000   0.16000   0.16003
     Eigenvalues ---    0.16015   0.16088   0.16120   0.19380   0.21936
     Eigenvalues ---    0.22005   0.22278   0.23250   0.23404   0.24856
     Eigenvalues ---    0.25008   0.25076   0.26409   0.29792   0.32673
     Eigenvalues ---    0.33403   0.33484   0.33820   0.34258   0.35110
     Eigenvalues ---    0.35134   0.35236   0.35405   0.35547   0.35819
     Eigenvalues ---    0.36801   0.40994   0.42362   0.43435   0.44434
     Eigenvalues ---    0.44742   0.46211   0.47909   0.48977   0.58456
     Eigenvalues ---    0.61899   0.63807   0.69079   0.95303
 En-DIIS/RFO-DIIS/Sim-DIIS IScMMF=       -3 using points:     7    6    5    4    3    2
 RFO step:  Lambda=-3.57482116D-06.
 DidBck=F Rises=F RFO-DIIS coefs:    1.08703    0.15845   -0.16651   -0.05392    0.02539
                  RFO-DIIS coefs:   -0.05044
 Iteration  1 RMS(Cart)=  0.00504298 RMS(Int)=  0.00001092
 Iteration  2 RMS(Cart)=  0.00001723 RMS(Int)=  0.00000208
 Iteration  3 RMS(Cart)=  0.00000000 RMS(Int)=  0.00000208
 Variable       Old X    -DE/DX   Delta X   Delta X   Delta X     New X
                                 (Linear)    (Quad)   (Total)
    R1        2.29861  -0.00026   0.00038  -0.00061  -0.00023   2.29838
    R2        2.70922   0.00008  -0.00047   0.00058   0.00012   2.70933
    R3        2.62601   0.00054   0.00022   0.00064   0.00085   2.62686
    R4        2.49933   0.00041  -0.00024   0.00080   0.00056   2.49989
    R5        2.08024  -0.00005   0.00009  -0.00022  -0.00013   2.08011
    R6        2.47099   0.00016  -0.00007   0.00032   0.00026   2.47125
    R7        2.72342   0.00014  -0.00036   0.00060   0.00023   2.72365
    R8        2.09007  -0.00002   0.00002  -0.00006  -0.00005   2.09002
    R9        2.67187  -0.00010   0.00015  -0.00033  -0.00018   2.67169
   R10        2.67557   0.00003  -0.00005   0.00009   0.00003   2.67561
   R11        2.61871   0.00001  -0.00011   0.00010  -0.00002   2.61870
   R12        2.06276   0.00006  -0.00017   0.00028   0.00011   2.06287
   R13        2.64588  -0.00002  -0.00003   0.00001  -0.00002   2.64586
   R14        2.06471   0.00005  -0.00012   0.00021   0.00009   2.06480
   R15        2.52014   0.00001  -0.00004   0.00004  -0.00001   2.52013
   R16        2.07003   0.00002  -0.00011   0.00014   0.00003   2.07006
   R17        2.50940  -0.00003  -0.00004  -0.00000  -0.00004   2.50937
   R18        2.07408   0.00005  -0.00014   0.00023   0.00008   2.07416
   R19        2.65170   0.00010   0.00029  -0.00008   0.00021   2.65190
   R20        2.86367   0.00011   0.00009   0.00016   0.00025   2.86393
   R21        2.08540  -0.00002  -0.00033   0.00012  -0.00021   2.08518
   R22        2.08496  -0.00001   0.00010   0.00006   0.00016   2.08512
   R23        2.07732   0.00005  -0.00017   0.00024   0.00007   2.07739
   R24        2.07820   0.00011  -0.00022   0.00047   0.00025   2.07845
   R25        2.07723   0.00008  -0.00019   0.00034   0.00016   2.07739
    A1        2.27290  -0.00008  -0.00019   0.00011  -0.00009   2.27281
    A2        2.08122   0.00024   0.00027   0.00004   0.00030   2.08152
    A3        1.92907  -0.00015  -0.00005  -0.00015  -0.00021   1.92885
    A4        2.10124   0.00005   0.00040  -0.00009   0.00030   2.10155
    A5        2.04867  -0.00001  -0.00030   0.00021  -0.00009   2.04858
    A6        2.13327  -0.00003  -0.00009  -0.00012  -0.00021   2.13306
    A7        2.16057  -0.00010  -0.00005  -0.00022  -0.00027   2.16031
    A8        2.11350   0.00004   0.00022   0.00000   0.00022   2.11373
    A9        2.11943  -0.00004  -0.00016  -0.00013  -0.00029   2.11914
   A10        2.05025   0.00001  -0.00006   0.00013   0.00007   2.05032
   A11        2.13665   0.00006  -0.00001   0.00020   0.00019   2.13684
   A12        2.12961  -0.00005   0.00006  -0.00015  -0.00009   2.12952
   A13        2.01693  -0.00001  -0.00005  -0.00005  -0.00010   2.01683
   A14        2.08538   0.00001   0.00007  -0.00002   0.00005   2.08543
   A15        2.05532   0.00002  -0.00005   0.00015   0.00010   2.05542
   A16        2.14249  -0.00003  -0.00002  -0.00013  -0.00015   2.14234
   A17        2.08464  -0.00000  -0.00003   0.00002  -0.00000   2.08463
   A18        2.10606  -0.00004   0.00013  -0.00029  -0.00016   2.10590
   A19        2.09249   0.00004  -0.00010   0.00027   0.00017   2.09265
   A20        2.13511   0.00001  -0.00006   0.00010   0.00004   2.13515
   A21        2.10705  -0.00003   0.00022  -0.00031  -0.00009   2.10696
   A22        2.04103   0.00001  -0.00016   0.00021   0.00005   2.04108
   A23        2.06109  -0.00005   0.00015  -0.00031  -0.00016   2.06093
   A24        2.18323   0.00005  -0.00008   0.00026   0.00017   2.18340
   A25        2.06821  -0.00007   0.00030  -0.00060  -0.00030   2.06792
   A26        2.03175   0.00002  -0.00021   0.00034   0.00012   2.03187
   A27        2.00669   0.00058   0.00008   0.00128   0.00136   2.00805
   A28        1.88119   0.00005  -0.00001   0.00022   0.00021   1.88140
   A29        1.92636  -0.00001  -0.00024   0.00024  -0.00000   1.92636
   A30        1.92611   0.00001   0.00001   0.00006   0.00008   1.92618
   A31        1.94167  -0.00001   0.00040  -0.00007   0.00033   1.94200
   A32        1.94272  -0.00005  -0.00034  -0.00024  -0.00058   1.94214
   A33        1.84645   0.00001   0.00017  -0.00021  -0.00004   1.84641
   A34        1.92504  -0.00001  -0.00008  -0.00016  -0.00024   1.92480
   A35        1.93597   0.00008  -0.00042   0.00082   0.00040   1.93638
   A36        1.92491  -0.00000   0.00008  -0.00001   0.00006   1.92497
   A37        1.89709  -0.00003   0.00021  -0.00028  -0.00007   1.89702
   A38        1.88246  -0.00000   0.00015  -0.00017  -0.00002   1.88244
   A39        1.89718  -0.00004   0.00010  -0.00024  -0.00015   1.89703
    D1       -0.00080  -0.00001  -0.00025   0.00050   0.00026  -0.00055
    D2        3.14092  -0.00001  -0.00028   0.00045   0.00017   3.14109
    D3        3.14006   0.00004   0.00053   0.00048   0.00100   3.14107
    D4       -0.00139   0.00003   0.00049   0.00043   0.00092  -0.00048
    D5       -0.00210   0.00003   0.00142   0.00040   0.00182  -0.00029
    D6        3.14012  -0.00001   0.00074   0.00042   0.00116   3.14129
    D7       -3.14153  -0.00000   0.00021  -0.00034  -0.00013   3.14152
    D8       -0.00008   0.00000   0.00025  -0.00029  -0.00004  -0.00012
    D9       -3.14148  -0.00000  -0.00002  -0.00017  -0.00019   3.14152
   D10        0.00011  -0.00000   0.00005  -0.00023  -0.00017  -0.00006
   D11       -0.00003   0.00000   0.00004  -0.00004  -0.00000  -0.00003
   D12        3.14146   0.00000   0.00004   0.00006   0.00011   3.14157
   D13        3.14156   0.00000  -0.00003   0.00001  -0.00001   3.14154
   D14       -0.00013   0.00000  -0.00003   0.00012   0.00009  -0.00004
   D15        3.14151   0.00000   0.00003   0.00006   0.00010  -3.14158
   D16       -0.00002   0.00000   0.00003   0.00000   0.00004   0.00002
   D17        0.00001  -0.00000   0.00003  -0.00003  -0.00001   0.00001
   D18       -3.14152  -0.00000   0.00003  -0.00009  -0.00006  -3.14158
   D19       -3.14152  -0.00000  -0.00004  -0.00003  -0.00007   3.14159
   D20        0.00004  -0.00000  -0.00003  -0.00002  -0.00005  -0.00001
   D21       -0.00003   0.00000  -0.00004   0.00007   0.00003   0.00000
   D22        3.14154   0.00000  -0.00003   0.00008   0.00005   3.14159
   D23        0.00000  -0.00000   0.00000  -0.00002  -0.00002  -0.00001
   D24       -3.14159  -0.00000  -0.00001   0.00000  -0.00001   3.14159
   D25        3.14153   0.00000  -0.00000   0.00004   0.00004   3.14158
   D26       -0.00006   0.00000  -0.00001   0.00006   0.00005  -0.00001
   D27       -0.00001   0.00000  -0.00003   0.00006   0.00003   0.00001
   D28       -3.14158  -0.00000  -0.00002   0.00000  -0.00001  -3.14159
   D29        3.14158   0.00000  -0.00002   0.00003   0.00002  -3.14159
   D30        0.00002  -0.00000  -0.00000  -0.00002  -0.00002  -0.00001
   D31        0.00000  -0.00000   0.00002  -0.00003  -0.00001  -0.00000
   D32        3.14157   0.00000   0.00001   0.00002   0.00003  -3.14159
   D33        0.00002  -0.00000   0.00002  -0.00004  -0.00002  -0.00000
   D34       -3.14155  -0.00000   0.00000  -0.00005  -0.00005  -3.14159
   D35       -3.13025  -0.00003  -0.00915   0.00020  -0.00895  -3.13921
   D36        1.02927  -0.00004  -0.00949   0.00000  -0.00949   1.01978
   D37       -1.00546  -0.00005  -0.00956   0.00008  -0.00948  -1.01494
   D38       -1.03672   0.00000  -0.00065  -0.00068  -0.00133  -1.03805
   D39       -3.13955  -0.00000  -0.00058  -0.00077  -0.00135  -3.14089
   D40        1.04079  -0.00001  -0.00047  -0.00100  -0.00147   1.03932
   D41        1.07741   0.00001  -0.00071  -0.00029  -0.00100   1.07641
   D42       -1.02542   0.00001  -0.00064  -0.00038  -0.00102  -1.02643
   D43       -3.12826   0.00000  -0.00053  -0.00061  -0.00114  -3.12940
   D44        3.13201  -0.00001  -0.00045  -0.00076  -0.00121   3.13080
   D45        1.02918  -0.00001  -0.00038  -0.00084  -0.00123   1.02795
   D46       -1.07367  -0.00002  -0.00028  -0.00107  -0.00135  -1.07502
         Item               Value     Threshold  Converged?
 Maximum Force            0.000578     0.000450     NO 
 RMS     Force            0.000101     0.000300     YES
 Maximum Displacement     0.019926     0.001800     NO 
 RMS     Displacement     0.005042     0.001200     NO 
 Predicted change in Energy=-1.764478D-06
 GradGradGradGradGradGradGradGradGradGradGradGradGradGradGradGradGradGrad

                          Input orientation:                          
 ---------------------------------------------------------------------
 Center     Atomic      Atomic             Coordinates (Angstroms)
 Number     Number       Type             X           Y           Z
 ---------------------------------------------------------------------
      1          8           0        2.421705   -1.393713    0.428609
      2          6           0        2.401906   -0.233158    0.065315
      3          6           0        1.292309    0.635735   -0.198061
      4          7           0        0.051623    0.200347   -0.052596
      5          6           0       -1.007350    0.934912   -0.274270
      6          6           0       -2.334340    0.400913   -0.097422
      7          6           0       -2.566770   -0.929658    0.320172
      8          6           0       -3.868725   -1.379770    0.470596
      9          6           0       -4.932795   -0.508955    0.206418
     10          7           0       -4.742580    0.750504   -0.188631
     11          6           0       -3.493863    1.178877   -0.331874
     12          8           0        3.603344    0.431330   -0.152212
     13          6           0        4.756317   -0.334525    0.078964
     14          6           0        5.959438    0.543243   -0.201821
     15          1           0        1.519564    1.663182   -0.521105
     16          1           0       -0.920472    1.987085   -0.603811
     17          1           0       -1.697621   -1.561882    0.511261
     18          1           0       -4.070378   -2.404322    0.792312
     19          1           0       -5.970098   -0.842731    0.318505
     20          1           0       -3.368939    2.219426   -0.658015
     21          1           0        4.756733   -1.231665   -0.563455
     22          1           0        4.767068   -0.708510    1.116996
     23          1           0        5.938193    0.897506   -1.242266
     24          1           0        6.896172   -0.008956   -0.036550
     25          1           0        5.949678    1.424909    0.454720
 ---------------------------------------------------------------------
                    Distance matrix (angstroms):
                    1          2          3          4          5
     1  O    0.000000
     2  C    1.216249   0.000000
     3  C    2.405600   1.433718   0.000000
     4  N    2.896528   2.392835   1.322885   0.000000
     5  C    4.204159   3.619770   2.320290   1.307727   0.000000
     6  C    5.110513   4.781271   3.635636   2.394797   1.441295
     7  C    5.011186   5.023725   4.196607   2.876083   2.502354
     8  C    6.290585   6.387471   5.580828   4.259065   3.755003
     9  C    7.410859   7.341241   6.342384   5.041292   4.210099
    10  N    7.503707   7.216354   6.035988   4.827584   3.740760
    11  C    6.495421   6.075499   4.818750   3.688629   2.499116
    12  O    2.250424   1.390077   2.320510   3.560617   4.639719
    13  C    2.587382   2.356632   3.607977   4.736828   5.912369
    14  C    4.082254   3.651053   4.668047   5.919638   6.978165
    15  H    3.325721   2.172216   1.100749   2.124673   2.641325
    16  H    4.864754   4.051593   2.624344   2.107425   1.105989
    17  H    4.123585   4.332493   3.777875   2.546221   2.706938
    18  H    6.580331   6.865344   6.243493   4.948643   4.655129
    19  H    8.410592   8.397984   7.429351   6.122651   5.304740
    20  H    6.911373   6.311975   4.944377   4.017892   2.715573
    21  H    2.542206   2.633928   3.952585   4.944663   6.164604
    22  H    2.538526   2.631727   3.950990   4.942610   6.162821
    23  H    4.517433   3.936177   4.768975   6.045911   7.012773
    24  H    4.706887   4.501008   5.643137   6.847767   7.963232
    25  H    4.515740   3.935417   4.768648   6.045161   7.012258
                    6          7          8          9         10
     6  C    0.000000
     7  C    1.413799   0.000000
     8  C    2.418225   1.385754   0.000000
     9  C    2.769864   2.405828   1.400126   0.000000
    10  N    2.435191   2.795707   2.395051   1.333597   0.000000
    11  C    1.415871   2.393864   2.707610   2.282336   1.327899
    12  O    5.938014   6.336067   7.713610   8.595255   8.352104
    13  C    7.130876   7.351189   8.696969   9.691520   9.564410
    14  C    8.295655   8.668226  10.037077  10.950549  10.704033
    15  H    4.077426   4.912096   6.267111   6.846926   6.337031
    16  H    2.184352   3.474397   4.602418   4.794311   4.038566
    17  H    2.151388   1.091624   2.179109   3.415837   3.886998
    18  H    3.416841   2.158330   1.092645   2.163204   3.371503
    19  H    3.865021   3.404438   2.174237   1.095430   2.074220
    20  H    2.166022   3.393679   3.804965   3.261434   2.065174
    21  H    7.291489   7.382798   8.688483   9.746896   9.711150
    22  H    7.289419   7.380313   8.685929   9.744554   9.709109
    23  H    8.366126   8.838220  10.212518  11.056907  10.733623
    24  H    9.239808   9.514317  10.863671  11.842023  11.664496
    25  H    8.365308   8.836967  10.211147  11.055755  10.732805
                   11         12         13         14         15
    11  C    0.000000
    12  O    7.138728   0.000000
    13  C    8.397895   1.403326   0.000000
    14  C    9.475539   2.359272   1.515525   0.000000
    15  H    5.040318   2.448608   3.850648   4.590064   0.000000
    16  H    2.710994   4.805125   6.171061   7.041267   2.462829
    17  H    3.383655   5.702045   6.583813   7.973116   4.670877
    18  H    3.799405   8.235233   9.094145  10.501126   7.036839
    19  H    3.262151   9.669312  10.741119  12.021043   7.942265
    20  H    1.097596   7.215667   8.549011   9.488747   4.921952
    21  H    8.598644   2.065182   1.103432   2.174298   4.342948
    22  H    8.596769   2.065037   1.103400   2.174376   4.342187
    23  H    9.480066   2.618599   2.158791   1.099309   4.542094
    24  H   10.461883   3.324146   2.167561   1.099868   5.651439
    25  H    9.479437   2.619323   2.158914   1.099308   4.542568
                   16         17         18         19         20
    16  H    0.000000
    17  H    3.800330   0.000000
    18  H    5.581713   2.533510   0.000000
    19  H    5.861505   4.336865   2.504395   0.000000
    20  H    2.460063   4.296371   4.896378   4.134783   0.000000
    21  H    6.526303   6.551545   9.007282  10.770052   8.828676
    22  H    6.524993   6.548844   9.004536  10.767653   8.827122
    23  H    6.973958   8.211522  10.733735  12.135560   9.418679
    24  H    8.087391   8.750140  11.255666  12.898145  10.522567
    25  H    6.973916   8.210073  10.732125  12.134324   9.418390
                   21         22         23         24         25
    21  H    0.000000
    22  H    1.760032   0.000000
    23  H    2.527844   3.084954   0.000000
    24  H    2.519890   2.520541   1.786939   0.000000
    25  H    3.084993   2.527578   1.777090   1.786943   0.000000
 Stoichiometry    C10H11N2O2(1-)
 Framework group  C1[X(C10H11N2O2)]
 Deg. of freedom    69
 Full point group                 C1      NOp   1
 Largest Abelian subgroup         C1      NOp   1
 Largest concise Abelian subgroup C1      NOp   1
                         Standard orientation:                         
 ---------------------------------------------------------------------
 Center     Atomic      Atomic             Coordinates (Angstroms)
 Number     Number       Type             X           Y           Z
 ---------------------------------------------------------------------
      1          8           0       -2.338907    1.508945    0.000411
      2          6           0       -2.334978    0.292702   -0.000280
      3          6           0       -1.237290   -0.629594   -0.000321
      4          7           0        0.009309   -0.186859   -0.000143
      5          6           0        1.058211   -0.967855   -0.000093
      6          6           0        2.392458   -0.422771    0.000011
      7          6           0        2.643066    0.968640    0.000026
      8          6           0        3.951133    1.426106    0.000112
      9          6           0        5.003270    0.502330    0.000200
     10          7           0        4.795848   -0.815037    0.000191
     11          6           0        3.541315   -1.250309    0.000098
     12          8           0       -3.545469   -0.390689   -0.001174
     13          6           0       -4.687936    0.424229   -0.000822
     14          6           0       -5.902989   -0.481562    0.001540
     15          1           0       -1.478582   -1.703571   -0.000552
     16          1           0        0.956956   -2.069199   -0.000144
     17          1           0        1.782583    1.640363   -0.000029
     18          1           0        4.166782    2.497259    0.000119
     19          1           0        6.045103    0.840786    0.000272
     20          1           0        3.402174   -2.339050    0.000095
     21          1           0       -4.685917    1.088913   -0.881590
     22          1           0       -4.683767    1.090843    0.878440
     23          1           0       -5.896487   -1.130208   -0.885982
     24          1           0       -6.832151    0.106967    0.001193
     25          1           0       -5.895355   -1.127388    0.891106
 ---------------------------------------------------------------------
 Rotational constants (GHZ):           3.1444463           0.2091385           0.1965769
 Standard basis: def2SVP (5D, 7F)
 There are   265 symmetry adapted cartesian basis functions of A   symmetry.
 There are   251 symmetry adapted basis functions of A   symmetry.
   251 basis functions,   427 primitive gaussians,   265 cartesian basis functions
    51 alpha electrons       51 beta electrons
       nuclear repulsion energy       781.5607287618 Hartrees.
 NAtoms=   25 NActive=   25 NUniq=   25 SFac= 1.00D+00 NAtFMM=   60 NAOKFM=F Big=F
 Integral buffers will be    131072 words long.
 Raffenetti 2 integral format.
 Two-electron integral symmetry is turned on.
 Nuclear repulsion after empirical dispersion term =      781.5598877919 Hartrees.
 One-electron integrals computed using PRISM.
   1 Symmetry operations used in ECPInt.
 ECPInt:  NShTT=    6903 NPrTT=   25191 LenC2=    5987 LenP2D=   15645.
 LDataN:  DoStor=T MaxTD1= 4 Len=   56
 NBasis=   251 RedAO= T EigKep=  6.85D-04  NBF=   251
 NBsUse=   251 1.00D-06 EigRej= -1.00D+00 NBFU=   251
 Initial guess from the checkpoint file:  "A12_crest_conformers_censo-1.chk"
 B after Tr=    -0.000000    0.000000   -0.000000
         Rot=    1.000000   -0.000197    0.000011    0.000020 Ang=  -0.02 deg.
 Requested convergence on RMS density matrix=1.00D-08 within 128 cycles.
 Requested convergence on MAX density matrix=1.00D-06.
 Requested convergence on             energy=1.00D-06.
 No special actions if energy rises.
 SCF Done:  E(RM062X) =  -646.915863351     A.U. after    9 cycles
            NFock=  9  Conv=0.67D-08     -V/T= 2.0096
   1 Symmetry operations used in ECPInt.
 ECPInt:  NShTT=    6903 NPrTT=   25191 LenC2=    5987 LenP2D=   15645.
 LDataN:  DoStor=T MaxTD1= 5 Len=  102
 Calling FoFJK, ICntrl=      2127 FMM=F ISym2X=0 I1Cent= 0 IOpClX= 0 NMat=1 NMatS=1 NMatT=0.
 ***** Axes restored to original set *****
 -------------------------------------------------------------------
 Center     Atomic                   Forces (Hartrees/Bohr)
 Number     Number              X              Y              Z
 -------------------------------------------------------------------
      1        8          -0.000007980    0.000148331   -0.000054083
      2        6          -0.000155084   -0.000345340    0.000103132
      3        6           0.000147173    0.000167296   -0.000055887
      4        7          -0.000125095   -0.000122791    0.000046705
      5        6           0.000074267    0.000082212   -0.000027873
      6        6          -0.000008282   -0.000103976    0.000033212
      7        6           0.000038972    0.000080660   -0.000025417
      8        6          -0.000071848   -0.000000653    0.000002251
      9        6           0.000031310   -0.000027773    0.000007111
     10        7           0.000028186    0.000041693   -0.000012949
     11        6          -0.000058562   -0.000008382    0.000003107
     12        8           0.000193184    0.000083623   -0.000017383
     13        6          -0.000124541    0.000074621    0.000004490
     14        6          -0.000034575   -0.000033085   -0.000004433
     15        1          -0.000017274   -0.000015410    0.000001218
     16        1          -0.000002256   -0.000005091    0.000000403
     17        1           0.000007880   -0.000028609    0.000008428
     18        1           0.000014090   -0.000015906    0.000004979
     19        1          -0.000007605   -0.000014484    0.000004673
     20        1           0.000022237    0.000015813   -0.000005344
     21        1           0.000003867   -0.000008345   -0.000019511
     22        1           0.000017897   -0.000000481    0.000013909
     23        1           0.000009883    0.000013401   -0.000023133
     24        1           0.000026902    0.000002304    0.000000900
     25        1          -0.000002745    0.000020371    0.000011496
 -------------------------------------------------------------------
 Cartesian Forces:  Max     0.000345340 RMS     0.000071709

 GradGradGradGradGradGradGradGradGradGradGradGradGradGradGradGradGradGrad
 Berny optimization.
 Using GEDIIS/GDIIS optimizer.
 FormGI is forming the generalized inverse of G from B-inverse, IUseBI=4.
 Internal  Forces:  Max     0.000157012 RMS     0.000034607
 Search for a local minimum.
 Step number   8 out of a maximum of  120
 All quantities printed in internal units (Hartrees-Bohrs-Radians)
 Mixed Optimization -- En-DIIS/RFO-DIIS
 Swapping is turned off.
 Update second derivatives using D2CorX and points    1    2    3    4    5
                                                      6    7    8
 DE= -1.91D-06 DEPred=-1.76D-06 R= 1.08D+00
 TightC=F SS=  1.41D+00  RLast= 1.69D-02 DXNew= 4.5863D-01 5.0710D-02
 Trust test= 1.08D+00 RLast= 1.69D-02 DXMaxT set to 2.73D-01
 ITU=  1  1  1  1 -1  1  1  0
     Eigenvalues ---    0.00276   0.00496   0.01576   0.01864   0.01929
     Eigenvalues ---    0.01975   0.02024   0.02167   0.02230   0.02251
     Eigenvalues ---    0.02270   0.02282   0.02298   0.02369   0.02583
     Eigenvalues ---    0.02786   0.02968   0.05307   0.05637   0.05735
     Eigenvalues ---    0.05771   0.07216   0.11051   0.13613   0.14942
     Eigenvalues ---    0.15825   0.15995   0.16000   0.16000   0.16005
     Eigenvalues ---    0.16011   0.16052   0.16126   0.19144   0.21961
     Eigenvalues ---    0.22004   0.22247   0.23227   0.23405   0.24401
     Eigenvalues ---    0.25006   0.25341   0.28273   0.29768   0.32780
     Eigenvalues ---    0.33385   0.33562   0.33834   0.34639   0.35128
     Eigenvalues ---    0.35144   0.35251   0.35357   0.35553   0.35781
     Eigenvalues ---    0.36452   0.40724   0.41537   0.42617   0.43793
     Eigenvalues ---    0.44756   0.46452   0.48889   0.51294   0.58596
     Eigenvalues ---    0.61844   0.63096   0.70257   0.95170
 En-DIIS/RFO-DIIS/Sim-DIIS IScMMF=       -3 using points:     8    7    6    5    4    3    2
 RFO step:  Lambda=-4.95741968D-07.
 DidBck=F Rises=F RFO-DIIS coefs:    1.31407   -0.22764   -0.24598    0.06221    0.04656
                  RFO-DIIS coefs:    0.07036   -0.01958
 Iteration  1 RMS(Cart)=  0.00142003 RMS(Int)=  0.00000182
 Iteration  2 RMS(Cart)=  0.00000122 RMS(Int)=  0.00000174
 Iteration  3 RMS(Cart)=  0.00000000 RMS(Int)=  0.00000174
 Variable       Old X    -DE/DX   Delta X   Delta X   Delta X     New X
                                 (Linear)    (Quad)   (Total)
    R1        2.29838  -0.00016  -0.00015  -0.00007  -0.00022   2.29816
    R2        2.70933  -0.00002  -0.00009   0.00003  -0.00006   2.70927
    R3        2.62686   0.00015   0.00038   0.00015   0.00053   2.62740
    R4        2.49989   0.00009   0.00019   0.00007   0.00026   2.50015
    R5        2.08011  -0.00002   0.00005  -0.00013  -0.00009   2.08003
    R6        2.47125  -0.00003  -0.00004   0.00004  -0.00000   2.47124
    R7        2.72365   0.00002  -0.00002   0.00011   0.00009   2.72374
    R8        2.09002  -0.00000   0.00010  -0.00013  -0.00003   2.08999
    R9        2.67169  -0.00004  -0.00014   0.00002  -0.00012   2.67157
   R10        2.67561   0.00002   0.00010  -0.00005   0.00005   2.67566
   R11        2.61870   0.00004  -0.00002   0.00012   0.00009   2.61879
   R12        2.06287   0.00002   0.00023  -0.00016   0.00007   2.06294
   R13        2.64586  -0.00002   0.00010  -0.00016  -0.00006   2.64580
   R14        2.06480   0.00001   0.00017  -0.00013   0.00004   2.06484
   R15        2.52013   0.00004   0.00006   0.00002   0.00008   2.52021
   R16        2.07006   0.00001   0.00009  -0.00005   0.00004   2.07010
   R17        2.50937  -0.00003  -0.00000  -0.00005  -0.00006   2.50931
   R18        2.07416   0.00002   0.00015  -0.00008   0.00007   2.07422
   R19        2.65190  -0.00012   0.00007  -0.00036  -0.00029   2.65161
   R20        2.86393  -0.00000   0.00022  -0.00019   0.00003   2.86395
   R21        2.08518   0.00002  -0.00001   0.00004   0.00002   2.08521
   R22        2.08512   0.00001  -0.00001   0.00010   0.00009   2.08521
   R23        2.07739   0.00002   0.00014  -0.00007   0.00007   2.07747
   R24        2.07845   0.00002   0.00027  -0.00018   0.00009   2.07854
   R25        2.07739   0.00002   0.00017  -0.00010   0.00008   2.07747
    A1        2.27281   0.00006   0.00023   0.00010   0.00034   2.27315
    A2        2.08152   0.00007   0.00020   0.00002   0.00024   2.08175
    A3        1.92885  -0.00013  -0.00046  -0.00012  -0.00057   1.92828
    A4        2.10155  -0.00004   0.00018  -0.00030  -0.00012   2.10143
    A5        2.04858   0.00003  -0.00006   0.00023   0.00017   2.04876
    A6        2.13306   0.00001  -0.00012   0.00007  -0.00005   2.13300
    A7        2.16031  -0.00012  -0.00061  -0.00001  -0.00061   2.15970
    A8        2.11373  -0.00003  -0.00010   0.00004  -0.00006   2.11366
    A9        2.11914   0.00002  -0.00005   0.00004  -0.00000   2.11914
   A10        2.05032   0.00001   0.00014  -0.00008   0.00007   2.05038
   A11        2.13684   0.00003   0.00004   0.00015   0.00019   2.13703
   A12        2.12952  -0.00004  -0.00007  -0.00013  -0.00020   2.12932
   A13        2.01683   0.00001   0.00003  -0.00002   0.00001   2.01684
   A14        2.08543  -0.00000   0.00001  -0.00001  -0.00000   2.08543
   A15        2.05542   0.00002   0.00010   0.00006   0.00017   2.05558
   A16        2.14234  -0.00002  -0.00011  -0.00005  -0.00016   2.14218
   A17        2.08463  -0.00001  -0.00003   0.00001  -0.00001   2.08462
   A18        2.10590  -0.00001  -0.00013   0.00001  -0.00012   2.10578
   A19        2.09265   0.00002   0.00016  -0.00002   0.00013   2.09279
   A20        2.13515   0.00001   0.00006  -0.00004   0.00002   2.13517
   A21        2.10696  -0.00001  -0.00002  -0.00006  -0.00007   2.10688
   A22        2.04108   0.00001  -0.00005   0.00010   0.00005   2.04113
   A23        2.06093  -0.00001  -0.00012   0.00008  -0.00005   2.06088
   A24        2.18340   0.00000   0.00005  -0.00002   0.00003   2.18343
   A25        2.06792  -0.00002  -0.00013  -0.00006  -0.00019   2.06773
   A26        2.03187   0.00002   0.00008   0.00009   0.00016   2.03203
   A27        2.00805   0.00000   0.00040  -0.00035   0.00005   2.00810
   A28        1.88140  -0.00002   0.00001  -0.00009  -0.00008   1.88131
   A29        1.92636   0.00001   0.00004  -0.00005  -0.00001   1.92634
   A30        1.92618   0.00002   0.00006   0.00013   0.00019   1.92638
   A31        1.94200  -0.00001   0.00001  -0.00007  -0.00006   1.94194
   A32        1.94214  -0.00001  -0.00018   0.00003  -0.00016   1.94198
   A33        1.84641   0.00001   0.00007   0.00006   0.00013   1.84654
   A34        1.92480   0.00001  -0.00005   0.00010   0.00005   1.92486
   A35        1.93638   0.00002   0.00009   0.00006   0.00015   1.93653
   A36        1.92497  -0.00001  -0.00009   0.00002  -0.00007   1.92490
   A37        1.89702  -0.00001   0.00001  -0.00006  -0.00005   1.89697
   A38        1.88244  -0.00000   0.00004  -0.00007  -0.00003   1.88241
   A39        1.89703  -0.00001  -0.00000  -0.00005  -0.00006   1.89697
    D1       -0.00055   0.00001   0.00031   0.00014   0.00045  -0.00010
    D2        3.14109   0.00001   0.00026   0.00016   0.00042   3.14151
    D3        3.14107   0.00001   0.00036   0.00010   0.00046   3.14153
    D4       -0.00048   0.00001   0.00032   0.00011   0.00043  -0.00005
    D5       -0.00029  -0.00000   0.00041  -0.00009   0.00032   0.00003
    D6        3.14129  -0.00000   0.00036  -0.00005   0.00030   3.14159
    D7        3.14152   0.00000  -0.00004   0.00018   0.00014  -3.14152
    D8       -0.00012   0.00000   0.00001   0.00016   0.00018   0.00006
    D9        3.14152   0.00000  -0.00004   0.00015   0.00010  -3.14156
   D10       -0.00006   0.00000  -0.00008   0.00018   0.00010   0.00004
   D11       -0.00003   0.00000   0.00005   0.00000   0.00005   0.00002
   D12        3.14157   0.00000   0.00006  -0.00000   0.00005  -3.14157
   D13        3.14154   0.00000   0.00008  -0.00003   0.00005  -3.14159
   D14       -0.00004   0.00000   0.00009  -0.00003   0.00005   0.00001
   D15       -3.14158  -0.00000   0.00002  -0.00002  -0.00001  -3.14158
   D16        0.00002  -0.00000   0.00000  -0.00001  -0.00001   0.00001
   D17        0.00001  -0.00000   0.00001  -0.00002  -0.00001  -0.00000
   D18       -3.14158  -0.00000  -0.00001  -0.00001  -0.00001   3.14159
   D19        3.14159   0.00000  -0.00001   0.00000  -0.00001   3.14158
   D20       -0.00001   0.00000   0.00000   0.00000   0.00000  -0.00001
   D21        0.00000  -0.00000   0.00000  -0.00001  -0.00000  -0.00000
   D22        3.14159   0.00000   0.00001  -0.00000   0.00001  -3.14159
   D23       -0.00001   0.00000  -0.00001   0.00003   0.00002   0.00001
   D24        3.14159   0.00000   0.00001  -0.00000   0.00001  -3.14159
   D25        3.14158   0.00000   0.00001   0.00002   0.00003  -3.14158
   D26       -0.00001   0.00000   0.00003  -0.00002   0.00001   0.00000
   D27        0.00001  -0.00000   0.00001  -0.00003  -0.00002  -0.00001
   D28       -3.14159  -0.00000  -0.00000  -0.00001  -0.00001   3.14158
   D29       -3.14159  -0.00000  -0.00001   0.00001  -0.00001   3.14159
   D30       -0.00001   0.00000  -0.00002   0.00003   0.00000  -0.00000
   D31       -0.00000   0.00000   0.00000   0.00001   0.00001   0.00001
   D32       -3.14159  -0.00000   0.00001  -0.00001  -0.00000  -3.14159
   D33       -0.00000   0.00000  -0.00000   0.00001   0.00000   0.00000
   D34       -3.14159  -0.00000  -0.00001   0.00001  -0.00001   3.14159
   D35       -3.13921  -0.00001  -0.00205  -0.00006  -0.00210  -3.14131
   D36        1.01978   0.00000  -0.00208   0.00012  -0.00197   1.01781
   D37       -1.01494  -0.00002  -0.00223  -0.00000  -0.00223  -1.01718
   D38       -1.03805   0.00001  -0.00046  -0.00000  -0.00046  -1.03851
   D39       -3.14089   0.00000  -0.00050  -0.00003  -0.00053  -3.14142
   D40        1.03932   0.00000  -0.00049  -0.00002  -0.00051   1.03881
   D41        1.07641  -0.00000  -0.00040  -0.00017  -0.00057   1.07585
   D42       -1.02643  -0.00001  -0.00044  -0.00019  -0.00064  -1.02707
   D43       -3.12940  -0.00000  -0.00044  -0.00018  -0.00062  -3.13002
   D44        3.13080  -0.00000  -0.00042  -0.00012  -0.00055   3.13025
   D45        1.02795  -0.00001  -0.00046  -0.00015  -0.00062   1.02734
   D46       -1.07502  -0.00000  -0.00046  -0.00014  -0.00060  -1.07561
         Item               Value     Threshold  Converged?
 Maximum Force            0.000157     0.000450     YES
 RMS     Force            0.000035     0.000300     YES
 Maximum Displacement     0.003996     0.001800     NO 
 RMS     Displacement     0.001420     0.001200     NO 
 Predicted change in Energy=-2.397971D-07
 GradGradGradGradGradGradGradGradGradGradGradGradGradGradGradGradGradGrad

                          Input orientation:                          
 ---------------------------------------------------------------------
 Center     Atomic      Atomic             Coordinates (Angstroms)
 Number     Number       Type             X           Y           Z
 ---------------------------------------------------------------------
      1          8           0        2.422248   -1.395060    0.428385
      2          6           0        2.402033   -0.234339    0.066038
      3          6           0        1.292451    0.634601   -0.197066
      4          7           0        0.051697    0.198905   -0.051866
      5          6           0       -1.006909    0.933970   -0.273635
      6          6           0       -2.334175    0.400401   -0.097196
      7          6           0       -2.567439   -0.930055    0.320077
      8          6           0       -3.869729   -1.379502    0.470047
      9          6           0       -4.933213   -0.508076    0.205685
     10          7           0       -4.742201    0.751390   -0.189102
     11          6           0       -3.493221    1.179057   -0.331871
     12          8           0        3.603311    0.431270   -0.150740
     13          6           0        4.756663   -0.333966    0.079657
     14          6           0        5.959119    0.544119   -0.203059
     15          1           0        1.519498    1.662207   -0.519599
     16          1           0       -0.919499    1.986162   -0.602918
     17          1           0       -1.698769   -1.562943    0.511357
     18          1           0       -4.071906   -2.404041    0.791542
     19          1           0       -5.970726   -0.841378    0.317420
     20          1           0       -3.367414    2.219602   -0.657805
     21          1           0        4.756730   -1.231465   -0.562281
     22          1           0        4.768926   -0.707260    1.117970
     23          1           0        5.936861    0.897345   -1.243876
     24          1           0        6.896397   -0.007311   -0.037989
     25          1           0        5.949388    1.426488    0.452606
 ---------------------------------------------------------------------
                    Distance matrix (angstroms):
                    1          2          3          4          5
     1  O    0.000000
     2  C    1.216133   0.000000
     3  C    2.405651   1.433685   0.000000
     4  N    2.896702   2.392840   1.323021   0.000000
     5  C    4.204323   3.619559   2.320031   1.307726   0.000000
     6  C    5.111114   4.781340   3.635553   2.394795   1.441341
     7  C    5.012478   5.024362   4.196944   2.876242   2.502466
     8  C    6.292135   6.388241   5.581197   4.259266   3.755123
     9  C    7.412094   7.341680   6.342461   5.041376   4.210119
    10  N    7.504524   7.216429   6.035788   4.827581   3.740707
    11  C    6.495910   6.075363   4.818429   3.688569   2.499041
    12  O    2.250728   1.390358   2.320250   3.560580   4.639174
    13  C    2.587861   2.356776   3.607695   4.736872   5.911957
    14  C    4.082718   3.651200   4.667548   5.919431   6.977285
    15  H    3.325735   2.172262   1.100704   2.124727   2.640749
    16  H    4.864517   4.051012   2.623768   2.107408   1.105973
    17  H    4.125270   4.333598   3.778685   2.546656   2.707296
    18  H    6.582095   6.866284   6.243959   4.948815   4.655226
    19  H    8.411949   8.398499   7.429465   6.122755   5.304779
    20  H    6.911280   6.311283   4.943567   4.017549   2.715220
    21  H    2.541257   2.633181   3.951811   4.944069   6.163762
    22  H    2.540766   2.632945   3.951682   4.943875   6.163641
    23  H    4.517087   3.935935   4.768164   6.045152   7.011323
    24  H    4.707585   4.501296   5.642833   6.847819   7.962649
    25  H    4.516905   3.935924   4.768251   6.045180   7.011424
                    6          7          8          9         10
     6  C    0.000000
     7  C    1.413733   0.000000
     8  C    2.418210   1.385804   0.000000
     9  C    2.769848   2.405834   1.400096   0.000000
    10  N    2.435206   2.795731   2.395075   1.333640   0.000000
    11  C    1.415897   2.393838   2.707592   2.282314   1.327869
    12  O    5.937808   6.336642   7.714311   8.595443   8.351738
    13  C    7.130958   7.352251   8.698286   9.692259   9.564447
    14  C    8.295215   8.668855  10.037910  10.950665  10.703336
    15  H    4.076932   4.912019   6.266989   6.846432   6.336220
    16  H    2.184423   3.474471   4.602478   4.794263   4.038436
    17  H    2.151464   1.091661   2.179089   3.415817   3.887063
    18  H    3.416790   2.158317   1.092664   2.163276   3.371602
    19  H    3.865025   3.404443   2.174180   1.095449   2.074306
    20  H    2.165955   3.393605   3.804986   3.261529   2.065278
    21  H    7.291106   7.383282   8.689270   9.747207   9.710853
    22  H    7.290925   7.382989   8.688963   9.746970   9.710697
    23  H    8.364919   8.837899  10.212285  11.055990  10.732018
    24  H    9.239762   9.515453  10.865103  11.842711  11.664280
    25  H    8.364960   8.837827  10.212195  11.055971  10.732084
                   11         12         13         14         15
    11  C    0.000000
    12  O    7.138119   0.000000
    13  C    8.397569   1.403172   0.000000
    14  C    9.474516   2.359089   1.515540   0.000000
    15  H    5.039446   2.448170   3.850071   4.589178   0.000000
    16  H    2.710891   4.803953   6.169904   7.039514   2.461827
    17  H    3.383733   5.703271   6.585540   7.974543   4.671370
    18  H    3.799411   8.236252   9.095912  10.502492   7.036850
    19  H    3.262172   9.669590  10.742014  12.021301   7.941787
    20  H    1.097632   7.214308   8.547817   9.486741   4.920538
    21  H    8.597987   2.065050   1.103445   2.174276   4.342215
    22  H    8.597866   2.065075   1.103446   2.174310   4.342210
    23  H    9.478267   2.618707   2.158873   1.099347   4.541221
    24  H   10.461261   3.324076   2.167719   1.099915   5.650689
    25  H    9.478369   2.618885   2.158907   1.099348   4.541439
                   16         17         18         19         20
    16  H    0.000000
    17  H    3.800660   0.000000
    18  H    5.581763   2.533324   0.000000
    19  H    5.861476   4.336806   2.504440   0.000000
    20  H    2.459633   4.296390   4.896427   4.134960   0.000000
    21  H    6.524902   6.552560   9.008473  10.770531   8.827270
    22  H    6.524888   6.552194   9.008104  10.770282   8.827227
    23  H    6.971801   8.211984  10.733941  12.134719   9.416016
    24  H    8.085871   8.752065  11.257713  12.899024  10.520890
    25  H    6.972013   8.211847  10.733786  12.134685   9.416200
                   21         22         23         24         25
    21  H    0.000000
    22  H    1.760166   0.000000
    23  H    2.527669   3.084987   0.000000
    24  H    2.520240   2.520377   1.786974   0.000000
    25  H    3.084987   2.527663   1.777132   1.786977   0.000000
 Stoichiometry    C10H11N2O2(1-)
 Framework group  C1[X(C10H11N2O2)]
 Deg. of freedom    69
 Full point group                 C1      NOp   1
 Largest Abelian subgroup         C1      NOp   1
 Largest concise Abelian subgroup C1      NOp   1
                         Standard orientation:                         
 ---------------------------------------------------------------------
 Center     Atomic      Atomic             Coordinates (Angstroms)
 Number     Number       Type             X           Y           Z
 ---------------------------------------------------------------------
      1          8           0       -2.339443    1.509885   -0.000034
      2          6           0       -2.335060    0.293761   -0.000041
      3          6           0       -1.237364   -0.628473    0.000033
      4          7           0        0.009294   -0.185495    0.000015
      5          6           0        1.057841   -0.966967   -0.000004
      6          6           0        2.392344   -0.422389    0.000011
      7          6           0        2.643747    0.968812    0.000065
      8          6           0        3.952127    1.425534    0.000066
      9          6           0        5.003690    0.501152    0.000006
     10          7           0        4.795506   -0.816138   -0.000043
     11          6           0        3.540731   -1.250621   -0.000039
     12          8           0       -3.545379   -0.390508   -0.000087
     13          6           0       -4.688258    0.423566   -0.000159
     14          6           0       -5.902649   -0.483140    0.000201
     15          1           0       -1.478418   -1.702458    0.000091
     16          1           0        0.956082   -2.068249   -0.000045
     17          1           0        1.783737    1.641199    0.000102
     18          1           0        4.168272    2.496607    0.000108
     19          1           0        6.045717    0.839071   -0.000002
     20          1           0        3.400735   -2.339288   -0.000085
     21          1           0       -4.685861    1.088926   -0.880432
     22          1           0       -4.685656    1.089431    0.879733
     23          1           0       -5.895076   -1.130725   -0.888135
     24          1           0       -6.832379    0.104581   -0.000014
     25          1           0       -5.895081   -1.130093    0.888998
 ---------------------------------------------------------------------
 Rotational constants (GHZ):           3.1442170           0.2091285           0.1965673
 Standard basis: def2SVP (5D, 7F)
 There are   265 symmetry adapted cartesian basis functions of A   symmetry.
 There are   251 symmetry adapted basis functions of A   symmetry.
   251 basis functions,   427 primitive gaussians,   265 cartesian basis functions
    51 alpha electrons       51 beta electrons
       nuclear repulsion energy       781.5497465125 Hartrees.
 NAtoms=   25 NActive=   25 NUniq=   25 SFac= 1.00D+00 NAtFMM=   60 NAOKFM=F Big=F
 Integral buffers will be    131072 words long.
 Raffenetti 2 integral format.
 Two-electron integral symmetry is turned on.
 Nuclear repulsion after empirical dispersion term =      781.5489055436 Hartrees.
 One-electron integrals computed using PRISM.
   1 Symmetry operations used in ECPInt.
 ECPInt:  NShTT=    6903 NPrTT=   25191 LenC2=    5987 LenP2D=   15645.
 LDataN:  DoStor=T MaxTD1= 4 Len=   56
 NBasis=   251 RedAO= T EigKep=  6.85D-04  NBF=   251
 NBsUse=   251 1.00D-06 EigRej= -1.00D+00 NBFU=   251
 Initial guess from the checkpoint file:  "A12_crest_conformers_censo-1.chk"
 B after Tr=     0.000000    0.000000   -0.000000
         Rot=    1.000000   -0.000034    0.000002    0.000015 Ang=  -0.00 deg.
 Requested convergence on RMS density matrix=1.00D-08 within 128 cycles.
 Requested convergence on MAX density matrix=1.00D-06.
 Requested convergence on             energy=1.00D-06.
 No special actions if energy rises.
 SCF Done:  E(RM062X) =  -646.915863649     A.U. after    8 cycles
            NFock=  8  Conv=0.69D-08     -V/T= 2.0096
   1 Symmetry operations used in ECPInt.
 ECPInt:  NShTT=    6903 NPrTT=   25191 LenC2=    5987 LenP2D=   15645.
 LDataN:  DoStor=T MaxTD1= 5 Len=  102
 Calling FoFJK, ICntrl=      2127 FMM=F ISym2X=0 I1Cent= 0 IOpClX= 0 NMat=1 NMatS=1 NMatT=0.
 ***** Axes restored to original set *****
 -------------------------------------------------------------------
 Center     Atomic                   Forces (Hartrees/Bohr)
 Number     Number              X              Y              Z
 -------------------------------------------------------------------
      1        8           0.000032353    0.000046342   -0.000018374
      2        6          -0.000075015   -0.000063051    0.000027301
      3        6           0.000032034    0.000031511   -0.000012218
      4        7          -0.000025541   -0.000018564    0.000005826
      5        6           0.000012223    0.000009667   -0.000001937
      6        6           0.000006979   -0.000031941    0.000008144
      7        6           0.000032032    0.000017484   -0.000005126
      8        6          -0.000027158    0.000000528   -0.000000816
      9        6           0.000009713   -0.000022510    0.000007681
     10        7           0.000019882    0.000020108   -0.000006729
     11        6          -0.000031315    0.000002420   -0.000000373
     12        8           0.000058332    0.000003926    0.000001827
     13        6          -0.000052867    0.000034528   -0.000011136
     14        6           0.000008562   -0.000013897    0.000002967
     15        1          -0.000008027   -0.000006686   -0.000000267
     16        1          -0.000007504   -0.000001743    0.000001855
     17        1          -0.000004862   -0.000002995    0.000001080
     18        1           0.000003905    0.000000201   -0.000000141
     19        1           0.000001468   -0.000000664    0.000000374
     20        1          -0.000000719   -0.000003161    0.000001182
     21        1           0.000009544   -0.000011322    0.000000088
     22        1           0.000008161   -0.000004863    0.000002839
     23        1           0.000001101    0.000003953    0.000001194
     24        1          -0.000002134    0.000009028   -0.000002035
     25        1          -0.000001147    0.000001701   -0.000003205
 -------------------------------------------------------------------
 Cartesian Forces:  Max     0.000075015 RMS     0.000020505

 GradGradGradGradGradGradGradGradGradGradGradGradGradGradGradGradGradGrad
 Berny optimization.
 Using GEDIIS/GDIIS optimizer.
 FormGI is forming the generalized inverse of G from B-inverse, IUseBI=4.
 Internal  Forces:  Max     0.000048370 RMS     0.000010297
 Search for a local minimum.
 Step number   9 out of a maximum of  120
 All quantities printed in internal units (Hartrees-Bohrs-Radians)
 Mixed Optimization -- En-DIIS/RFO-DIIS
 Swapping is turned off.
 Update second derivatives using D2CorX and points    1    2    3    4    5
                                                      6    7    8    9
 DE= -2.98D-07 DEPred=-2.40D-07 R= 1.24D+00
 Trust test= 1.24D+00 RLast= 4.37D-03 DXMaxT set to 2.73D-01
 ITU=  0  1  1  1  1 -1  1  1  0
     Eigenvalues ---    0.00290   0.00494   0.01578   0.01864   0.01929
     Eigenvalues ---    0.01957   0.02024   0.02167   0.02231   0.02251
     Eigenvalues ---    0.02270   0.02282   0.02298   0.02369   0.02583
     Eigenvalues ---    0.02793   0.02973   0.05319   0.05634   0.05733
     Eigenvalues ---    0.05807   0.07240   0.10762   0.13621   0.14976
     Eigenvalues ---    0.15028   0.15995   0.16000   0.16001   0.16006
     Eigenvalues ---    0.16019   0.16078   0.16160   0.18743   0.21319
     Eigenvalues ---    0.22010   0.22204   0.22488   0.23416   0.23691
     Eigenvalues ---    0.25006   0.25434   0.27922   0.30171   0.33033
     Eigenvalues ---    0.33376   0.33577   0.33830   0.34582   0.35124
     Eigenvalues ---    0.35145   0.35270   0.35513   0.35563   0.35882
     Eigenvalues ---    0.37278   0.39269   0.41220   0.42716   0.43735
     Eigenvalues ---    0.44728   0.46463   0.48853   0.53508   0.58622
     Eigenvalues ---    0.61489   0.63266   0.70443   0.92646
 En-DIIS/RFO-DIIS/Sim-DIIS IScMMF=       -3 using points:     9    8    7    6    5    4    3    2
 RFO step:  Lambda=-4.28874755D-08.
 DIIS inversion failure, remove point   8.
 DIIS inversion failure, remove point   7.
 DIIS inversion failure, remove point   6.
 RFO-DIIS uses    5 points instead of    8
 DidBck=F Rises=F RFO-DIIS coefs:    1.13106   -0.07178   -0.06475    0.00551   -0.00005
                  RFO-DIIS coefs:    0.00000    0.00000    0.00000
 Iteration  1 RMS(Cart)=  0.00031868 RMS(Int)=  0.00000005
 Iteration  2 RMS(Cart)=  0.00000007 RMS(Int)=  0.00000000
 Variable       Old X    -DE/DX   Delta X   Delta X   Delta X     New X
                                 (Linear)    (Quad)   (Total)
    R1        2.29816  -0.00005  -0.00005  -0.00001  -0.00007   2.29809
    R2        2.70927  -0.00000   0.00001  -0.00003  -0.00002   2.70926
    R3        2.62740   0.00003   0.00011   0.00004   0.00015   2.62755
    R4        2.50015   0.00002   0.00007  -0.00001   0.00006   2.50021
    R5        2.08003  -0.00001  -0.00002  -0.00001  -0.00003   2.08000
    R6        2.47124  -0.00001   0.00001  -0.00002  -0.00001   2.47124
    R7        2.72374  -0.00001   0.00003  -0.00003  -0.00000   2.72374
    R8        2.08999  -0.00000  -0.00001   0.00000  -0.00001   2.08998
    R9        2.67157  -0.00002  -0.00003  -0.00001  -0.00005   2.67152
   R10        2.67566   0.00001   0.00001   0.00003   0.00004   2.67570
   R11        2.61879   0.00002   0.00001   0.00003   0.00004   2.61883
   R12        2.06294  -0.00000   0.00002  -0.00001   0.00000   2.06294
   R13        2.64580  -0.00001  -0.00001  -0.00001  -0.00003   2.64577
   R14        2.06484  -0.00000   0.00001  -0.00001  -0.00000   2.06484
   R15        2.52021   0.00001   0.00001   0.00002   0.00003   2.52024
   R16        2.07010  -0.00000   0.00001  -0.00001   0.00000   2.07010
   R17        2.50931  -0.00002  -0.00001  -0.00003  -0.00004   2.50927
   R18        2.07422  -0.00000   0.00001  -0.00001   0.00000   2.07423
   R19        2.65161  -0.00003  -0.00003  -0.00004  -0.00007   2.65154
   R20        2.86395   0.00000   0.00002   0.00000   0.00002   2.86397
   R21        2.08521   0.00001  -0.00000   0.00002   0.00002   2.08523
   R22        2.08521   0.00001   0.00002   0.00001   0.00002   2.08524
   R23        2.07747  -0.00000   0.00002  -0.00001   0.00001   2.07747
   R24        2.07854  -0.00001   0.00003  -0.00003  -0.00000   2.07854
   R25        2.07747  -0.00000   0.00002  -0.00002   0.00001   2.07747
    A1        2.27315   0.00003   0.00003   0.00011   0.00014   2.27329
    A2        2.08175  -0.00004   0.00006  -0.00018  -0.00011   2.08164
    A3        1.92828   0.00001  -0.00009   0.00007  -0.00002   1.92826
    A4        2.10143  -0.00001  -0.00002  -0.00004  -0.00006   2.10137
    A5        2.04876   0.00001   0.00003   0.00005   0.00008   2.04883
    A6        2.13300   0.00000  -0.00001  -0.00001  -0.00002   2.13299
    A7        2.15970  -0.00001  -0.00009  -0.00000  -0.00010   2.15960
    A8        2.11366  -0.00001  -0.00001  -0.00003  -0.00003   2.11363
    A9        2.11914   0.00001  -0.00001   0.00006   0.00005   2.11919
   A10        2.05038  -0.00000   0.00001  -0.00003  -0.00002   2.05037
   A11        2.13703   0.00000   0.00003   0.00000   0.00004   2.13706
   A12        2.12932  -0.00001  -0.00003  -0.00002  -0.00006   2.12927
   A13        2.01684   0.00001  -0.00000   0.00002   0.00002   2.01686
   A14        2.08543  -0.00001  -0.00000  -0.00003  -0.00003   2.08540
   A15        2.05558   0.00001   0.00003   0.00004   0.00006   2.05565
   A16        2.14218  -0.00000  -0.00003  -0.00001  -0.00004   2.14214
   A17        2.08462   0.00000  -0.00000   0.00001   0.00001   2.08463
   A18        2.10578  -0.00000  -0.00003  -0.00000  -0.00003   2.10574
   A19        2.09279   0.00000   0.00003  -0.00001   0.00002   2.09281
   A20        2.13517   0.00000   0.00001  -0.00000   0.00001   2.13519
   A21        2.10688   0.00000  -0.00002   0.00002   0.00000   2.10688
   A22        2.04113  -0.00000   0.00001  -0.00002  -0.00001   2.04112
   A23        2.06088  -0.00000  -0.00002   0.00000  -0.00002   2.06086
   A24        2.18343   0.00000   0.00002  -0.00001   0.00001   2.18344
   A25        2.06773  -0.00000  -0.00005   0.00003  -0.00002   2.06770
   A26        2.03203  -0.00000   0.00003  -0.00002   0.00002   2.03205
   A27        2.00810  -0.00003   0.00011  -0.00016  -0.00005   2.00805
   A28        1.88131   0.00001   0.00001   0.00005   0.00005   1.88137
   A29        1.92634   0.00001   0.00000   0.00009   0.00009   1.92643
   A30        1.92638   0.00000   0.00003   0.00003   0.00006   1.92644
   A31        1.94194  -0.00001   0.00000  -0.00004  -0.00004   1.94189
   A32        1.94198  -0.00001  -0.00004  -0.00005  -0.00010   1.94189
   A33        1.84654  -0.00000   0.00001  -0.00007  -0.00007   1.84647
   A34        1.92486   0.00000  -0.00000   0.00002   0.00002   1.92487
   A35        1.93653   0.00001   0.00006   0.00000   0.00006   1.93659
   A36        1.92490  -0.00000  -0.00001  -0.00002  -0.00002   1.92488
   A37        1.89697  -0.00000  -0.00002   0.00001  -0.00001   1.89696
   A38        1.88241  -0.00000  -0.00001  -0.00002  -0.00003   1.88237
   A39        1.89697  -0.00000  -0.00002   0.00000  -0.00002   1.89696
    D1       -0.00010   0.00000   0.00007   0.00006   0.00012   0.00002
    D2        3.14151   0.00000   0.00006   0.00005   0.00010  -3.14157
    D3        3.14153  -0.00000   0.00012  -0.00003   0.00009  -3.14157
    D4       -0.00005  -0.00000   0.00011  -0.00004   0.00007   0.00002
    D5        0.00003  -0.00000   0.00011  -0.00010   0.00001   0.00004
    D6        3.14159   0.00000   0.00006  -0.00002   0.00004  -3.14156
    D7       -3.14152  -0.00000   0.00001  -0.00010  -0.00009   3.14158
    D8        0.00006  -0.00000   0.00002  -0.00009  -0.00007  -0.00001
    D9       -3.14156  -0.00000   0.00000  -0.00006  -0.00005   3.14157
   D10        0.00004  -0.00000   0.00000  -0.00007  -0.00007  -0.00003
   D11        0.00002  -0.00000   0.00000  -0.00001  -0.00001   0.00001
   D12       -3.14157  -0.00000   0.00001  -0.00003  -0.00002  -3.14159
   D13       -3.14159   0.00000   0.00000   0.00001   0.00001  -3.14158
   D14        0.00001  -0.00000   0.00001  -0.00001  -0.00000   0.00001
   D15       -3.14158  -0.00000   0.00000  -0.00001  -0.00001  -3.14159
   D16        0.00001  -0.00000   0.00000  -0.00001  -0.00001  -0.00000
   D17       -0.00000   0.00000  -0.00000   0.00001   0.00001   0.00000
   D18        3.14159   0.00000  -0.00001   0.00001   0.00000  -3.14159
   D19        3.14158   0.00000  -0.00000   0.00002   0.00001  -3.14159
   D20       -0.00001   0.00000  -0.00000   0.00001   0.00001  -0.00000
   D21       -0.00000   0.00000   0.00000  -0.00000   0.00000  -0.00000
   D22       -3.14159  -0.00000   0.00001  -0.00001  -0.00001   3.14159
   D23        0.00001  -0.00000   0.00000  -0.00001  -0.00001  -0.00000
   D24       -3.14159  -0.00000   0.00000  -0.00000  -0.00000   3.14159
   D25       -3.14158  -0.00000   0.00001  -0.00002  -0.00001   3.14159
   D26        0.00000  -0.00000   0.00000  -0.00000   0.00000   0.00000
   D27       -0.00001   0.00000  -0.00000   0.00001   0.00001   0.00000
   D28        3.14158   0.00000  -0.00000   0.00001   0.00001  -3.14159
   D29        3.14159   0.00000   0.00000   0.00000   0.00000   3.14159
   D30       -0.00000  -0.00000  -0.00000  -0.00000  -0.00000  -0.00000
   D31        0.00001  -0.00000   0.00000  -0.00001  -0.00001  -0.00000
   D32       -3.14159  -0.00000   0.00000  -0.00000  -0.00000  -3.14159
   D33        0.00000  -0.00000  -0.00000  -0.00000  -0.00000  -0.00000
   D34        3.14159   0.00000  -0.00000   0.00001   0.00001  -3.14159
   D35       -3.14131  -0.00000  -0.00055   0.00002  -0.00054   3.14133
   D36        1.01781  -0.00000  -0.00056  -0.00001  -0.00057   1.01724
   D37       -1.01718  -0.00000  -0.00058   0.00000  -0.00058  -1.01776
   D38       -1.03851  -0.00000  -0.00011  -0.00003  -0.00014  -1.03865
   D39       -3.14142  -0.00000  -0.00013  -0.00005  -0.00018   3.14159
   D40        1.03881  -0.00000  -0.00014  -0.00005  -0.00018   1.03863
   D41        1.07585   0.00001  -0.00011   0.00009  -0.00002   1.07583
   D42       -1.02707   0.00001  -0.00012   0.00006  -0.00006  -1.02713
   D43       -3.13002   0.00000  -0.00013   0.00007  -0.00006  -3.13008
   D44        3.13025  -0.00000  -0.00013  -0.00007  -0.00019   3.13006
   D45        1.02734  -0.00001  -0.00014  -0.00009  -0.00023   1.02711
   D46       -1.07561  -0.00001  -0.00015  -0.00009  -0.00024  -1.07585
         Item               Value     Threshold  Converged?
 Maximum Force            0.000048     0.000450     YES
 RMS     Force            0.000010     0.000300     YES
 Maximum Displacement     0.001368     0.001800     YES
 RMS     Displacement     0.000319     0.001200     YES
 Predicted change in Energy=-2.130827D-08
 Optimization completed.
    -- Stationary point found.
                           ----------------------------
                           !   Optimized Parameters   !
                           ! (Angstroms and Degrees)  !
 --------------------------                            --------------------------
 ! Name  Definition              Value          Derivative Info.                !
 --------------------------------------------------------------------------------
 ! R1    R(1,2)                  1.2161         -DE/DX =    0.0                 !
 ! R2    R(2,3)                  1.4337         -DE/DX =    0.0                 !
 ! R3    R(2,12)                 1.3904         -DE/DX =    0.0                 !
 ! R4    R(3,4)                  1.323          -DE/DX =    0.0                 !
 ! R5    R(3,15)                 1.1007         -DE/DX =    0.0                 !
 ! R6    R(4,5)                  1.3077         -DE/DX =    0.0                 !
 ! R7    R(5,6)                  1.4413         -DE/DX =    0.0                 !
 ! R8    R(5,16)                 1.106          -DE/DX =    0.0                 !
 ! R9    R(6,7)                  1.4137         -DE/DX =    0.0                 !
 ! R10   R(6,11)                 1.4159         -DE/DX =    0.0                 !
 ! R11   R(7,8)                  1.3858         -DE/DX =    0.0                 !
 ! R12   R(7,17)                 1.0917         -DE/DX =    0.0                 !
 ! R13   R(8,9)                  1.4001         -DE/DX =    0.0                 !
 ! R14   R(8,18)                 1.0927         -DE/DX =    0.0                 !
 ! R15   R(9,10)                 1.3336         -DE/DX =    0.0                 !
 ! R16   R(9,19)                 1.0954         -DE/DX =    0.0                 !
 ! R17   R(10,11)                1.3279         -DE/DX =    0.0                 !
 ! R18   R(11,20)                1.0976         -DE/DX =    0.0                 !
 ! R19   R(12,13)                1.4032         -DE/DX =    0.0                 !
 ! R20   R(13,14)                1.5155         -DE/DX =    0.0                 !
 ! R21   R(13,21)                1.1034         -DE/DX =    0.0                 !
 ! R22   R(13,22)                1.1034         -DE/DX =    0.0                 !
 ! R23   R(14,23)                1.0993         -DE/DX =    0.0                 !
 ! R24   R(14,24)                1.0999         -DE/DX =    0.0                 !
 ! R25   R(14,25)                1.0993         -DE/DX =    0.0                 !
 ! A1    A(1,2,3)              130.2419         -DE/DX =    0.0                 !
 ! A2    A(1,2,12)             119.2757         -DE/DX =    0.0                 !
 ! A3    A(3,2,12)             110.4824         -DE/DX =    0.0                 !
 ! A4    A(2,3,4)              120.4028         -DE/DX =    0.0                 !
 ! A5    A(2,3,15)             117.3851         -DE/DX =    0.0                 !
 ! A6    A(4,3,15)             122.2121         -DE/DX =    0.0                 !
 ! A7    A(3,4,5)              123.7414         -DE/DX =    0.0                 !
 ! A8    A(4,5,6)              121.104          -DE/DX =    0.0                 !
 ! A9    A(4,5,16)             121.4176         -DE/DX =    0.0                 !
 ! A10   A(6,5,16)             117.4784         -DE/DX =    0.0                 !
 ! A11   A(5,6,7)              122.4426         -DE/DX =    0.0                 !
 ! A12   A(5,6,11)             122.0012         -DE/DX =    0.0                 !
 ! A13   A(7,6,11)             115.5563         -DE/DX =    0.0                 !
 ! A14   A(6,7,8)              119.4862         -DE/DX =    0.0                 !
 ! A15   A(6,7,17)             117.7762         -DE/DX =    0.0                 !
 ! A16   A(8,7,17)             122.7376         -DE/DX =    0.0                 !
 ! A17   A(7,8,9)              119.44           -DE/DX =    0.0                 !
 ! A18   A(7,8,18)             120.652          -DE/DX =    0.0                 !
 ! A19   A(9,8,18)             119.908          -DE/DX =    0.0                 !
 ! A20   A(8,9,10)             122.3365         -DE/DX =    0.0                 !
 ! A21   A(8,9,19)             120.7154         -DE/DX =    0.0                 !
 ! A22   A(10,9,19)            116.9481         -DE/DX =    0.0                 !
 ! A23   A(9,10,11)            118.0798         -DE/DX =    0.0                 !
 ! A24   A(6,11,10)            125.1013         -DE/DX =    0.0                 !
 ! A25   A(6,11,20)            118.472          -DE/DX =    0.0                 !
 ! A26   A(10,11,20)           116.4268         -DE/DX =    0.0                 !
 ! A27   A(2,12,13)            115.0555         -DE/DX =    0.0                 !
 ! A28   A(12,13,14)           107.7914         -DE/DX =    0.0                 !
 ! A29   A(12,13,21)           110.3713         -DE/DX =    0.0                 !
 ! A30   A(12,13,22)           110.3733         -DE/DX =    0.0                 !
 ! A31   A(14,13,21)           111.2648         -DE/DX =    0.0                 !
 ! A32   A(14,13,22)           111.2675         -DE/DX =    0.0                 !
 ! A33   A(21,13,22)           105.7987         -DE/DX =    0.0                 !
 ! A34   A(13,14,23)           110.2862         -DE/DX =    0.0                 !
 ! A35   A(13,14,24)           110.955          -DE/DX =    0.0                 !
 ! A36   A(13,14,25)           110.2888         -DE/DX =    0.0                 !
 ! A37   A(23,14,24)           108.6884         -DE/DX =    0.0                 !
 ! A38   A(23,14,25)           107.8539         -DE/DX =    0.0                 !
 ! A39   A(24,14,25)           108.6886         -DE/DX =    0.0                 !
 ! D1    D(1,2,3,4)             -0.0056         -DE/DX =    0.0                 !
 ! D2    D(1,2,3,15)          -180.0048         -DE/DX =    0.0                 !
 ! D3    D(12,2,3,4)          -180.0036         -DE/DX =    0.0                 !
 ! D4    D(12,2,3,15)           -0.0027         -DE/DX =    0.0                 !
 ! D5    D(1,2,12,13)            0.0016         -DE/DX =    0.0                 !
 ! D6    D(3,2,12,13)         -180.0001         -DE/DX =    0.0                 !
 ! D7    D(2,3,4,5)            180.0044         -DE/DX =    0.0                 !
 ! D8    D(15,3,4,5)             0.0035         -DE/DX =    0.0                 !
 ! D9    D(3,4,5,6)            180.0016         -DE/DX =    0.0                 !
 ! D10   D(3,4,5,16)             0.0024         -DE/DX =    0.0                 !
 ! D11   D(4,5,6,7)              0.0009         -DE/DX =    0.0                 !
 ! D12   D(4,5,6,11)          -179.9985         -DE/DX =    0.0                 !
 ! D13   D(16,5,6,7)          -179.9999         -DE/DX =    0.0                 !
 ! D14   D(16,5,6,11)            0.0007         -DE/DX =    0.0                 !
 ! D15   D(5,6,7,8)           -179.9995         -DE/DX =    0.0                 !
 ! D16   D(5,6,7,17)             0.0004         -DE/DX =    0.0                 !
 ! D17   D(11,6,7,8)            -0.0001         -DE/DX =    0.0                 !
 ! D18   D(11,6,7,17)         -180.0002         -DE/DX =    0.0                 !
 ! D19   D(5,6,11,10)         -180.0007         -DE/DX =    0.0                 !
 ! D20   D(5,6,11,20)           -0.0004         -DE/DX =    0.0                 !
 ! D21   D(7,6,11,10)           -0.0002         -DE/DX =    0.0                 !
 ! D22   D(7,6,11,20)          180.0002         -DE/DX =    0.0                 !
 ! D23   D(6,7,8,9)              0.0004         -DE/DX =    0.0                 !
 ! D24   D(6,7,8,18)           180.0001         -DE/DX =    0.0                 !
 ! D25   D(17,7,8,9)           180.0005         -DE/DX =    0.0                 !
 ! D26   D(17,7,8,18)            0.0001         -DE/DX =    0.0                 !
 ! D27   D(7,8,9,10)            -0.0006         -DE/DX =    0.0                 !
 ! D28   D(7,8,9,19)          -180.0005         -DE/DX =    0.0                 !
 ! D29   D(18,8,9,10)          179.9998         -DE/DX =    0.0                 !
 ! D30   D(18,8,9,19)           -0.0001         -DE/DX =    0.0                 !
 ! D31   D(8,9,10,11)            0.0003         -DE/DX =    0.0                 !
 ! D32   D(19,9,10,11)        -179.9998         -DE/DX =    0.0                 !
 ! D33   D(9,10,11,6)            0.0001         -DE/DX =    0.0                 !
 ! D34   D(9,10,11,20)        -180.0003         -DE/DX =    0.0                 !
 ! D35   D(2,12,13,14)         180.016          -DE/DX =    0.0                 !
 ! D36   D(2,12,13,21)          58.3164         -DE/DX =    0.0                 !
 ! D37   D(2,12,13,22)         -58.28           -DE/DX =    0.0                 !
 ! D38   D(12,13,14,23)        -59.502          -DE/DX =    0.0                 !
 ! D39   D(12,13,14,24)        180.0098         -DE/DX =    0.0                 !
 ! D40   D(12,13,14,25)         59.5194         -DE/DX =    0.0                 !
 ! D41   D(21,13,14,23)         61.6415         -DE/DX =    0.0                 !
 ! D42   D(21,13,14,24)        -58.8467         -DE/DX =    0.0                 !
 ! D43   D(21,13,14,25)       -179.3371         -DE/DX =    0.0                 !
 ! D44   D(22,13,14,23)        179.3504         -DE/DX =    0.0                 !
 ! D45   D(22,13,14,24)         58.8622         -DE/DX =    0.0                 !
 ! D46   D(22,13,14,25)        -61.6282         -DE/DX =    0.0                 !
 --------------------------------------------------------------------------------
 GradGradGradGradGradGradGradGradGradGradGradGradGradGradGradGradGradGrad

                          Input orientation:                          
 ---------------------------------------------------------------------
 Center     Atomic      Atomic             Coordinates (Angstroms)
 Number     Number       Type             X           Y           Z
 ---------------------------------------------------------------------
      1          8           0        2.422248   -1.395060    0.428385
      2          6           0        2.402033   -0.234339    0.066038
      3          6           0        1.292451    0.634601   -0.197066
      4          7           0        0.051697    0.198905   -0.051866
      5          6           0       -1.006909    0.933970   -0.273635
      6          6           0       -2.334175    0.400401   -0.097196
      7          6           0       -2.567439   -0.930055    0.320077
      8          6           0       -3.869729   -1.379502    0.470047
      9          6           0       -4.933213   -0.508076    0.205685
     10          7           0       -4.742201    0.751390   -0.189102
     11          6           0       -3.493221    1.179057   -0.331871
     12          8           0        3.603311    0.431270   -0.150740
     13          6           0        4.756663   -0.333966    0.079657
     14          6           0        5.959119    0.544119   -0.203059
     15          1           0        1.519498    1.662207   -0.519599
     16          1           0       -0.919499    1.986162   -0.602918
     17          1           0       -1.698769   -1.562943    0.511357
     18          1           0       -4.071906   -2.404041    0.791542
     19          1           0       -5.970726   -0.841378    0.317420
     20          1           0       -3.367414    2.219602   -0.657805
     21          1           0        4.756730   -1.231465   -0.562281
     22          1           0        4.768926   -0.707260    1.117970
     23          1           0        5.936861    0.897345   -1.243876
     24          1           0        6.896397   -0.007311   -0.037989
     25          1           0        5.949388    1.426488    0.452606
 ---------------------------------------------------------------------
                    Distance matrix (angstroms):
                    1          2          3          4          5
     1  O    0.000000
     2  C    1.216133   0.000000
     3  C    2.405651   1.433685   0.000000
     4  N    2.896702   2.392840   1.323021   0.000000
     5  C    4.204323   3.619559   2.320031   1.307726   0.000000
     6  C    5.111114   4.781340   3.635553   2.394795   1.441341
     7  C    5.012478   5.024362   4.196944   2.876242   2.502466
     8  C    6.292135   6.388241   5.581197   4.259266   3.755123
     9  C    7.412094   7.341680   6.342461   5.041376   4.210119
    10  N    7.504524   7.216429   6.035788   4.827581   3.740707
    11  C    6.495910   6.075363   4.818429   3.688569   2.499041
    12  O    2.250728   1.390358   2.320250   3.560580   4.639174
    13  C    2.587861   2.356776   3.607695   4.736872   5.911957
    14  C    4.082718   3.651200   4.667548   5.919431   6.977285
    15  H    3.325735   2.172262   1.100704   2.124727   2.640749
    16  H    4.864517   4.051012   2.623768   2.107408   1.105973
    17  H    4.125270   4.333598   3.778685   2.546656   2.707296
    18  H    6.582095   6.866284   6.243959   4.948815   4.655226
    19  H    8.411949   8.398499   7.429465   6.122755   5.304779
    20  H    6.911280   6.311283   4.943567   4.017549   2.715220
    21  H    2.541257   2.633181   3.951811   4.944069   6.163762
    22  H    2.540766   2.632945   3.951682   4.943875   6.163641
    23  H    4.517087   3.935935   4.768164   6.045152   7.011323
    24  H    4.707585   4.501296   5.642833   6.847819   7.962649
    25  H    4.516905   3.935924   4.768251   6.045180   7.011424
                    6          7          8          9         10
     6  C    0.000000
     7  C    1.413733   0.000000
     8  C    2.418210   1.385804   0.000000
     9  C    2.769848   2.405834   1.400096   0.000000
    10  N    2.435206   2.795731   2.395075   1.333640   0.000000
    11  C    1.415897   2.393838   2.707592   2.282314   1.327869
    12  O    5.937808   6.336642   7.714311   8.595443   8.351738
    13  C    7.130958   7.352251   8.698286   9.692259   9.564447
    14  C    8.295215   8.668855  10.037910  10.950665  10.703336
    15  H    4.076932   4.912019   6.266989   6.846432   6.336220
    16  H    2.184423   3.474471   4.602478   4.794263   4.038436
    17  H    2.151464   1.091661   2.179089   3.415817   3.887063
    18  H    3.416790   2.158317   1.092664   2.163276   3.371602
    19  H    3.865025   3.404443   2.174180   1.095449   2.074306
    20  H    2.165955   3.393605   3.804986   3.261529   2.065278
    21  H    7.291106   7.383282   8.689270   9.747207   9.710853
    22  H    7.290925   7.382989   8.688963   9.746970   9.710697
    23  H    8.364919   8.837899  10.212285  11.055990  10.732018
    24  H    9.239762   9.515453  10.865103  11.842711  11.664280
    25  H    8.364960   8.837827  10.212195  11.055971  10.732084
                   11         12         13         14         15
    11  C    0.000000
    12  O    7.138119   0.000000
    13  C    8.397569   1.403172   0.000000
    14  C    9.474516   2.359089   1.515540   0.000000
    15  H    5.039446   2.448170   3.850071   4.589178   0.000000
    16  H    2.710891   4.803953   6.169904   7.039514   2.461827
    17  H    3.383733   5.703271   6.585540   7.974543   4.671370
    18  H    3.799411   8.236252   9.095912  10.502492   7.036850
    19  H    3.262172   9.669590  10.742014  12.021301   7.941787
    20  H    1.097632   7.214308   8.547817   9.486741   4.920538
    21  H    8.597987   2.065050   1.103445   2.174276   4.342215
    22  H    8.597866   2.065075   1.103446   2.174310   4.342210
    23  H    9.478267   2.618707   2.158873   1.099347   4.541221
    24  H   10.461261   3.324076   2.167719   1.099915   5.650689
    25  H    9.478369   2.618885   2.158907   1.099348   4.541439
                   16         17         18         19         20
    16  H    0.000000
    17  H    3.800660   0.000000
    18  H    5.581763   2.533324   0.000000
    19  H    5.861476   4.336806   2.504440   0.000000
    20  H    2.459633   4.296390   4.896427   4.134960   0.000000
    21  H    6.524902   6.552560   9.008473  10.770531   8.827270
    22  H    6.524888   6.552194   9.008104  10.770282   8.827227
    23  H    6.971801   8.211984  10.733941  12.134719   9.416016
    24  H    8.085871   8.752065  11.257713  12.899024  10.520890
    25  H    6.972013   8.211847  10.733786  12.134685   9.416200
                   21         22         23         24         25
    21  H    0.000000
    22  H    1.760166   0.000000
    23  H    2.527669   3.084987   0.000000
    24  H    2.520240   2.520377   1.786974   0.000000
    25  H    3.084987   2.527663   1.777132   1.786977   0.000000
 Stoichiometry    C10H11N2O2(1-)
 Framework group  C1[X(C10H11N2O2)]
 Deg. of freedom    69
 Full point group                 C1      NOp   1
 Largest Abelian subgroup         C1      NOp   1
 Largest concise Abelian subgroup C1      NOp   1
                         Standard orientation:                         
 ---------------------------------------------------------------------
 Center     Atomic      Atomic             Coordinates (Angstroms)
 Number     Number       Type             X           Y           Z
 ---------------------------------------------------------------------
      1          8           0       -2.339443    1.509885   -0.000034
      2          6           0       -2.335060    0.293761   -0.000041
      3          6           0       -1.237364   -0.628473    0.000033
      4          7           0        0.009294   -0.185495    0.000015
      5          6           0        1.057841   -0.966967   -0.000004
      6          6           0        2.392344   -0.422389    0.000011
      7          6           0        2.643747    0.968812    0.000065
      8          6           0        3.952127    1.425534    0.000066
      9          6           0        5.003690    0.501152    0.000006
     10          7           0        4.795506   -0.816138   -0.000043
     11          6           0        3.540731   -1.250621   -0.000039
     12          8           0       -3.545379   -0.390508   -0.000087
     13          6           0       -4.688258    0.423566   -0.000159
     14          6           0       -5.902649   -0.483140    0.000201
     15          1           0       -1.478418   -1.702458    0.000091
     16          1           0        0.956082   -2.068249   -0.000045
     17          1           0        1.783737    1.641199    0.000102
     18          1           0        4.168272    2.496607    0.000108
     19          1           0        6.045717    0.839071   -0.000002
     20          1           0        3.400735   -2.339288   -0.000085
     21          1           0       -4.685861    1.088926   -0.880432
     22          1           0       -4.685656    1.089431    0.879733
     23          1           0       -5.895076   -1.130725   -0.888135
     24          1           0       -6.832379    0.104581   -0.000014
     25          1           0       -5.895081   -1.130093    0.888998
 ---------------------------------------------------------------------
 Rotational constants (GHZ):           3.1442170           0.2091285           0.1965673

 **********************************************************************

            Population analysis using the SCF Density.

 **********************************************************************

 Orbital symmetries:
       Occupied  (A) (A) (A) (A) (A) (A) (A) (A) (A) (A) (A) (A)
                 (A) (A) (A) (A) (A) (A) (A) (A) (A) (A) (A) (A)
                 (A) (A) (A) (A) (A) (A) (A) (A) (A) (A) (A) (A)
                 (A) (A) (A) (A) (A) (A) (A) (A) (A) (A) (A) (A)
                 (A) (A) (A)
       Virtual   (A) (A) (A) (A) (A) (A) (A) (A) (A) (A) (A) (A)
                 (A) (A) (A) (A) (A) (A) (A) (A) (A) (A) (A) (A)
                 (A) (A) (A) (A) (A) (A) (A) (A) (A) (A) (A) (A)
                 (A) (A) (A) (A) (A) (A) (A) (A) (A) (A) (A) (A)
                 (A) (A) (A) (A) (A) (A) (A) (A) (A) (A) (A) (A)
                 (A) (A) (A) (A) (A) (A) (A) (A) (A) (A) (A) (A)
                 (A) (A) (A) (A) (A) (A) (A) (A) (A) (A) (A) (A)
                 (A) (A) (A) (A) (A) (A) (A) (A) (A) (A) (A) (A)
                 (A) (A) (A) (A) (A) (A) (A) (A) (A) (A) (A) (A)
                 (A) (A) (A) (A) (A) (A) (A) (A) (A) (A) (A) (A)
                 (A) (A) (A) (A) (A) (A) (A) (A) (A) (A) (A) (A)
                 (A) (A) (A) (A) (A) (A) (A) (A) (A) (A) (A) (A)
                 (A) (A) (A) (A) (A) (A) (A) (A) (A) (A) (A) (A)
                 (A) (A) (A) (A) (A) (A) (A) (A) (A) (A) (A) (A)
                 (A) (A) (A) (A) (A) (A) (A) (A) (A) (A) (A) (A)
                 (A) (A) (A) (A) (A) (A) (A) (A) (A) (A) (A) (A)
                 (A) (A) (A) (A) (A) (A) (A) (A)
 The electronic state is 1-A.
 Alpha  occ. eigenvalues --  -19.51204 -19.44152 -14.62317 -14.60305 -10.50548
 Alpha  occ. eigenvalues --  -10.48359 -10.44958 -10.44932 -10.44695 -10.43290
 Alpha  occ. eigenvalues --  -10.42497 -10.42436 -10.40662 -10.39282  -1.05108
 Alpha  occ. eigenvalues --   -0.94930  -0.90568  -0.86003  -0.75602  -0.74236
 Alpha  occ. eigenvalues --   -0.71928  -0.65274  -0.60336  -0.56895  -0.56134
 Alpha  occ. eigenvalues --   -0.51710  -0.47538  -0.45233  -0.43961  -0.43424
 Alpha  occ. eigenvalues --   -0.41127  -0.38935  -0.38662  -0.36727  -0.35853
 Alpha  occ. eigenvalues --   -0.35371  -0.34358  -0.34112  -0.32801  -0.32235
 Alpha  occ. eigenvalues --   -0.30304  -0.28693  -0.27810  -0.26963  -0.21742
 Alpha  occ. eigenvalues --   -0.20678  -0.18915  -0.18458  -0.18414  -0.15862
 Alpha  occ. eigenvalues --   -0.05375
 Alpha virt. eigenvalues --    0.13246   0.15171   0.20269   0.22378   0.23152
 Alpha virt. eigenvalues --    0.25504   0.25686   0.25904   0.26641   0.27742
 Alpha virt. eigenvalues --    0.28482   0.29658   0.31447   0.31856   0.32843
 Alpha virt. eigenvalues --    0.34028   0.34870   0.37853   0.38162   0.40790
 Alpha virt. eigenvalues --    0.44191   0.45423   0.46884   0.48108   0.48664
 Alpha virt. eigenvalues --    0.50670   0.52362   0.55437   0.56174   0.56655
 Alpha virt. eigenvalues --    0.56744   0.58295   0.60018   0.61159   0.62755
 Alpha virt. eigenvalues --    0.63851   0.64136   0.67257   0.67341   0.67609
 Alpha virt. eigenvalues --    0.68298   0.69199   0.70645   0.71627   0.72629
 Alpha virt. eigenvalues --    0.75887   0.77175   0.78425   0.78436   0.79741
 Alpha virt. eigenvalues --    0.80559   0.80844   0.82506   0.82631   0.82880
 Alpha virt. eigenvalues --    0.83237   0.83956   0.84420   0.84969   0.85331
 Alpha virt. eigenvalues --    0.86391   0.87075   0.87768   0.89389   0.89526
 Alpha virt. eigenvalues --    0.91584   0.93019   0.93165   0.94483   0.96848
 Alpha virt. eigenvalues --    0.98338   0.99920   1.02017   1.04649   1.07422
 Alpha virt. eigenvalues --    1.07575   1.07995   1.09762   1.14351   1.19306
 Alpha virt. eigenvalues --    1.22330   1.23802   1.24275   1.27612   1.29484
 Alpha virt. eigenvalues --    1.29681   1.32407   1.36410   1.37094   1.37257
 Alpha virt. eigenvalues --    1.39761   1.41686   1.43569   1.44480   1.45470
 Alpha virt. eigenvalues --    1.46025   1.47327   1.49660   1.51218   1.51421
 Alpha virt. eigenvalues --    1.53415   1.53580   1.55137   1.58954   1.59484
 Alpha virt. eigenvalues --    1.67497   1.69322   1.71819   1.72530   1.78308
 Alpha virt. eigenvalues --    1.79948   1.82915   1.85439   1.89014   1.89354
 Alpha virt. eigenvalues --    1.90788   1.91727   1.91881   1.92077   1.92196
 Alpha virt. eigenvalues --    1.93953   1.95359   1.96689   1.96907   1.97382
 Alpha virt. eigenvalues --    1.97808   1.98634   1.99429   2.02609   2.04408
 Alpha virt. eigenvalues --    2.05586   2.07638   2.08275   2.10455   2.10868
 Alpha virt. eigenvalues --    2.12438   2.13891   2.15619   2.15928   2.18085
 Alpha virt. eigenvalues --    2.20489   2.21717   2.24351   2.27187   2.28500
 Alpha virt. eigenvalues --    2.29852   2.30115   2.31282   2.33245   2.37366
 Alpha virt. eigenvalues --    2.39564   2.43063   2.45261   2.49331   2.51038
 Alpha virt. eigenvalues --    2.51833   2.52822   2.56970   2.57288   2.60211
 Alpha virt. eigenvalues --    2.60749   2.62632   2.67023   2.68778   2.71079
 Alpha virt. eigenvalues --    2.74367   2.76823   2.81134   2.82011   2.83241
 Alpha virt. eigenvalues --    2.83245   2.86896   2.87406   2.89434   2.91582
 Alpha virt. eigenvalues --    2.95762   2.97657   2.99274   3.00655   3.02427
 Alpha virt. eigenvalues --    3.02909   3.05630   3.06357   3.07834   3.10777
 Alpha virt. eigenvalues --    3.14745   3.15516   3.20669   3.21907   3.27348
 Alpha virt. eigenvalues --    3.30200   3.35842   3.42635   3.45071   3.54183
 Alpha virt. eigenvalues --    3.59931   3.66618   3.77408   3.83872   3.91391
          Condensed to atoms (all electrons):
               1          2          3          4          5          6
     1  O    7.805447   0.694849  -0.092218   0.000954   0.000174   0.000037
     2  C    0.694849   4.612967   0.296609  -0.069162   0.012398   0.000011
     3  C   -0.092218   0.296609   5.294289   0.486950  -0.112942   0.017806
     4  N    0.000954  -0.069162   0.486950   6.254870   0.580260  -0.114149
     5  C    0.000174   0.012398  -0.112942   0.580260   5.118265   0.246839
     6  C    0.000037   0.000011   0.017806  -0.114149   0.246839   5.387348
     7  C   -0.000072  -0.000214   0.000276   0.007727  -0.069970   0.340198
     8  C   -0.000000  -0.000007   0.000002   0.001193   0.016411   0.012153
     9  C    0.000000   0.000000  -0.000001  -0.000009   0.001161  -0.069167
    10  N   -0.000000   0.000000   0.000002  -0.000058   0.006223  -0.035000
    11  C    0.000000   0.000003  -0.000074   0.003349  -0.079491   0.436544
    12  O   -0.095313   0.288469  -0.106300   0.001981  -0.000090  -0.000000
    13  C   -0.000944  -0.040428   0.007829  -0.000163   0.000012  -0.000000
    14  C    0.002562   0.009611   0.000771   0.000000  -0.000000  -0.000000
    15  H    0.003403  -0.077048   0.388803  -0.042757  -0.012294  -0.001260
    16  H   -0.000017  -0.001357  -0.016663  -0.051632   0.413651  -0.113657
    17  H    0.000498  -0.000290  -0.000983   0.027996  -0.020663  -0.060909
    18  H   -0.000000   0.000000   0.000000  -0.000029  -0.000245   0.013343
    19  H   -0.000000  -0.000000   0.000000  -0.000000   0.000086   0.001292
    20  H   -0.000000  -0.000001  -0.000012  -0.000006  -0.009090  -0.072634
    21  H    0.011967  -0.003588   0.001096   0.000004  -0.000001   0.000000
    22  H    0.011990  -0.003597   0.001098   0.000004  -0.000001   0.000000
    23  H   -0.000052  -0.000312  -0.000148   0.000000   0.000000   0.000000
    24  H    0.000049  -0.000064   0.000015  -0.000000   0.000000  -0.000000
    25  H   -0.000052  -0.000312  -0.000148   0.000000   0.000000   0.000000
               7          8          9         10         11         12
     1  O   -0.000072  -0.000000   0.000000  -0.000000   0.000000  -0.095313
     2  C   -0.000214  -0.000007   0.000000   0.000000   0.000003   0.288469
     3  C    0.000276   0.000002  -0.000001   0.000002  -0.000074  -0.106300
     4  N    0.007727   0.001193  -0.000009  -0.000058   0.003349   0.001981
     5  C   -0.069970   0.016411   0.001161   0.006223  -0.079491  -0.000090
     6  C    0.340198   0.012153  -0.069167  -0.035000   0.436544  -0.000000
     7  C    5.025736   0.385428  -0.002161  -0.052083  -0.037802  -0.000000
     8  C    0.385428   5.049036   0.412769  -0.038735  -0.067452  -0.000000
     9  C   -0.002161   0.412769   4.867666   0.520061  -0.084949   0.000000
    10  N   -0.052083  -0.038735   0.520061   6.314224   0.540383   0.000000
    11  C   -0.037802  -0.067452  -0.084949   0.540383   4.899406  -0.000000
    12  O   -0.000000  -0.000000   0.000000   0.000000  -0.000000   8.143757
    13  C    0.000000  -0.000000   0.000000  -0.000000   0.000000   0.289490
    14  C    0.000000   0.000000  -0.000000   0.000000  -0.000000  -0.060330
    15  H    0.000269   0.000005  -0.000000  -0.000000  -0.000014   0.011559
    16  H    0.017573  -0.000375   0.000052   0.000089  -0.012100   0.000004
    17  H    0.443181  -0.071183   0.010149  -0.000433   0.011407   0.000004
    18  H   -0.064886   0.415996  -0.057524   0.006945   0.000072  -0.000000
    19  H    0.006948  -0.076132   0.415285  -0.045516   0.004864   0.000000
    20  H    0.008903   0.001147   0.005179  -0.044975   0.411864   0.000000
    21  H    0.000000  -0.000000  -0.000000   0.000000   0.000000  -0.036090
    22  H    0.000000  -0.000000  -0.000000   0.000000   0.000000  -0.036087
    23  H   -0.000000   0.000000   0.000000   0.000000   0.000000   0.004213
    24  H    0.000000   0.000000  -0.000000  -0.000000   0.000000   0.004001
    25  H   -0.000000   0.000000   0.000000   0.000000   0.000000   0.004213
              13         14         15         16         17         18
     1  O   -0.000944   0.002562   0.003403  -0.000017   0.000498  -0.000000
     2  C   -0.040428   0.009611  -0.077048  -0.001357  -0.000290   0.000000
     3  C    0.007829   0.000771   0.388803  -0.016663  -0.000983   0.000000
     4  N   -0.000163   0.000000  -0.042757  -0.051632   0.027996  -0.000029
     5  C    0.000012  -0.000000  -0.012294   0.413651  -0.020663  -0.000245
     6  C   -0.000000  -0.000000  -0.001260  -0.113657  -0.060909   0.013343
     7  C    0.000000   0.000000   0.000269   0.017573   0.443181  -0.064886
     8  C   -0.000000   0.000000   0.000005  -0.000375  -0.071183   0.415996
     9  C    0.000000  -0.000000  -0.000000   0.000052   0.010149  -0.057524
    10  N   -0.000000   0.000000  -0.000000   0.000089  -0.000433   0.006945
    11  C    0.000000  -0.000000  -0.000014  -0.012100   0.011407   0.000072
    12  O    0.289490  -0.060330   0.011559   0.000004   0.000004  -0.000000
    13  C    4.466887   0.383127  -0.000279   0.000002  -0.000000   0.000000
    14  C    0.383127   4.690219  -0.000367   0.000000  -0.000000   0.000000
    15  H   -0.000279  -0.000367   0.755930   0.016934   0.000272  -0.000000
    16  H    0.000002   0.000000   0.016934   0.801352   0.001524   0.000006
    17  H   -0.000000  -0.000000   0.000272   0.001524   0.646492  -0.011239
    18  H    0.000000   0.000000  -0.000000   0.000006  -0.011239   0.716666
    19  H    0.000000   0.000000   0.000000   0.000001  -0.000272  -0.007351
    20  H    0.000000  -0.000000   0.000025   0.008457  -0.000269   0.000092
    21  H    0.392082  -0.034028  -0.000025  -0.000000  -0.000000   0.000000
    22  H    0.392084  -0.034026  -0.000025  -0.000000  -0.000000   0.000000
    23  H   -0.014830   0.375064   0.000076  -0.000000   0.000000  -0.000000
    24  H   -0.018555   0.371012   0.000003  -0.000000  -0.000000   0.000000
    25  H   -0.014838   0.375078   0.000076  -0.000000   0.000000  -0.000000
              19         20         21         22         23         24
     1  O   -0.000000  -0.000000   0.011967   0.011990  -0.000052   0.000049
     2  C   -0.000000  -0.000001  -0.003588  -0.003597  -0.000312  -0.000064
     3  C    0.000000  -0.000012   0.001096   0.001098  -0.000148   0.000015
     4  N   -0.000000  -0.000006   0.000004   0.000004   0.000000  -0.000000
     5  C    0.000086  -0.009090  -0.000001  -0.000001   0.000000   0.000000
     6  C    0.001292  -0.072634   0.000000   0.000000   0.000000  -0.000000
     7  C    0.006948   0.008903   0.000000   0.000000  -0.000000   0.000000
     8  C   -0.076132   0.001147  -0.000000  -0.000000   0.000000   0.000000
     9  C    0.415285   0.005179  -0.000000  -0.000000   0.000000  -0.000000
    10  N   -0.045516  -0.044975   0.000000   0.000000   0.000000  -0.000000
    11  C    0.004864   0.411864   0.000000   0.000000   0.000000   0.000000
    12  O    0.000000   0.000000  -0.036090  -0.036087   0.004213   0.004001
    13  C    0.000000   0.000000   0.392082   0.392084  -0.014830  -0.018555
    14  C    0.000000  -0.000000  -0.034028  -0.034026   0.375064   0.371012
    15  H    0.000000   0.000025  -0.000025  -0.000025   0.000076   0.000003
    16  H    0.000001   0.008457  -0.000000  -0.000000  -0.000000  -0.000000
    17  H   -0.000272  -0.000269  -0.000000  -0.000000   0.000000  -0.000000
    18  H   -0.007351   0.000092   0.000000   0.000000  -0.000000   0.000000
    19  H    0.715443  -0.000402  -0.000000  -0.000000  -0.000000  -0.000000
    20  H   -0.000402   0.704352   0.000000   0.000000   0.000000   0.000000
    21  H   -0.000000   0.000000   0.710804  -0.051811  -0.012885  -0.001673
    22  H   -0.000000   0.000000  -0.051811   0.710755   0.009630  -0.001671
    23  H   -0.000000   0.000000  -0.012885   0.009630   0.654347  -0.021859
    24  H   -0.000000   0.000000  -0.001673  -0.001671  -0.021859   0.676022
    25  H   -0.000000   0.000000   0.009630  -0.012886  -0.028631  -0.021859
              25
     1  O   -0.000052
     2  C   -0.000312
     3  C   -0.000148
     4  N    0.000000
     5  C    0.000000
     6  C    0.000000
     7  C   -0.000000
     8  C    0.000000
     9  C    0.000000
    10  N    0.000000
    11  C    0.000000
    12  O    0.004213
    13  C   -0.014838
    14  C    0.375078
    15  H    0.000076
    16  H   -0.000000
    17  H    0.000000
    18  H   -0.000000
    19  H   -0.000000
    20  H    0.000000
    21  H    0.009630
    22  H   -0.012886
    23  H   -0.028631
    24  H   -0.021859
    25  H    0.654340
 Mulliken charges:
               1
     1  O   -0.343260
     2  C    0.281462
     3  C   -0.166058
     4  N   -0.087327
     5  C   -0.090695
     6  C    0.011205
     7  C   -0.009051
     8  C   -0.040257
     9  C   -0.018511
    10  N   -0.171126
    11  C   -0.026009
    12  O   -0.413481
    13  C    0.158524
    14  C   -0.078692
    15  H   -0.043286
    16  H   -0.063845
    17  H    0.024717
    18  H   -0.011847
    19  H   -0.014246
    20  H   -0.012631
    21  H    0.014517
    22  H    0.014543
    23  H    0.035387
    24  H    0.014577
    25  H    0.035388
 Sum of Mulliken charges =  -1.00000
 Mulliken charges with hydrogens summed into heavy atoms:
               1
     1  O   -0.343260
     2  C    0.281462
     3  C   -0.209344
     4  N   -0.087327
     5  C   -0.154539
     6  C    0.011205
     7  C    0.015666
     8  C   -0.052104
     9  C   -0.032757
    10  N   -0.171126
    11  C   -0.038640
    12  O   -0.413481
    13  C    0.187584
    14  C    0.006660
 Electronic spatial extent (au):  <R**2>=           5293.2211
 Charge=             -1.0000 electrons
 Dipole moment (field-independent basis, Debye):
    X=             -2.8139    Y=             -0.1976    Z=              0.0001  Tot=              2.8208
 Quadrupole moment (field-independent basis, Debye-Ang):
   XX=           -132.4699   YY=            -90.6071   ZZ=            -87.2971
   XY=              9.3572   XZ=              0.0004   YZ=              0.0002
 Traceless Quadrupole moment (field-independent basis, Debye-Ang):
   XX=            -29.0119   YY=             12.8509   ZZ=             16.1610
   XY=              9.3572   XZ=              0.0004   YZ=              0.0002
 Octapole moment (field-independent basis, Debye-Ang**2):
  XXX=           -174.7122  YYY=             -1.0924  ZZZ=             -0.0007  XYY=              0.7996
  XXY=             47.9679  XXZ=             -0.0001  XZZ=            -20.9877  YZZ=              2.2052
  YYZ=              0.0003  XYZ=             -0.0004
 Hexadecapole moment (field-independent basis, Debye-Ang**3):
 XXXX=          -7739.1011 YYYY=           -537.5925 ZZZZ=           -103.6634 XXXY=            163.5551
 XXXZ=              0.0260 YYYX=             22.3127 YYYZ=              0.0033 ZZZX=             -0.0009
 ZZZY=             -0.0014 XXYY=          -1273.5905 XXZZ=          -1161.1619 YYZZ=           -111.5272
 XXYZ=              0.0013 YYXZ=              0.0013 ZZXY=             -8.3286
 N-N= 7.815489055436D+02 E-N=-3.083878630829D+03  KE= 6.407862452086D+02
 Unable to Open any file for archive entry.
 1\1\GINC-NOTCH123\FOpt\RM062X\def2SVP\C10H11N2O2(1-)\U6067110\18-Jul-2
 025\0\\#N OPT FREQ=NORAMAN Integral(Ultrafine) M062X EmpiricalDispersi
 on=GD3 def2SVP\\A12_crest_conformers_censo-1\\-1,1\O,2.4222484668,-1.3
 950603087,0.4283849601\C,2.4020333573,-0.2343386071,0.0660376075\C,1.2
 924511888,0.6346011953,-0.1970662256\N,0.0516968905,0.1989049515,-0.05
 18664429\C,-1.0069089797,0.9339698532,-0.2736348498\C,-2.3341754416,0.
 4004006208,-0.0971960383\C,-2.5674389423,-0.9300552298,0.320077402\C,-
 3.8697290653,-1.3795017998,0.470046623\C,-4.9332126025,-0.5080756552,0
 .2056849094\N,-4.7422014596,0.7513895855,-0.1891018352\C,-3.4932206143
 ,1.1790567892,-0.3318706561\O,3.6033106898,0.4312704604,-0.1507398809\
 C,4.7566628233,-0.3339656347,0.0796573544\C,5.959118616,0.544118682,-0
 .2030588581\H,1.5194975045,1.6622065295,-0.5195987033\H,-0.9194988381,
 1.9861621734,-0.6029184582\H,-1.6987685276,-1.5629426158,0.5113572329\
 H,-4.0719062903,-2.404040881,0.7915418387\H,-5.9707255444,-0.841378087
 8,0.3174196757\H,-3.3674137912,2.2196024924,-0.6578051016\H,4.75672986
 34,-1.2314652892,-0.5622811593\H,4.7689259891,-0.7072604554,1.11796991
 13\H,5.9368605673,0.8973445905,-1.2438761976\H,6.8963965819,-0.0073111
 899,-0.0379886462\H,5.9493875582,1.4264878306,0.4526055382\\Version=ES
 64L-G16RevC.01\State=1-A\HF=-646.9158636\RMSD=6.903e-09\RMSF=2.050e-05
 \Dipole=1.1059247,0.0856346,-0.0348707\Quadrupole=-21.743808,9.9067718
 ,11.8370362,6.3221604,-1.7256241,0.6116853\PG=C01 [X(C10H11N2O2)]\\@
 The archive entry for this job was punched.


 Spring appears, and we are once more children.
                                  -- Anonymous
 Job cpu time:       0 days  4 hours 48 minutes 36.0 seconds.
 Elapsed time:       0 days  0 hours 18 minutes 34.1 seconds.
 File lengths (MBytes):  RWF=     57 Int=      0 D2E=      0 Chk=      7 Scr=      2
 Normal termination of Gaussian 16 at Fri Jul 18 09:40:51 2025.
 Link1:  Proceeding to internal job step number  2.
 -------------------------------------------------------------------
 #N Geom=AllCheck Guess=TCheck SCRF=Check GenChk RM062X/def2SVP Freq
 -------------------------------------------------------------------
 1/10=4,29=7,30=1,38=1,40=1/1,3;
 2/12=2,40=1/2;
 3/5=43,7=101,11=2,14=-4,25=1,30=1,70=2,71=2,74=-55,75=-5,116=1,124=31,140=1/1,2,3;
 4/5=101/1;
 5/5=2,38=6,98=1/2;
 8/6=4,10=90,11=11/1;
 11/6=1,8=1,9=11,15=111,16=1/1,2,10;
 10/6=1/2;
 6/7=2,8=2,9=2,10=2,28=1/1;
 7/8=1,10=1,25=1/1,2,3,16;
 1/10=4,30=1/3;
 99//99;
 Structure from the checkpoint file:  "A12_crest_conformers_censo-1.chk"
 ----------------------------
 A12_crest_conformers_censo-1
 ----------------------------
 Charge = -1 Multiplicity = 1
 Redundant internal coordinates found in file.  (old form).
 O,0,2.4222484668,-1.3950603087,0.4283849601
 C,0,2.4020333573,-0.2343386071,0.0660376075
 C,0,1.2924511888,0.6346011953,-0.1970662256
 N,0,0.0516968905,0.1989049515,-0.0518664429
 C,0,-1.0069089797,0.9339698532,-0.2736348498
 C,0,-2.3341754416,0.4004006208,-0.0971960383
 C,0,-2.5674389423,-0.9300552298,0.320077402
 C,0,-3.8697290653,-1.3795017998,0.470046623
 C,0,-4.9332126025,-0.5080756552,0.2056849094
 N,0,-4.7422014596,0.7513895855,-0.1891018352
 C,0,-3.4932206143,1.1790567892,-0.3318706561
 O,0,3.6033106898,0.4312704604,-0.1507398809
 C,0,4.7566628233,-0.3339656347,0.0796573544
 C,0,5.959118616,0.544118682,-0.2030588581
 H,0,1.5194975045,1.6622065295,-0.5195987033
 H,0,-0.9194988381,1.9861621734,-0.6029184582
 H,0,-1.6987685276,-1.5629426158,0.5113572329
 H,0,-4.0719062903,-2.404040881,0.7915418387
 H,0,-5.9707255444,-0.8413780878,0.3174196757
 H,0,-3.3674137912,2.2196024924,-0.6578051016
 H,0,4.7567298634,-1.2314652892,-0.5622811593
 H,0,4.7689259891,-0.7072604554,1.1179699113
 H,0,5.9368605673,0.8973445905,-1.2438761976
 H,0,6.8963965819,-0.0073111899,-0.0379886462
 H,0,5.9493875582,1.4264878306,0.4526055382
 Recover connectivity data from disk.

 GradGradGradGradGradGradGradGradGradGradGradGradGradGradGradGradGradGrad
 Berny optimization.
 Initialization pass.
                           ----------------------------
                           !    Initial Parameters    !
                           ! (Angstroms and Degrees)  !
 --------------------------                            --------------------------
 ! Name  Definition              Value          Derivative Info.                !
 --------------------------------------------------------------------------------
 ! R1    R(1,2)                  1.2161         calculate D2E/DX2 analytically  !
 ! R2    R(2,3)                  1.4337         calculate D2E/DX2 analytically  !
 ! R3    R(2,12)                 1.3904         calculate D2E/DX2 analytically  !
 ! R4    R(3,4)                  1.323          calculate D2E/DX2 analytically  !
 ! R5    R(3,15)                 1.1007         calculate D2E/DX2 analytically  !
 ! R6    R(4,5)                  1.3077         calculate D2E/DX2 analytically  !
 ! R7    R(5,6)                  1.4413         calculate D2E/DX2 analytically  !
 ! R8    R(5,16)                 1.106          calculate D2E/DX2 analytically  !
 ! R9    R(6,7)                  1.4137         calculate D2E/DX2 analytically  !
 ! R10   R(6,11)                 1.4159         calculate D2E/DX2 analytically  !
 ! R11   R(7,8)                  1.3858         calculate D2E/DX2 analytically  !
 ! R12   R(7,17)                 1.0917         calculate D2E/DX2 analytically  !
 ! R13   R(8,9)                  1.4001         calculate D2E/DX2 analytically  !
 ! R14   R(8,18)                 1.0927         calculate D2E/DX2 analytically  !
 ! R15   R(9,10)                 1.3336         calculate D2E/DX2 analytically  !
 ! R16   R(9,19)                 1.0954         calculate D2E/DX2 analytically  !
 ! R17   R(10,11)                1.3279         calculate D2E/DX2 analytically  !
 ! R18   R(11,20)                1.0976         calculate D2E/DX2 analytically  !
 ! R19   R(12,13)                1.4032         calculate D2E/DX2 analytically  !
 ! R20   R(13,14)                1.5155         calculate D2E/DX2 analytically  !
 ! R21   R(13,21)                1.1034         calculate D2E/DX2 analytically  !
 ! R22   R(13,22)                1.1034         calculate D2E/DX2 analytically  !
 ! R23   R(14,23)                1.0993         calculate D2E/DX2 analytically  !
 ! R24   R(14,24)                1.0999         calculate D2E/DX2 analytically  !
 ! R25   R(14,25)                1.0993         calculate D2E/DX2 analytically  !
 ! A1    A(1,2,3)              130.2419         calculate D2E/DX2 analytically  !
 ! A2    A(1,2,12)             119.2757         calculate D2E/DX2 analytically  !
 ! A3    A(3,2,12)             110.4824         calculate D2E/DX2 analytically  !
 ! A4    A(2,3,4)              120.4028         calculate D2E/DX2 analytically  !
 ! A5    A(2,3,15)             117.3851         calculate D2E/DX2 analytically  !
 ! A6    A(4,3,15)             122.2121         calculate D2E/DX2 analytically  !
 ! A7    A(3,4,5)              123.7414         calculate D2E/DX2 analytically  !
 ! A8    A(4,5,6)              121.104          calculate D2E/DX2 analytically  !
 ! A9    A(4,5,16)             121.4176         calculate D2E/DX2 analytically  !
 ! A10   A(6,5,16)             117.4784         calculate D2E/DX2 analytically  !
 ! A11   A(5,6,7)              122.4426         calculate D2E/DX2 analytically  !
 ! A12   A(5,6,11)             122.0012         calculate D2E/DX2 analytically  !
 ! A13   A(7,6,11)             115.5563         calculate D2E/DX2 analytically  !
 ! A14   A(6,7,8)              119.4862         calculate D2E/DX2 analytically  !
 ! A15   A(6,7,17)             117.7762         calculate D2E/DX2 analytically  !
 ! A16   A(8,7,17)             122.7376         calculate D2E/DX2 analytically  !
 ! A17   A(7,8,9)              119.44           calculate D2E/DX2 analytically  !
 ! A18   A(7,8,18)             120.652          calculate D2E/DX2 analytically  !
 ! A19   A(9,8,18)             119.908          calculate D2E/DX2 analytically  !
 ! A20   A(8,9,10)             122.3365         calculate D2E/DX2 analytically  !
 ! A21   A(8,9,19)             120.7154         calculate D2E/DX2 analytically  !
 ! A22   A(10,9,19)            116.9481         calculate D2E/DX2 analytically  !
 ! A23   A(9,10,11)            118.0798         calculate D2E/DX2 analytically  !
 ! A24   A(6,11,10)            125.1013         calculate D2E/DX2 analytically  !
 ! A25   A(6,11,20)            118.472          calculate D2E/DX2 analytically  !
 ! A26   A(10,11,20)           116.4268         calculate D2E/DX2 analytically  !
 ! A27   A(2,12,13)            115.0555         calculate D2E/DX2 analytically  !
 ! A28   A(12,13,14)           107.7914         calculate D2E/DX2 analytically  !
 ! A29   A(12,13,21)           110.3713         calculate D2E/DX2 analytically  !
 ! A30   A(12,13,22)           110.3733         calculate D2E/DX2 analytically  !
 ! A31   A(14,13,21)           111.2648         calculate D2E/DX2 analytically  !
 ! A32   A(14,13,22)           111.2675         calculate D2E/DX2 analytically  !
 ! A33   A(21,13,22)           105.7987         calculate D2E/DX2 analytically  !
 ! A34   A(13,14,23)           110.2862         calculate D2E/DX2 analytically  !
 ! A35   A(13,14,24)           110.955          calculate D2E/DX2 analytically  !
 ! A36   A(13,14,25)           110.2888         calculate D2E/DX2 analytically  !
 ! A37   A(23,14,24)           108.6884         calculate D2E/DX2 analytically  !
 ! A38   A(23,14,25)           107.8539         calculate D2E/DX2 analytically  !
 ! A39   A(24,14,25)           108.6886         calculate D2E/DX2 analytically  !
 ! D1    D(1,2,3,4)             -0.0056         calculate D2E/DX2 analytically  !
 ! D2    D(1,2,3,15)           179.9952         calculate D2E/DX2 analytically  !
 ! D3    D(12,2,3,4)           179.9964         calculate D2E/DX2 analytically  !
 ! D4    D(12,2,3,15)           -0.0027         calculate D2E/DX2 analytically  !
 ! D5    D(1,2,12,13)            0.0016         calculate D2E/DX2 analytically  !
 ! D6    D(3,2,12,13)          179.9999         calculate D2E/DX2 analytically  !
 ! D7    D(2,3,4,5)           -179.9956         calculate D2E/DX2 analytically  !
 ! D8    D(15,3,4,5)             0.0035         calculate D2E/DX2 analytically  !
 ! D9    D(3,4,5,6)           -179.9984         calculate D2E/DX2 analytically  !
 ! D10   D(3,4,5,16)             0.0024         calculate D2E/DX2 analytically  !
 ! D11   D(4,5,6,7)              0.0009         calculate D2E/DX2 analytically  !
 ! D12   D(4,5,6,11)          -179.9985         calculate D2E/DX2 analytically  !
 ! D13   D(16,5,6,7)          -179.9999         calculate D2E/DX2 analytically  !
 ! D14   D(16,5,6,11)            0.0007         calculate D2E/DX2 analytically  !
 ! D15   D(5,6,7,8)           -179.9995         calculate D2E/DX2 analytically  !
 ! D16   D(5,6,7,17)             0.0004         calculate D2E/DX2 analytically  !
 ! D17   D(11,6,7,8)            -0.0001         calculate D2E/DX2 analytically  !
 ! D18   D(11,6,7,17)          179.9998         calculate D2E/DX2 analytically  !
 ! D19   D(5,6,11,10)          179.9993         calculate D2E/DX2 analytically  !
 ! D20   D(5,6,11,20)           -0.0004         calculate D2E/DX2 analytically  !
 ! D21   D(7,6,11,10)           -0.0002         calculate D2E/DX2 analytically  !
 ! D22   D(7,6,11,20)         -179.9998         calculate D2E/DX2 analytically  !
 ! D23   D(6,7,8,9)              0.0004         calculate D2E/DX2 analytically  !
 ! D24   D(6,7,8,18)          -179.9999         calculate D2E/DX2 analytically  !
 ! D25   D(17,7,8,9)          -179.9995         calculate D2E/DX2 analytically  !
 ! D26   D(17,7,8,18)            0.0001         calculate D2E/DX2 analytically  !
 ! D27   D(7,8,9,10)            -0.0006         calculate D2E/DX2 analytically  !
 ! D28   D(7,8,9,19)           179.9995         calculate D2E/DX2 analytically  !
 ! D29   D(18,8,9,10)          179.9998         calculate D2E/DX2 analytically  !
 ! D30   D(18,8,9,19)           -0.0001         calculate D2E/DX2 analytically  !
 ! D31   D(8,9,10,11)            0.0003         calculate D2E/DX2 analytically  !
 ! D32   D(19,9,10,11)        -179.9998         calculate D2E/DX2 analytically  !
 ! D33   D(9,10,11,6)            0.0001         calculate D2E/DX2 analytically  !
 ! D34   D(9,10,11,20)         179.9997         calculate D2E/DX2 analytically  !
 ! D35   D(2,12,13,14)        -179.984          calculate D2E/DX2 analytically  !
 ! D36   D(2,12,13,21)          58.3164         calculate D2E/DX2 analytically  !
 ! D37   D(2,12,13,22)         -58.28           calculate D2E/DX2 analytically  !
 ! D38   D(12,13,14,23)        -59.502          calculate D2E/DX2 analytically  !
 ! D39   D(12,13,14,24)       -179.9902         calculate D2E/DX2 analytically  !
 ! D40   D(12,13,14,25)         59.5194         calculate D2E/DX2 analytically  !
 ! D41   D(21,13,14,23)         61.6415         calculate D2E/DX2 analytically  !
 ! D42   D(21,13,14,24)        -58.8467         calculate D2E/DX2 analytically  !
 ! D43   D(21,13,14,25)       -179.3371         calculate D2E/DX2 analytically  !
 ! D44   D(22,13,14,23)        179.3504         calculate D2E/DX2 analytically  !
 ! D45   D(22,13,14,24)         58.8622         calculate D2E/DX2 analytically  !
 ! D46   D(22,13,14,25)        -61.6282         calculate D2E/DX2 analytically  !
 --------------------------------------------------------------------------------
 Trust Radius=3.00D-01 FncErr=1.00D-07 GrdErr=1.00D-07 EigMax=2.50D+02 EigMin=1.00D-04
 Number of steps in this run=      2 maximum allowed number of steps=      2.
 GradGradGradGradGradGradGradGradGradGradGradGradGradGradGradGradGradGrad

                          Input orientation:                          
 ---------------------------------------------------------------------
 Center     Atomic      Atomic             Coordinates (Angstroms)
 Number     Number       Type             X           Y           Z
 ---------------------------------------------------------------------
      1          8           0        2.422248   -1.395060    0.428385
      2          6           0        2.402033   -0.234339    0.066038
      3          6           0        1.292451    0.634601   -0.197066
      4          7           0        0.051697    0.198905   -0.051866
      5          6           0       -1.006909    0.933970   -0.273635
      6          6           0       -2.334175    0.400401   -0.097196
      7          6           0       -2.567439   -0.930055    0.320077
      8          6           0       -3.869729   -1.379502    0.470047
      9          6           0       -4.933213   -0.508076    0.205685
     10          7           0       -4.742201    0.751390   -0.189102
     11          6           0       -3.493221    1.179057   -0.331871
     12          8           0        3.603311    0.431270   -0.150740
     13          6           0        4.756663   -0.333966    0.079657
     14          6           0        5.959119    0.544119   -0.203059
     15          1           0        1.519498    1.662207   -0.519599
     16          1           0       -0.919499    1.986162   -0.602918
     17          1           0       -1.698769   -1.562943    0.511357
     18          1           0       -4.071906   -2.404041    0.791542
     19          1           0       -5.970726   -0.841378    0.317420
     20          1           0       -3.367414    2.219602   -0.657805
     21          1           0        4.756730   -1.231465   -0.562281
     22          1           0        4.768926   -0.707260    1.117970
     23          1           0        5.936861    0.897345   -1.243876
     24          1           0        6.896397   -0.007311   -0.037989
     25          1           0        5.949388    1.426488    0.452606
 ---------------------------------------------------------------------
                    Distance matrix (angstroms):
                    1          2          3          4          5
     1  O    0.000000
     2  C    1.216133   0.000000
     3  C    2.405651   1.433685   0.000000
     4  N    2.896702   2.392840   1.323021   0.000000
     5  C    4.204323   3.619559   2.320031   1.307726   0.000000
     6  C    5.111114   4.781340   3.635553   2.394795   1.441341
     7  C    5.012478   5.024362   4.196944   2.876242   2.502466
     8  C    6.292135   6.388241   5.581197   4.259266   3.755123
     9  C    7.412094   7.341680   6.342461   5.041376   4.210119
    10  N    7.504524   7.216429   6.035788   4.827581   3.740707
    11  C    6.495910   6.075363   4.818429   3.688569   2.499041
    12  O    2.250728   1.390358   2.320250   3.560580   4.639174
    13  C    2.587861   2.356776   3.607695   4.736872   5.911957
    14  C    4.082718   3.651200   4.667548   5.919431   6.977285
    15  H    3.325735   2.172262   1.100704   2.124727   2.640749
    16  H    4.864517   4.051012   2.623768   2.107408   1.105973
    17  H    4.125270   4.333598   3.778685   2.546656   2.707296
    18  H    6.582095   6.866284   6.243959   4.948815   4.655226
    19  H    8.411949   8.398499   7.429465   6.122755   5.304779
    20  H    6.911280   6.311283   4.943567   4.017549   2.715220
    21  H    2.541257   2.633181   3.951811   4.944069   6.163762
    22  H    2.540766   2.632945   3.951682   4.943875   6.163641
    23  H    4.517087   3.935935   4.768164   6.045152   7.011323
    24  H    4.707585   4.501296   5.642833   6.847819   7.962649
    25  H    4.516905   3.935924   4.768251   6.045180   7.011424
                    6          7          8          9         10
     6  C    0.000000
     7  C    1.413733   0.000000
     8  C    2.418210   1.385804   0.000000
     9  C    2.769848   2.405834   1.400096   0.000000
    10  N    2.435206   2.795731   2.395075   1.333640   0.000000
    11  C    1.415897   2.393838   2.707592   2.282314   1.327869
    12  O    5.937808   6.336642   7.714311   8.595443   8.351738
    13  C    7.130958   7.352251   8.698286   9.692259   9.564447
    14  C    8.295215   8.668855  10.037910  10.950665  10.703336
    15  H    4.076932   4.912019   6.266989   6.846432   6.336220
    16  H    2.184423   3.474471   4.602478   4.794263   4.038436
    17  H    2.151464   1.091661   2.179089   3.415817   3.887063
    18  H    3.416790   2.158317   1.092664   2.163276   3.371602
    19  H    3.865025   3.404443   2.174180   1.095449   2.074306
    20  H    2.165955   3.393605   3.804986   3.261529   2.065278
    21  H    7.291106   7.383282   8.689270   9.747207   9.710853
    22  H    7.290925   7.382989   8.688963   9.746970   9.710697
    23  H    8.364919   8.837899  10.212285  11.055990  10.732018
    24  H    9.239762   9.515453  10.865103  11.842711  11.664280
    25  H    8.364960   8.837827  10.212195  11.055971  10.732084
                   11         12         13         14         15
    11  C    0.000000
    12  O    7.138119   0.000000
    13  C    8.397569   1.403172   0.000000
    14  C    9.474516   2.359089   1.515540   0.000000
    15  H    5.039446   2.448170   3.850071   4.589178   0.000000
    16  H    2.710891   4.803953   6.169904   7.039514   2.461827
    17  H    3.383733   5.703271   6.585540   7.974543   4.671370
    18  H    3.799411   8.236252   9.095912  10.502492   7.036850
    19  H    3.262172   9.669590  10.742014  12.021301   7.941787
    20  H    1.097632   7.214308   8.547817   9.486741   4.920538
    21  H    8.597987   2.065050   1.103445   2.174276   4.342215
    22  H    8.597866   2.065075   1.103446   2.174310   4.342210
    23  H    9.478267   2.618707   2.158873   1.099347   4.541221
    24  H   10.461261   3.324076   2.167719   1.099915   5.650689
    25  H    9.478369   2.618885   2.158907   1.099348   4.541439
                   16         17         18         19         20
    16  H    0.000000
    17  H    3.800660   0.000000
    18  H    5.581763   2.533324   0.000000
    19  H    5.861476   4.336806   2.504440   0.000000
    20  H    2.459633   4.296390   4.896427   4.134960   0.000000
    21  H    6.524902   6.552560   9.008473  10.770531   8.827270
    22  H    6.524888   6.552194   9.008104  10.770282   8.827227
    23  H    6.971801   8.211984  10.733941  12.134719   9.416016
    24  H    8.085871   8.752065  11.257713  12.899024  10.520890
    25  H    6.972013   8.211847  10.733786  12.134685   9.416200
                   21         22         23         24         25
    21  H    0.000000
    22  H    1.760166   0.000000
    23  H    2.527669   3.084987   0.000000
    24  H    2.520240   2.520377   1.786974   0.000000
    25  H    3.084987   2.527663   1.777132   1.786977   0.000000
 Stoichiometry    C10H11N2O2(1-)
 Framework group  C1[X(C10H11N2O2)]
 Deg. of freedom    69
 Full point group                 C1      NOp   1
 Largest Abelian subgroup         C1      NOp   1
 Largest concise Abelian subgroup C1      NOp   1
                         Standard orientation:                         
 ---------------------------------------------------------------------
 Center     Atomic      Atomic             Coordinates (Angstroms)
 Number     Number       Type             X           Y           Z
 ---------------------------------------------------------------------
      1          8           0       -2.339443    1.509885   -0.000034
      2          6           0       -2.335060    0.293761   -0.000041
      3          6           0       -1.237364   -0.628473    0.000033
      4          7           0        0.009294   -0.185495    0.000015
      5          6           0        1.057841   -0.966967   -0.000004
      6          6           0        2.392344   -0.422389    0.000011
      7          6           0        2.643747    0.968812    0.000065
      8          6           0        3.952127    1.425534    0.000066
      9          6           0        5.003690    0.501152    0.000006
     10          7           0        4.795506   -0.816138   -0.000043
     11          6           0        3.540731   -1.250621   -0.000039
     12          8           0       -3.545379   -0.390508   -0.000087
     13          6           0       -4.688258    0.423566   -0.000159
     14          6           0       -5.902649   -0.483140    0.000201
     15          1           0       -1.478418   -1.702458    0.000091
     16          1           0        0.956082   -2.068249   -0.000045
     17          1           0        1.783737    1.641199    0.000102
     18          1           0        4.168272    2.496607    0.000108
     19          1           0        6.045717    0.839071   -0.000002
     20          1           0        3.400735   -2.339288   -0.000085
     21          1           0       -4.685861    1.088926   -0.880432
     22          1           0       -4.685656    1.089431    0.879733
     23          1           0       -5.895076   -1.130725   -0.888135
     24          1           0       -6.832379    0.104581   -0.000014
     25          1           0       -5.895081   -1.130093    0.888998
 ---------------------------------------------------------------------
 Rotational constants (GHZ):           3.1442170           0.2091285           0.1965673
 Standard basis: def2SVP (5D, 7F)
 There are   265 symmetry adapted cartesian basis functions of A   symmetry.
 There are   251 symmetry adapted basis functions of A   symmetry.
   251 basis functions,   427 primitive gaussians,   265 cartesian basis functions
    51 alpha electrons       51 beta electrons
       nuclear repulsion energy       781.5497465125 Hartrees.
 NAtoms=   25 NActive=   25 NUniq=   25 SFac= 1.00D+00 NAtFMM=   60 NAOKFM=F Big=F
 Integral buffers will be    131072 words long.
 Raffenetti 2 integral format.
 Two-electron integral symmetry is turned on.
 Nuclear repulsion after empirical dispersion term =      781.5489055436 Hartrees.
 One-electron integrals computed using PRISM.
   1 Symmetry operations used in ECPInt.
 ECPInt:  NShTT=    6903 NPrTT=   25191 LenC2=    5987 LenP2D=   15645.
 LDataN:  DoStor=T MaxTD1= 4 Len=   56
 NBasis=   251 RedAO= T EigKep=  6.85D-04  NBF=   251
 NBsUse=   251 1.00D-06 EigRej= -1.00D+00 NBFU=   251
 Initial guess from the checkpoint file:  "A12_crest_conformers_censo-1.chk"
 B after Tr=    -0.000000    0.000000    0.000000
         Rot=    1.000000    0.000000    0.000000   -0.000000 Ang=   0.00 deg.
 Requested convergence on RMS density matrix=1.00D-08 within 128 cycles.
 Requested convergence on MAX density matrix=1.00D-06.
 Requested convergence on             energy=1.00D-06.
 No special actions if energy rises.
 SCF Done:  E(RM062X) =  -646.915863649     A.U. after    1 cycles
            NFock=  1  Conv=0.42D-08     -V/T= 2.0096
 DoSCS=F DFT=T ScalE2(SS,OS)=  1.000000  1.000000
 Range of M.O.s used for correlation:     1   251
 NBasis=   251 NAE=    51 NBE=    51 NFC=     0 NFV=     0
 NROrb=    251 NOA=    51 NOB=    51 NVA=   200 NVB=   200
   1 Symmetry operations used in ECPInt.
 ECPInt:  NShTT=    6903 NPrTT=   25191 LenC2=    5987 LenP2D=   15645.
 LDataN:  DoStor=T MaxTD1= 5 Len=  102
 Symmetrizing basis deriv contribution to polar:
 IMax=3 JMax=2 DiffMx= 0.00D+00
 G2DrvN: will do    26 centers at a time, making    1 passes.
 Calling FoFCou, ICntrl=  3107 FMM=F I1Cent=   0 AccDes= 0.00D+00.
 End of G2Drv F.D. properties file   721 does not exist.
 End of G2Drv F.D. properties file   722 does not exist.
 End of G2Drv F.D. properties file   788 does not exist.
          IDoAtm=1111111111111111111111111
          Differentiating once with respect to electric field.
                with respect to dipole field.
          Differentiating once with respect to nuclear coordinates.
 Keep R1 ints in memory in canonical form, NReq=535170165.
          There are    78 degrees of freedom in the 1st order CPHF.  IDoFFX=6 NUNeed=     3.
     75 vectors produced by pass  0 Test12= 1.31D-14 1.28D-09 XBig12= 3.33D+02 1.57D+01.
 AX will form    75 AO Fock derivatives at one time.
     75 vectors produced by pass  1 Test12= 1.31D-14 1.28D-09 XBig12= 3.40D+01 1.02D+00.
     75 vectors produced by pass  2 Test12= 1.31D-14 1.28D-09 XBig12= 5.75D-01 1.02D-01.
     75 vectors produced by pass  3 Test12= 1.31D-14 1.28D-09 XBig12= 6.67D-03 9.50D-03.
     75 vectors produced by pass  4 Test12= 1.31D-14 1.28D-09 XBig12= 3.77D-05 6.21D-04.
     75 vectors produced by pass  5 Test12= 1.31D-14 1.28D-09 XBig12= 1.26D-07 2.97D-05.
     50 vectors produced by pass  6 Test12= 1.31D-14 1.28D-09 XBig12= 3.25D-10 1.31D-06.
      9 vectors produced by pass  7 Test12= 1.31D-14 1.28D-09 XBig12= 7.19D-13 6.67D-08.
      3 vectors produced by pass  8 Test12= 1.31D-14 1.28D-09 XBig12= 1.68D-15 3.76D-09.
 InvSVY:  IOpt=1 It=  1 EMax= 1.42D-14
 Solved reduced A of dimension   512 with    78 vectors.
 Isotropic polarizability for W=    0.000000      177.13 Bohr**3.
 End of Minotr F.D. properties file   721 does not exist.
 End of Minotr F.D. properties file   722 does not exist.
 End of Minotr F.D. properties file   788 does not exist.

 **********************************************************************

            Population analysis using the SCF Density.

 **********************************************************************

 Orbital symmetries:
       Occupied  (A) (A) (A) (A) (A) (A) (A) (A) (A) (A) (A) (A)
                 (A) (A) (A) (A) (A) (A) (A) (A) (A) (A) (A) (A)
                 (A) (A) (A) (A) (A) (A) (A) (A) (A) (A) (A) (A)
                 (A) (A) (A) (A) (A) (A) (A) (A) (A) (A) (A) (A)
                 (A) (A) (A)
       Virtual   (A) (A) (A) (A) (A) (A) (A) (A) (A) (A) (A) (A)
                 (A) (A) (A) (A) (A) (A) (A) (A) (A) (A) (A) (A)
                 (A) (A) (A) (A) (A) (A) (A) (A) (A) (A) (A) (A)
                 (A) (A) (A) (A) (A) (A) (A) (A) (A) (A) (A) (A)
                 (A) (A) (A) (A) (A) (A) (A) (A) (A) (A) (A) (A)
                 (A) (A) (A) (A) (A) (A) (A) (A) (A) (A) (A) (A)
                 (A) (A) (A) (A) (A) (A) (A) (A) (A) (A) (A) (A)
                 (A) (A) (A) (A) (A) (A) (A) (A) (A) (A) (A) (A)
                 (A) (A) (A) (A) (A) (A) (A) (A) (A) (A) (A) (A)
                 (A) (A) (A) (A) (A) (A) (A) (A) (A) (A) (A) (A)
                 (A) (A) (A) (A) (A) (A) (A) (A) (A) (A) (A) (A)
                 (A) (A) (A) (A) (A) (A) (A) (A) (A) (A) (A) (A)
                 (A) (A) (A) (A) (A) (A) (A) (A) (A) (A) (A) (A)
                 (A) (A) (A) (A) (A) (A) (A) (A) (A) (A) (A) (A)
                 (A) (A) (A) (A) (A) (A) (A) (A) (A) (A) (A) (A)
                 (A) (A) (A) (A) (A) (A) (A) (A) (A) (A) (A) (A)
                 (A) (A) (A) (A) (A) (A) (A) (A)
 The electronic state is 1-A.
 Alpha  occ. eigenvalues --  -19.51204 -19.44152 -14.62317 -14.60305 -10.50548
 Alpha  occ. eigenvalues --  -10.48359 -10.44958 -10.44932 -10.44695 -10.43290
 Alpha  occ. eigenvalues --  -10.42497 -10.42436 -10.40662 -10.39282  -1.05108
 Alpha  occ. eigenvalues --   -0.94930  -0.90568  -0.86003  -0.75602  -0.74236
 Alpha  occ. eigenvalues --   -0.71928  -0.65274  -0.60336  -0.56895  -0.56134
 Alpha  occ. eigenvalues --   -0.51710  -0.47538  -0.45233  -0.43961  -0.43424
 Alpha  occ. eigenvalues --   -0.41127  -0.38935  -0.38662  -0.36727  -0.35853
 Alpha  occ. eigenvalues --   -0.35371  -0.34358  -0.34112  -0.32801  -0.32235
 Alpha  occ. eigenvalues --   -0.30304  -0.28693  -0.27810  -0.26963  -0.21742
 Alpha  occ. eigenvalues --   -0.20678  -0.18915  -0.18458  -0.18414  -0.15862
 Alpha  occ. eigenvalues --   -0.05375
 Alpha virt. eigenvalues --    0.13246   0.15171   0.20269   0.22378   0.23152
 Alpha virt. eigenvalues --    0.25504   0.25686   0.25904   0.26641   0.27742
 Alpha virt. eigenvalues --    0.28482   0.29658   0.31447   0.31856   0.32843
 Alpha virt. eigenvalues --    0.34028   0.34870   0.37853   0.38162   0.40790
 Alpha virt. eigenvalues --    0.44191   0.45423   0.46884   0.48108   0.48664
 Alpha virt. eigenvalues --    0.50670   0.52362   0.55437   0.56174   0.56655
 Alpha virt. eigenvalues --    0.56744   0.58295   0.60018   0.61159   0.62755
 Alpha virt. eigenvalues --    0.63851   0.64136   0.67257   0.67341   0.67609
 Alpha virt. eigenvalues --    0.68298   0.69199   0.70645   0.71627   0.72629
 Alpha virt. eigenvalues --    0.75887   0.77175   0.78425   0.78436   0.79741
 Alpha virt. eigenvalues --    0.80559   0.80844   0.82506   0.82631   0.82880
 Alpha virt. eigenvalues --    0.83237   0.83956   0.84420   0.84969   0.85331
 Alpha virt. eigenvalues --    0.86391   0.87075   0.87768   0.89389   0.89526
 Alpha virt. eigenvalues --    0.91584   0.93019   0.93165   0.94483   0.96848
 Alpha virt. eigenvalues --    0.98338   0.99920   1.02017   1.04649   1.07422
 Alpha virt. eigenvalues --    1.07575   1.07995   1.09762   1.14351   1.19306
 Alpha virt. eigenvalues --    1.22330   1.23802   1.24275   1.27612   1.29484
 Alpha virt. eigenvalues --    1.29681   1.32407   1.36410   1.37094   1.37257
 Alpha virt. eigenvalues --    1.39761   1.41686   1.43569   1.44480   1.45470
 Alpha virt. eigenvalues --    1.46025   1.47327   1.49660   1.51218   1.51421
 Alpha virt. eigenvalues --    1.53415   1.53580   1.55137   1.58954   1.59484
 Alpha virt. eigenvalues --    1.67497   1.69322   1.71819   1.72530   1.78308
 Alpha virt. eigenvalues --    1.79948   1.82915   1.85439   1.89014   1.89354
 Alpha virt. eigenvalues --    1.90788   1.91727   1.91881   1.92077   1.92196
 Alpha virt. eigenvalues --    1.93953   1.95359   1.96689   1.96907   1.97382
 Alpha virt. eigenvalues --    1.97808   1.98634   1.99429   2.02609   2.04408
 Alpha virt. eigenvalues --    2.05586   2.07638   2.08275   2.10455   2.10868
 Alpha virt. eigenvalues --    2.12438   2.13891   2.15619   2.15928   2.18085
 Alpha virt. eigenvalues --    2.20489   2.21717   2.24351   2.27187   2.28500
 Alpha virt. eigenvalues --    2.29852   2.30115   2.31282   2.33245   2.37366
 Alpha virt. eigenvalues --    2.39564   2.43063   2.45261   2.49331   2.51038
 Alpha virt. eigenvalues --    2.51833   2.52822   2.56970   2.57288   2.60211
 Alpha virt. eigenvalues --    2.60749   2.62632   2.67023   2.68778   2.71079
 Alpha virt. eigenvalues --    2.74367   2.76823   2.81134   2.82011   2.83241
 Alpha virt. eigenvalues --    2.83245   2.86896   2.87406   2.89434   2.91582
 Alpha virt. eigenvalues --    2.95762   2.97657   2.99274   3.00655   3.02427
 Alpha virt. eigenvalues --    3.02909   3.05630   3.06357   3.07834   3.10777
 Alpha virt. eigenvalues --    3.14745   3.15516   3.20669   3.21907   3.27348
 Alpha virt. eigenvalues --    3.30200   3.35842   3.42635   3.45071   3.54183
 Alpha virt. eigenvalues --    3.59931   3.66618   3.77408   3.83872   3.91391
          Condensed to atoms (all electrons):
               1          2          3          4          5          6
     1  O    7.805447   0.694849  -0.092218   0.000954   0.000174   0.000037
     2  C    0.694849   4.612967   0.296609  -0.069162   0.012398   0.000011
     3  C   -0.092218   0.296609   5.294289   0.486950  -0.112942   0.017806
     4  N    0.000954  -0.069162   0.486950   6.254870   0.580260  -0.114149
     5  C    0.000174   0.012398  -0.112942   0.580260   5.118265   0.246839
     6  C    0.000037   0.000011   0.017806  -0.114149   0.246839   5.387349
     7  C   -0.000072  -0.000214   0.000276   0.007727  -0.069970   0.340198
     8  C   -0.000000  -0.000007   0.000002   0.001193   0.016411   0.012153
     9  C    0.000000   0.000000  -0.000001  -0.000009   0.001161  -0.069167
    10  N   -0.000000   0.000000   0.000002  -0.000058   0.006223  -0.035000
    11  C    0.000000   0.000003  -0.000074   0.003349  -0.079491   0.436544
    12  O   -0.095313   0.288469  -0.106300   0.001981  -0.000090  -0.000000
    13  C   -0.000944  -0.040428   0.007829  -0.000163   0.000012  -0.000000
    14  C    0.002562   0.009611   0.000771   0.000000  -0.000000  -0.000000
    15  H    0.003403  -0.077048   0.388803  -0.042757  -0.012294  -0.001260
    16  H   -0.000017  -0.001357  -0.016663  -0.051632   0.413651  -0.113657
    17  H    0.000498  -0.000290  -0.000983   0.027996  -0.020662  -0.060909
    18  H   -0.000000   0.000000   0.000000  -0.000029  -0.000245   0.013343
    19  H   -0.000000  -0.000000   0.000000  -0.000000   0.000086   0.001292
    20  H   -0.000000  -0.000001  -0.000012  -0.000006  -0.009090  -0.072634
    21  H    0.011967  -0.003588   0.001096   0.000004  -0.000001   0.000000
    22  H    0.011990  -0.003597   0.001098   0.000004  -0.000001   0.000000
    23  H   -0.000052  -0.000312  -0.000148   0.000000   0.000000   0.000000
    24  H    0.000049  -0.000064   0.000015  -0.000000   0.000000  -0.000000
    25  H   -0.000052  -0.000312  -0.000148   0.000000   0.000000   0.000000
               7          8          9         10         11         12
     1  O   -0.000072  -0.000000   0.000000  -0.000000   0.000000  -0.095313
     2  C   -0.000214  -0.000007   0.000000   0.000000   0.000003   0.288469
     3  C    0.000276   0.000002  -0.000001   0.000002  -0.000074  -0.106300
     4  N    0.007727   0.001193  -0.000009  -0.000058   0.003349   0.001981
     5  C   -0.069970   0.016411   0.001161   0.006223  -0.079491  -0.000090
     6  C    0.340198   0.012153  -0.069167  -0.035000   0.436544  -0.000000
     7  C    5.025737   0.385428  -0.002161  -0.052083  -0.037802  -0.000000
     8  C    0.385428   5.049035   0.412769  -0.038735  -0.067452  -0.000000
     9  C   -0.002161   0.412769   4.867665   0.520061  -0.084949   0.000000
    10  N   -0.052083  -0.038735   0.520061   6.314224   0.540383   0.000000
    11  C   -0.037802  -0.067452  -0.084949   0.540383   4.899407  -0.000000
    12  O   -0.000000  -0.000000   0.000000   0.000000  -0.000000   8.143757
    13  C    0.000000  -0.000000   0.000000  -0.000000   0.000000   0.289490
    14  C    0.000000   0.000000  -0.000000   0.000000  -0.000000  -0.060330
    15  H    0.000269   0.000005  -0.000000  -0.000000  -0.000014   0.011559
    16  H    0.017573  -0.000375   0.000052   0.000089  -0.012100   0.000004
    17  H    0.443181  -0.071183   0.010149  -0.000433   0.011407   0.000004
    18  H   -0.064886   0.415996  -0.057524   0.006945   0.000072  -0.000000
    19  H    0.006948  -0.076132   0.415285  -0.045516   0.004864   0.000000
    20  H    0.008903   0.001147   0.005179  -0.044975   0.411864   0.000000
    21  H    0.000000  -0.000000  -0.000000   0.000000   0.000000  -0.036090
    22  H    0.000000  -0.000000  -0.000000   0.000000   0.000000  -0.036087
    23  H   -0.000000   0.000000   0.000000   0.000000   0.000000   0.004213
    24  H    0.000000   0.000000  -0.000000  -0.000000   0.000000   0.004001
    25  H   -0.000000   0.000000   0.000000   0.000000   0.000000   0.004213
              13         14         15         16         17         18
     1  O   -0.000944   0.002562   0.003403  -0.000017   0.000498  -0.000000
     2  C   -0.040428   0.009611  -0.077048  -0.001357  -0.000290   0.000000
     3  C    0.007829   0.000771   0.388803  -0.016663  -0.000983   0.000000
     4  N   -0.000163   0.000000  -0.042757  -0.051632   0.027996  -0.000029
     5  C    0.000012  -0.000000  -0.012294   0.413651  -0.020662  -0.000245
     6  C   -0.000000  -0.000000  -0.001260  -0.113657  -0.060909   0.013343
     7  C    0.000000   0.000000   0.000269   0.017573   0.443181  -0.064886
     8  C   -0.000000   0.000000   0.000005  -0.000375  -0.071183   0.415996
     9  C    0.000000  -0.000000  -0.000000   0.000052   0.010149  -0.057524
    10  N   -0.000000   0.000000  -0.000000   0.000089  -0.000433   0.006945
    11  C    0.000000  -0.000000  -0.000014  -0.012100   0.011407   0.000072
    12  O    0.289490  -0.060330   0.011559   0.000004   0.000004  -0.000000
    13  C    4.466886   0.383127  -0.000279   0.000002  -0.000000   0.000000
    14  C    0.383127   4.690219  -0.000367   0.000000  -0.000000   0.000000
    15  H   -0.000279  -0.000367   0.755930   0.016934   0.000272  -0.000000
    16  H    0.000002   0.000000   0.016934   0.801352   0.001524   0.000006
    17  H   -0.000000  -0.000000   0.000272   0.001524   0.646492  -0.011239
    18  H    0.000000   0.000000  -0.000000   0.000006  -0.011239   0.716666
    19  H    0.000000   0.000000   0.000000   0.000001  -0.000272  -0.007351
    20  H    0.000000  -0.000000   0.000025   0.008457  -0.000269   0.000092
    21  H    0.392082  -0.034028  -0.000025  -0.000000  -0.000000   0.000000
    22  H    0.392084  -0.034026  -0.000025  -0.000000  -0.000000   0.000000
    23  H   -0.014830   0.375064   0.000076  -0.000000   0.000000  -0.000000
    24  H   -0.018555   0.371012   0.000003  -0.000000  -0.000000   0.000000
    25  H   -0.014838   0.375078   0.000076  -0.000000   0.000000  -0.000000
              19         20         21         22         23         24
     1  O   -0.000000  -0.000000   0.011967   0.011990  -0.000052   0.000049
     2  C   -0.000000  -0.000001  -0.003588  -0.003597  -0.000312  -0.000064
     3  C    0.000000  -0.000012   0.001096   0.001098  -0.000148   0.000015
     4  N   -0.000000  -0.000006   0.000004   0.000004   0.000000  -0.000000
     5  C    0.000086  -0.009090  -0.000001  -0.000001   0.000000   0.000000
     6  C    0.001292  -0.072634   0.000000   0.000000   0.000000  -0.000000
     7  C    0.006948   0.008903   0.000000   0.000000  -0.000000   0.000000
     8  C   -0.076132   0.001147  -0.000000  -0.000000   0.000000   0.000000
     9  C    0.415285   0.005179  -0.000000  -0.000000   0.000000  -0.000000
    10  N   -0.045516  -0.044975   0.000000   0.000000   0.000000  -0.000000
    11  C    0.004864   0.411864   0.000000   0.000000   0.000000   0.000000
    12  O    0.000000   0.000000  -0.036090  -0.036087   0.004213   0.004001
    13  C    0.000000   0.000000   0.392082   0.392084  -0.014830  -0.018555
    14  C    0.000000  -0.000000  -0.034028  -0.034026   0.375064   0.371012
    15  H    0.000000   0.000025  -0.000025  -0.000025   0.000076   0.000003
    16  H    0.000001   0.008457  -0.000000  -0.000000  -0.000000  -0.000000
    17  H   -0.000272  -0.000269  -0.000000  -0.000000   0.000000  -0.000000
    18  H   -0.007351   0.000092   0.000000   0.000000  -0.000000   0.000000
    19  H    0.715443  -0.000402  -0.000000  -0.000000  -0.000000  -0.000000
    20  H   -0.000402   0.704352   0.000000   0.000000   0.000000   0.000000
    21  H   -0.000000   0.000000   0.710804  -0.051811  -0.012885  -0.001673
    22  H   -0.000000   0.000000  -0.051811   0.710755   0.009630  -0.001671
    23  H   -0.000000   0.000000  -0.012885   0.009630   0.654347  -0.021859
    24  H   -0.000000   0.000000  -0.001673  -0.001671  -0.021859   0.676022
    25  H   -0.000000   0.000000   0.009630  -0.012886  -0.028631  -0.021859
              25
     1  O   -0.000052
     2  C   -0.000312
     3  C   -0.000148
     4  N    0.000000
     5  C    0.000000
     6  C    0.000000
     7  C   -0.000000
     8  C    0.000000
     9  C    0.000000
    10  N    0.000000
    11  C    0.000000
    12  O    0.004213
    13  C   -0.014838
    14  C    0.375078
    15  H    0.000076
    16  H   -0.000000
    17  H    0.000000
    18  H   -0.000000
    19  H   -0.000000
    20  H    0.000000
    21  H    0.009630
    22  H   -0.012886
    23  H   -0.028631
    24  H   -0.021859
    25  H    0.654340
 Mulliken charges:
               1
     1  O   -0.343260
     2  C    0.281462
     3  C   -0.166058
     4  N   -0.087326
     5  C   -0.090695
     6  C    0.011205
     7  C   -0.009052
     8  C   -0.040257
     9  C   -0.018511
    10  N   -0.171126
    11  C   -0.026010
    12  O   -0.413481
    13  C    0.158524
    14  C   -0.078693
    15  H   -0.043286
    16  H   -0.063844
    17  H    0.024717
    18  H   -0.011847
    19  H   -0.014246
    20  H   -0.012630
    21  H    0.014517
    22  H    0.014543
    23  H    0.035387
    24  H    0.014577
    25  H    0.035388
 Sum of Mulliken charges =  -1.00000
 Mulliken charges with hydrogens summed into heavy atoms:
               1
     1  O   -0.343260
     2  C    0.281462
     3  C   -0.209344
     4  N   -0.087326
     5  C   -0.154540
     6  C    0.011205
     7  C    0.015665
     8  C   -0.052103
     9  C   -0.032756
    10  N   -0.171126
    11  C   -0.038640
    12  O   -0.413481
    13  C    0.187585
    14  C    0.006660
 APT charges:
               1
     1  O   -0.963418
     2  C    2.038216
     3  C   -1.274572
     4  N    0.957053
     5  C   -0.960360
     6  C    0.797943
     7  C   -0.228505
     8  C    0.140324
     9  C   -0.159849
    10  N   -0.188159
    11  C   -0.210347
    12  O   -1.376955
    13  C    0.730227
    14  C    0.030546
    15  H   -0.032391
    16  H   -0.065355
    17  H    0.066316
    18  H    0.001283
    19  H   -0.031475
    20  H   -0.009928
    21  H   -0.089590
    22  H   -0.089498
    23  H   -0.012908
    24  H   -0.055683
    25  H   -0.012915
 Sum of APT charges =  -1.00000
 APT charges with hydrogens summed into heavy atoms:
               1
     1  O   -0.963418
     2  C    2.038216
     3  C   -1.306963
     4  N    0.957053
     5  C   -1.025716
     6  C    0.797943
     7  C   -0.162190
     8  C    0.141607
     9  C   -0.191323
    10  N   -0.188159
    11  C   -0.220276
    12  O   -1.376955
    13  C    0.551139
    14  C   -0.050959
 Electronic spatial extent (au):  <R**2>=           5293.2211
 Charge=             -1.0000 electrons
 Dipole moment (field-independent basis, Debye):
    X=             -2.8139    Y=             -0.1976    Z=              0.0001  Tot=              2.8208
 Quadrupole moment (field-independent basis, Debye-Ang):
   XX=           -132.4698   YY=            -90.6071   ZZ=            -87.2971
   XY=              9.3572   XZ=              0.0004   YZ=              0.0002
 Traceless Quadrupole moment (field-independent basis, Debye-Ang):
   XX=            -29.0118   YY=             12.8509   ZZ=             16.1609
   XY=              9.3572   XZ=              0.0004   YZ=              0.0002
 Octapole moment (field-independent basis, Debye-Ang**2):
  XXX=           -174.7117  YYY=             -1.0924  ZZZ=             -0.0007  XYY=              0.7996
  XXY=             47.9679  XXZ=             -0.0001  XZZ=            -20.9877  YZZ=              2.2052
  YYZ=              0.0003  XYZ=             -0.0004
 Hexadecapole moment (field-independent basis, Debye-Ang**3):
 XXXX=          -7739.0994 YYYY=           -537.5925 ZZZZ=           -103.6634 XXXY=            163.5553
 XXXZ=              0.0260 YYYX=             22.3127 YYYZ=              0.0033 ZZZX=             -0.0009
 ZZZY=             -0.0014 XXYY=          -1273.5905 XXZZ=          -1161.1619 YYZZ=           -111.5272
 XXYZ=              0.0013 YYXZ=              0.0013 ZZXY=             -8.3286
 N-N= 7.815489055436D+02 E-N=-3.083878630745D+03  KE= 6.407862439652D+02
  Exact polarizability:     332.630       3.402     130.228       0.001       0.001      68.537
 Approx polarizability:     340.948      -4.347     177.329       0.000       0.002      90.552
   1 Symmetry operations used in ECPInt.
 ECPInt:  NShTT=    6903 NPrTT=   25191 LenC2=    5987 LenP2D=   15645.
 LDataN:  DoStor=T MaxTD1= 6 Len=  172
 Calling FoFJK, ICntrl=    100127 FMM=F ISym2X=0 I1Cent= 0 IOpClX= 0 NMat=1 NMatS=1 NMatT=0.
 Full mass-weighted force constant matrix:
 Low frequencies ---   -8.1240   -5.8899   -0.0012   -0.0005    0.0010    2.0596
 Low frequencies ---   34.3186   48.5781   59.3635
 Diagonal vibrational polarizability:
      119.7958810      17.5471801      65.0687704
 Harmonic frequencies (cm**-1), IR intensities (KM/Mole), Raman scattering
 activities (A**4/AMU), depolarization ratios for plane and unpolarized
 incident light, reduced masses (AMU), force constants (mDyne/A),
 and normal coordinates:
                      1                      2                      3
                      A                      A                      A
 Frequencies --     34.2813                48.5598                59.3149
 Red. masses --      3.9664                 5.1016                 2.9180
 Frc consts  --      0.0027                 0.0071                 0.0060
 IR Inten    --      1.7945                 1.5285                 0.1814
  Atom  AN      X      Y      Z        X      Y      Z        X      Y      Z
     1   8    -0.00   0.00  -0.14     0.16  -0.09  -0.00    -0.00   0.00   0.10
     2   6    -0.00   0.00  -0.12     0.05  -0.09  -0.00    -0.00   0.00  -0.00
     3   6     0.00   0.00  -0.15    -0.01  -0.17  -0.00     0.00   0.00  -0.10
     4   7    -0.00   0.00  -0.14     0.00  -0.20  -0.00    -0.00   0.00  -0.09
     5   6    -0.00   0.00  -0.12     0.03  -0.16  -0.00    -0.00   0.00  -0.08
     6   6     0.00   0.00  -0.05    -0.01  -0.07  -0.00     0.00   0.00  -0.05
     7   6     0.00   0.00   0.02    -0.13  -0.05  -0.00     0.00   0.00  -0.16
     8   6     0.00  -0.00   0.12    -0.18   0.07   0.00     0.00  -0.00  -0.11
     9   6     0.00  -0.00   0.15    -0.09   0.16   0.00     0.00  -0.00   0.07
    10   7    -0.00  -0.00   0.09     0.03   0.15   0.00     0.00  -0.00   0.18
    11   6    -0.00  -0.00  -0.01     0.06   0.03   0.00    -0.00  -0.00   0.12
    12   8    -0.00   0.00  -0.05    -0.00   0.01   0.00    -0.00   0.00  -0.01
    13   6    -0.00  -0.00   0.04     0.08   0.12   0.00    -0.00   0.00   0.19
    14   6     0.00  -0.00   0.33    -0.02   0.25   0.00    -0.00  -0.00  -0.07
    15   1     0.00   0.00  -0.15    -0.05  -0.16  -0.00     0.00   0.00  -0.12
    16   1    -0.00   0.00  -0.14     0.08  -0.17  -0.00    -0.00   0.00  -0.06
    17   1     0.00   0.00  -0.01    -0.20  -0.13  -0.00     0.00   0.00  -0.29
    18   1     0.00  -0.00   0.17    -0.27   0.09   0.00     0.00  -0.00  -0.20
    19   1     0.00  -0.00   0.23    -0.12   0.26   0.00     0.00  -0.00   0.12
    20   1    -0.00  -0.00  -0.05     0.17   0.02   0.00    -0.00  -0.00   0.21
    21   1    -0.14  -0.09  -0.03     0.14   0.12   0.00     0.01   0.23   0.36
    22   1     0.14   0.09  -0.03     0.14   0.12  -0.00    -0.01  -0.23   0.36
    23   1    -0.14  -0.10   0.41    -0.09   0.25  -0.00     0.00   0.25  -0.25
    24   1    -0.00  -0.00   0.41     0.04   0.35   0.00    -0.00  -0.00   0.10
    25   1     0.14   0.10   0.41    -0.09   0.25   0.00    -0.00  -0.25  -0.25
                      4                      5                      6
                      A                      A                      A
 Frequencies --     84.9407               102.3311               145.4683
 Red. masses --      4.5505                 3.0992                 4.4160
 Frc consts  --      0.0193                 0.0191                 0.0551
 IR Inten    --      2.8928                 1.7779                 4.3262
  Atom  AN      X      Y      Z        X      Y      Z        X      Y      Z
     1   8     0.00   0.00   0.32    -0.00  -0.00   0.05    -0.06  -0.17   0.00
     2   6     0.00   0.00   0.04    -0.00  -0.00   0.11    -0.06  -0.17  -0.00
     3   6    -0.00  -0.00  -0.04     0.00  -0.00   0.04    -0.00  -0.10  -0.00
     4   7    -0.00  -0.00   0.05     0.00   0.00  -0.06    -0.04   0.03   0.00
     5   6    -0.00  -0.00   0.01     0.00   0.00  -0.15     0.03   0.12   0.00
     6   6    -0.00  -0.00   0.02     0.00   0.00  -0.13     0.03   0.13   0.00
     7   6    -0.00  -0.00  -0.08     0.00   0.00  -0.12     0.13   0.11   0.00
     8   6    -0.00   0.00  -0.11     0.00   0.00   0.01     0.17   0.02  -0.00
     9   6    -0.00   0.00  -0.04     0.00  -0.00   0.13     0.10  -0.05  -0.00
    10   7    -0.00   0.00   0.06     0.00  -0.00   0.09     0.01  -0.04  -0.00
    11   6     0.00  -0.00   0.08     0.00   0.00  -0.05    -0.02   0.06   0.00
    12   8     0.00   0.00  -0.24    -0.00  -0.00   0.22    -0.08  -0.14  -0.00
    13   6    -0.00  -0.00  -0.22     0.00  -0.00  -0.13    -0.00  -0.00  -0.00
    14   6     0.00   0.00   0.13    -0.00   0.00  -0.05    -0.16   0.22   0.00
    15   1    -0.00  -0.00  -0.21     0.00  -0.00   0.06     0.10  -0.13  -0.00
    16   1    -0.00  -0.00  -0.05     0.00   0.00  -0.16     0.10   0.11  -0.00
    17   1    -0.00  -0.00  -0.13     0.00   0.00  -0.19     0.18   0.19   0.00
    18   1    -0.00   0.00  -0.19     0.00  -0.00   0.04     0.24   0.00  -0.00
    19   1    -0.00   0.00  -0.06     0.00  -0.00   0.25     0.13  -0.12  -0.00
    20   1     0.00  -0.00   0.16    -0.00   0.00  -0.07    -0.10   0.07   0.00
    21   1    -0.14  -0.16  -0.35     0.11  -0.23  -0.30     0.10   0.00   0.01
    22   1     0.14   0.16  -0.35    -0.11   0.23  -0.30     0.10   0.00  -0.01
    23   1    -0.12  -0.20   0.27     0.15  -0.27   0.14    -0.31   0.22  -0.00
    24   1     0.00  -0.00   0.13    -0.00  -0.00  -0.39    -0.04   0.42   0.00
    25   1     0.12   0.20   0.27    -0.15   0.27   0.14    -0.31   0.22   0.00
                      7                      8                      9
                      A                      A                      A
 Frequencies --    185.5242               245.9692               269.9145
 Red. masses --      3.9106                 5.9273                 1.2598
 Frc consts  --      0.0793                 0.2113                 0.0541
 IR Inten    --      0.1629                 0.7623                 0.3106
  Atom  AN      X      Y      Z        X      Y      Z        X      Y      Z
     1   8     0.00  -0.00  -0.06     0.27  -0.08  -0.00    -0.00  -0.00  -0.00
     2   6    -0.00  -0.00   0.03     0.09  -0.08  -0.00     0.00  -0.00   0.03
     3   6    -0.00  -0.00   0.30    -0.01  -0.14  -0.00     0.00   0.00   0.01
     4   7    -0.00  -0.00   0.13    -0.08  -0.00  -0.00     0.00   0.00  -0.02
     5   6    -0.00   0.00   0.02    -0.05   0.09  -0.00    -0.00   0.00  -0.06
     6   6    -0.00   0.00  -0.14    -0.13   0.18   0.00    -0.00  -0.00  -0.00
     7   6     0.00   0.00  -0.17    -0.05   0.17   0.00    -0.00  -0.00   0.03
     8   6     0.00   0.00   0.02     0.00   0.02  -0.00    -0.00  -0.00   0.00
     9   6     0.00  -0.00   0.17    -0.10  -0.10  -0.00    -0.00  -0.00  -0.04
    10   7    -0.00  -0.00   0.02    -0.21  -0.08   0.00    -0.00  -0.00   0.01
    11   6    -0.00   0.00  -0.17    -0.24   0.06   0.00    -0.00  -0.00   0.04
    12   8     0.00  -0.00  -0.17     0.07   0.03   0.00     0.00  -0.00   0.07
    13   6     0.00   0.00  -0.00     0.11   0.05   0.00     0.00  -0.00  -0.08
    14   6     0.00   0.00   0.02     0.20  -0.06  -0.00     0.00   0.00  -0.00
    15   1     0.00  -0.00   0.39     0.04  -0.15  -0.00     0.00   0.00   0.02
    16   1     0.00   0.00   0.08     0.05   0.08  -0.00    -0.00   0.00  -0.09
    17   1     0.00   0.00  -0.24     0.01   0.25   0.00    -0.00  -0.00   0.06
    18   1     0.00  -0.00   0.08     0.14  -0.01  -0.00    -0.00  -0.00   0.00
    19   1     0.00  -0.00   0.39    -0.06  -0.20  -0.00    -0.00   0.00  -0.08
    20   1    -0.00   0.00  -0.27    -0.39   0.08   0.00    -0.00  -0.00   0.07
    21   1    -0.08   0.09   0.06     0.10   0.04  -0.01     0.03  -0.10  -0.16
    22   1     0.08  -0.09   0.06     0.10   0.04   0.01    -0.03   0.10  -0.16
    23   1    -0.18   0.19  -0.11     0.31  -0.07   0.00    -0.36   0.31  -0.23
    24   1     0.00   0.00   0.33     0.11  -0.20  -0.00     0.00   0.00   0.57
    25   1     0.18  -0.19  -0.11     0.31  -0.07  -0.00     0.36  -0.31  -0.23
                     10                     11                     12
                      A                      A                      A
 Frequencies --    277.7665               297.0312               323.4807
 Red. masses --      5.1017                 3.5138                 2.7063
 Frc consts  --      0.2319                 0.1827                 0.1669
 IR Inten    --      2.5967                 0.0367                10.5191
  Atom  AN      X      Y      Z        X      Y      Z        X      Y      Z
     1   8    -0.14  -0.02   0.00     0.00   0.00   0.05     0.00   0.00  -0.06
     2   6     0.05  -0.02  -0.00     0.00   0.00  -0.05     0.00   0.00  -0.03
     3   6     0.13   0.14  -0.00     0.00   0.00  -0.22    -0.00  -0.00  -0.11
     4   7     0.09   0.21   0.00     0.00  -0.00  -0.02     0.00   0.00   0.33
     5   6    -0.03   0.06   0.00     0.00  -0.00   0.31    -0.00   0.00  -0.05
     6   6    -0.04  -0.05   0.00    -0.00   0.00   0.06     0.00  -0.00   0.01
     7   6    -0.11  -0.05  -0.00    -0.00   0.00  -0.13    -0.00  -0.00  -0.03
     8   6    -0.14  -0.02  -0.00    -0.00   0.00  -0.01    -0.00   0.00  -0.05
     9   6    -0.13  -0.02   0.00    -0.00  -0.00   0.14     0.00   0.00   0.02
    10   7    -0.08  -0.02  -0.00    -0.00  -0.00  -0.07     0.00   0.00   0.02
    11   6    -0.07  -0.06  -0.00    -0.00   0.00  -0.14     0.00  -0.00  -0.02
    12   8     0.16  -0.19  -0.00     0.00   0.00   0.10    -0.00   0.00   0.04
    13   6     0.23  -0.10   0.00     0.00  -0.00  -0.04    -0.00  -0.00   0.01
    14   6     0.07   0.14   0.00     0.00  -0.00  -0.01    -0.00  -0.00   0.00
    15   1     0.24   0.11  -0.00    -0.00   0.00  -0.20    -0.00  -0.00  -0.65
    16   1    -0.20   0.08   0.00     0.00  -0.00   0.53    -0.00   0.00  -0.65
    17   1    -0.15  -0.10  -0.00    -0.00   0.00  -0.24    -0.00  -0.00  -0.08
    18   1    -0.15  -0.02  -0.00     0.00  -0.00  -0.03    -0.00   0.00  -0.11
    19   1    -0.14   0.01   0.00    -0.00  -0.00   0.33     0.00   0.00   0.06
    20   1    -0.06  -0.06  -0.00    -0.00   0.00  -0.31     0.00  -0.00  -0.05
    21   1     0.32  -0.09   0.01     0.05  -0.09  -0.11     0.02  -0.01   0.00
    22   1     0.32  -0.09  -0.01    -0.05   0.09  -0.11    -0.02   0.01   0.00
    23   1    -0.10   0.14  -0.00    -0.15   0.12  -0.10    -0.01   0.01  -0.01
    24   1     0.22   0.37  -0.00     0.00   0.00   0.23    -0.00   0.00   0.01
    25   1    -0.10   0.14   0.00     0.15  -0.12  -0.10     0.01  -0.01  -0.01
                     13                     14                     15
                      A                      A                      A
 Frequencies --    388.5765               423.8805               432.0439
 Red. masses --      4.4664                 4.5068                 3.2789
 Frc consts  --      0.3973                 0.4771                 0.3606
 IR Inten    --     13.7935                 1.1838                 1.3031
  Atom  AN      X      Y      Z        X      Y      Z        X      Y      Z
     1   8     0.31   0.02  -0.00     0.08  -0.17   0.00     0.00  -0.00  -0.00
     2   6     0.09   0.02  -0.00    -0.07  -0.16   0.00    -0.00  -0.00  -0.00
     3   6     0.09   0.04   0.00     0.03  -0.02  -0.00     0.00  -0.00  -0.01
     4   7     0.06   0.13  -0.00    -0.04   0.27  -0.00    -0.00   0.00   0.04
     5   6     0.01   0.06  -0.00    -0.09   0.16   0.00    -0.00   0.00   0.00
     6   6     0.01  -0.02  -0.00     0.03  -0.11   0.00     0.00  -0.00  -0.04
     7   6    -0.03  -0.02   0.00     0.01  -0.12   0.00    -0.00   0.00  -0.23
     8   6    -0.05  -0.01  -0.00    -0.05  -0.02  -0.00    -0.00  -0.00   0.26
     9   6    -0.05  -0.01  -0.00     0.01   0.04   0.00    -0.00   0.00  -0.04
    10   7    -0.02  -0.01   0.00     0.07   0.03   0.00     0.00   0.00  -0.19
    11   6    -0.01  -0.03  -0.00     0.09  -0.08  -0.00     0.00  -0.00   0.20
    12   8     0.02   0.02  -0.00    -0.14   0.03   0.00    -0.00   0.00   0.00
    13   6    -0.13  -0.16   0.00    -0.06   0.17  -0.00    -0.00   0.00   0.00
    14   6    -0.29  -0.05   0.00     0.10  -0.02  -0.00     0.00  -0.00   0.00
    15   1     0.18   0.02   0.00     0.31  -0.08   0.00     0.00  -0.00  -0.08
    16   1    -0.09   0.07   0.00    -0.31   0.19   0.00    -0.00   0.00   0.00
    17   1    -0.06  -0.05   0.00    -0.03  -0.18   0.00    -0.00   0.00  -0.44
    18   1    -0.05  -0.01  -0.00    -0.14  -0.01  -0.00    -0.00  -0.00   0.56
    19   1    -0.05   0.01   0.00    -0.01   0.10   0.00    -0.00   0.00  -0.15
    20   1    -0.00  -0.03  -0.00     0.19  -0.09  -0.00     0.00  -0.00   0.51
    21   1    -0.20  -0.16   0.00    -0.04   0.15  -0.01     0.00   0.00   0.00
    22   1    -0.20  -0.16  -0.00    -0.04   0.15   0.01    -0.00  -0.00   0.00
    23   1    -0.49  -0.04  -0.01     0.33  -0.03   0.01     0.00   0.00  -0.00
    24   1    -0.13   0.20  -0.00    -0.09  -0.32   0.00    -0.00  -0.00  -0.00
    25   1    -0.49  -0.04   0.01     0.33  -0.03  -0.01    -0.00  -0.00  -0.00
                     16                     17                     18
                      A                      A                      A
 Frequencies --    527.5338               546.7173               626.4573
 Red. masses --      6.0719                 3.5222                 7.8197
 Frc consts  --      0.9956                 0.6203                 1.8081
 IR Inten    --      2.2883                 0.0909                 3.1432
  Atom  AN      X      Y      Z        X      Y      Z        X      Y      Z
     1   8    -0.12  -0.08  -0.00     0.00   0.00  -0.01     0.03   0.04  -0.00
     2   6     0.02  -0.07   0.00    -0.00   0.00   0.03    -0.03   0.03   0.00
     3   6     0.23   0.04   0.00    -0.00  -0.00   0.06    -0.12  -0.05  -0.00
     4   7     0.28  -0.03   0.00    -0.00   0.00  -0.07    -0.14   0.00  -0.00
     5   6     0.27  -0.04  -0.00    -0.00  -0.00  -0.14    -0.00   0.16   0.00
     6   6     0.13   0.10   0.00    -0.00  -0.00   0.35     0.05   0.15   0.00
     7   6    -0.12   0.14   0.00     0.00  -0.00  -0.02    -0.30   0.15   0.00
     8   6    -0.11   0.02  -0.00     0.00   0.00  -0.06    -0.19  -0.24  -0.00
     9   6    -0.18  -0.09   0.00     0.00  -0.00   0.16    -0.03  -0.12  -0.00
    10   7    -0.03  -0.12  -0.00    -0.00   0.00  -0.19     0.39  -0.21  -0.00
    11   6    -0.02  -0.03   0.00     0.00   0.00   0.06     0.21   0.14   0.00
    12   8    -0.11   0.07   0.00     0.00  -0.00  -0.01     0.03  -0.02  -0.00
    13   6    -0.14   0.15  -0.00     0.00  -0.00  -0.00     0.05  -0.05   0.00
    14   6    -0.04  -0.02   0.00     0.00   0.00   0.00     0.03   0.01  -0.00
    15   1     0.29   0.02   0.00    -0.00   0.00   0.16    -0.18  -0.03   0.00
    16   1     0.36  -0.05  -0.00    -0.00   0.00  -0.38     0.08   0.15   0.00
    17   1    -0.20   0.04  -0.00     0.00   0.00  -0.52    -0.29   0.16   0.00
    18   1     0.08  -0.02  -0.00    -0.00   0.00  -0.45     0.06  -0.29  -0.00
    19   1    -0.20  -0.04   0.00     0.00  -0.00   0.21    -0.16   0.28   0.00
    20   1    -0.21  -0.01  -0.00     0.00   0.00  -0.32    -0.01   0.18   0.00
    21   1    -0.16   0.14  -0.01    -0.01   0.01   0.00     0.05  -0.05   0.00
    22   1    -0.16   0.14   0.01     0.01  -0.01   0.00     0.05  -0.05  -0.00
    23   1     0.13  -0.03   0.01    -0.00  -0.00   0.00    -0.03   0.01  -0.00
    24   1    -0.19  -0.25   0.00     0.00   0.00  -0.00     0.08   0.09  -0.00
    25   1     0.13  -0.03  -0.01     0.00   0.00   0.00    -0.03   0.01   0.00
                     19                     20                     21
                      A                      A                      A
 Frequencies --    679.6224               738.7091               753.9474
 Red. masses --      6.0376                 1.8734                 1.6074
 Frc consts  --      1.6430                 0.6023                 0.5383
 IR Inten    --     16.4501                17.5114                 1.6775
  Atom  AN      X      Y      Z        X      Y      Z        X      Y      Z
     1   8     0.02  -0.06   0.00    -0.00  -0.00   0.02    -0.00  -0.00   0.07
     2   6     0.01  -0.05  -0.00     0.00  -0.00  -0.06     0.00  -0.00  -0.20
     3   6     0.14   0.13   0.00    -0.00  -0.00  -0.01    -0.00  -0.00  -0.04
     4   7     0.14   0.06   0.00    -0.00  -0.00   0.01    -0.00  -0.00   0.04
     5   6    -0.11  -0.27   0.00    -0.00  -0.00   0.01    -0.00   0.00   0.02
     6   6    -0.25   0.02   0.00    -0.00   0.00  -0.09     0.00  -0.00   0.01
     7   6    -0.10  -0.02  -0.00     0.00  -0.00   0.06     0.00   0.00  -0.02
     8   6     0.03  -0.25  -0.00    -0.00   0.00  -0.15     0.00   0.00   0.03
     9   6     0.23   0.00  -0.00     0.00  -0.00   0.10    -0.00   0.00  -0.03
    10   7     0.03   0.06   0.00    -0.00   0.00  -0.14     0.00  -0.00   0.03
    11   6    -0.07   0.32   0.00     0.00  -0.00   0.09     0.00  -0.00  -0.02
    12   8    -0.04  -0.02   0.00    -0.00   0.00   0.01     0.00   0.00   0.03
    13   6    -0.04   0.05  -0.00     0.00   0.00   0.00     0.00   0.00   0.01
    14   6    -0.02  -0.00   0.00     0.00   0.00   0.00     0.00   0.00   0.00
    15   1     0.26   0.10   0.00    -0.00   0.00   0.14    -0.00   0.00   0.84
    16   1    -0.27  -0.24  -0.00    -0.00   0.00  -0.06    -0.00   0.00  -0.46
    17   1     0.14   0.29   0.00     0.00  -0.00   0.45    -0.00   0.00  -0.06
    18   1    -0.07  -0.23   0.00     0.00  -0.00   0.17     0.00   0.00   0.01
    19   1     0.21   0.05  -0.00     0.00  -0.00   0.64    -0.00   0.00  -0.08
    20   1    -0.08   0.32   0.00     0.00  -0.00   0.51     0.00   0.00  -0.05
    21   1    -0.02   0.04  -0.00     0.00  -0.02  -0.01    -0.01  -0.07  -0.04
    22   1    -0.02   0.04   0.00    -0.00   0.02  -0.01     0.01   0.07  -0.04
    23   1     0.06  -0.01   0.01     0.01   0.01  -0.00     0.03   0.03  -0.02
    24   1    -0.09  -0.11   0.00     0.00   0.00  -0.00     0.00   0.00  -0.02
    25   1     0.06  -0.01  -0.01    -0.01  -0.01  -0.00    -0.03  -0.03  -0.02
                     22                     23                     24
                      A                      A                      A
 Frequencies --    772.7004               780.2102               799.9844
 Red. masses --      6.0149                 2.5089                 1.1692
 Frc consts  --      2.1159                 0.8998                 0.4408
 IR Inten    --     31.3719                26.0584                 0.8453
  Atom  AN      X      Y      Z        X      Y      Z        X      Y      Z
     1   8    -0.22  -0.07  -0.00    -0.00   0.00  -0.08    -0.00  -0.00   0.02
     2   6     0.17  -0.06  -0.00     0.00  -0.00   0.29     0.00  -0.00  -0.07
     3   6     0.10  -0.29   0.00     0.00  -0.00  -0.17     0.00  -0.00   0.03
     4   7    -0.05   0.04  -0.00    -0.00   0.00  -0.00    -0.00   0.00   0.00
     5   6    -0.01   0.11  -0.00     0.00   0.00   0.07     0.00   0.00  -0.01
     6   6    -0.05  -0.01  -0.00    -0.00  -0.00   0.01    -0.00  -0.00  -0.00
     7   6    -0.01  -0.07   0.00    -0.00  -0.00  -0.02    -0.00  -0.00   0.00
     8   6    -0.02  -0.10  -0.00    -0.00  -0.00  -0.01    -0.00  -0.00   0.00
     9   6     0.06   0.02   0.00     0.00   0.00  -0.03     0.00   0.00   0.01
    10   7    -0.02   0.04  -0.00    -0.00   0.00   0.02    -0.00   0.00  -0.00
    11   6    -0.02   0.04   0.00    -0.00   0.00  -0.02    -0.00   0.00   0.00
    12   8     0.22   0.32  -0.00     0.00   0.00  -0.06     0.00   0.00   0.03
    13   6    -0.00   0.01   0.00    -0.00  -0.00  -0.04    -0.00  -0.00  -0.06
    14   6    -0.06  -0.07   0.00    -0.00  -0.00  -0.01    -0.00  -0.00  -0.04
    15   1     0.25  -0.32  -0.00     0.00  -0.00   0.63     0.00  -0.00  -0.04
    16   1    -0.06   0.12   0.00    -0.00   0.00  -0.48    -0.00   0.00   0.06
    17   1     0.04  -0.01  -0.00     0.00  -0.00   0.08     0.00  -0.00  -0.02
    18   1    -0.14  -0.07  -0.00    -0.00  -0.00   0.15    -0.00  -0.00  -0.03
    19   1     0.05   0.03  -0.00     0.00   0.00   0.12     0.00   0.00  -0.03
    20   1     0.01   0.03  -0.00     0.00   0.00   0.09     0.00   0.00  -0.01
    21   1    -0.22   0.01   0.00     0.07   0.19   0.11     0.26   0.36   0.22
    22   1    -0.22   0.02  -0.01    -0.07  -0.19   0.11    -0.26  -0.36   0.22
    23   1    -0.34  -0.04  -0.02    -0.12  -0.13   0.08    -0.31  -0.31   0.18
    24   1     0.13   0.24  -0.00    -0.00   0.00   0.07    -0.00   0.00   0.18
    25   1    -0.34  -0.05   0.02     0.12   0.13   0.08     0.31   0.31   0.18
                     25                     26                     27
                      A                      A                      A
 Frequencies --    827.5478               875.5001               877.9560
 Red. masses --      1.7890                 4.3577                 1.6928
 Frc consts  --      0.7219                 1.9680                 0.7688
 IR Inten    --      7.0271                25.5257                32.4125
  Atom  AN      X      Y      Z        X      Y      Z        X      Y      Z
     1   8    -0.00  -0.00   0.01    -0.02  -0.08  -0.00    -0.00  -0.00  -0.00
     2   6     0.00  -0.00  -0.03    -0.01  -0.06  -0.00    -0.00  -0.00   0.01
     3   6    -0.00  -0.00   0.06     0.01   0.04   0.00     0.00   0.00  -0.10
     4   7    -0.00   0.00  -0.04    -0.01   0.06  -0.00     0.00   0.00   0.12
     5   6    -0.00  -0.00  -0.01    -0.19  -0.23   0.00    -0.00  -0.00  -0.17
     6   6     0.00  -0.00   0.16    -0.06  -0.04  -0.00    -0.00  -0.00   0.04
     7   6    -0.00   0.00  -0.09     0.01   0.19   0.00     0.00   0.00  -0.01
     8   6     0.00   0.00  -0.03     0.07   0.26   0.00     0.00   0.00  -0.02
     9   6    -0.00   0.00  -0.14    -0.10  -0.03   0.00    -0.00  -0.00  -0.03
    10   7     0.00  -0.00   0.07     0.15  -0.12  -0.00     0.00  -0.00   0.00
    11   6     0.00  -0.00  -0.06     0.07  -0.07  -0.00     0.00  -0.00   0.02
    12   8     0.00   0.00   0.01     0.05   0.10   0.00     0.00   0.00  -0.00
    13   6     0.00  -0.00  -0.00     0.01  -0.01  -0.00     0.00  -0.00  -0.00
    14   6    -0.00  -0.00  -0.00     0.03  -0.03  -0.00     0.00  -0.00   0.00
    15   1     0.00  -0.00  -0.21     0.14   0.02  -0.00     0.00   0.00   0.41
    16   1    -0.00   0.00  -0.14    -0.51  -0.20  -0.00    -0.00  -0.00   0.83
    17   1     0.00  -0.00   0.21     0.00   0.20  -0.00     0.00   0.00   0.02
    18   1     0.00  -0.00   0.70     0.40   0.20  -0.00     0.00   0.00   0.17
    19   1     0.00  -0.00   0.58    -0.10  -0.02  -0.00    -0.00  -0.00   0.13
    20   1     0.00  -0.00  -0.03     0.08  -0.08   0.00     0.00  -0.00  -0.21
    21   1     0.01   0.01   0.00    -0.09  -0.01  -0.00    -0.00  -0.00  -0.00
    22   1    -0.01  -0.01   0.00    -0.09  -0.01   0.00     0.00   0.00  -0.00
    23   1    -0.01  -0.01   0.00    -0.15  -0.01  -0.02     0.00   0.00  -0.00
    24   1     0.00   0.00   0.00     0.16   0.19  -0.00     0.00   0.00  -0.00
    25   1     0.01   0.01   0.00    -0.15  -0.00   0.02    -0.00  -0.00  -0.00
                     28                     29                     30
                      A                      A                      A
 Frequencies --    920.7358               929.5964               952.1325
 Red. masses --      2.0802                 1.3159                 1.5775
 Frc consts  --      1.0390                 0.6700                 0.8426
 IR Inten    --     36.4605                 0.0024                 6.1546
  Atom  AN      X      Y      Z        X      Y      Z        X      Y      Z
     1   8     0.03  -0.05  -0.00    -0.00  -0.00   0.00     0.00   0.00   0.00
     2   6    -0.12  -0.03   0.00     0.00  -0.00   0.00     0.00   0.00  -0.00
     3   6    -0.03   0.08  -0.00     0.00   0.00  -0.01    -0.00  -0.00  -0.01
     4   7     0.02  -0.01   0.00     0.00   0.00   0.01     0.00   0.00   0.01
     5   6     0.06   0.00  -0.00    -0.00  -0.00  -0.01     0.00   0.00  -0.05
     6   6     0.02   0.01  -0.00    -0.00   0.00  -0.01     0.00  -0.00   0.10
     7   6    -0.00  -0.02  -0.00     0.00  -0.00   0.08    -0.00   0.00  -0.05
     8   6    -0.01  -0.04  -0.00     0.00  -0.00   0.08    -0.00  -0.00  -0.00
     9   6     0.01   0.00  -0.00    -0.00   0.00  -0.11     0.00  -0.00   0.08
    10   7    -0.03   0.02   0.00     0.00  -0.00   0.01    -0.00  -0.00   0.01
    11   6    -0.01   0.01   0.00    -0.00   0.00  -0.07    -0.00   0.00  -0.17
    12   8    -0.08   0.09  -0.00     0.00   0.00  -0.00    -0.00  -0.00  -0.00
    13   6    -0.01  -0.09   0.00     0.00   0.00   0.00    -0.00  -0.00   0.00
    14   6     0.18  -0.02  -0.00    -0.00  -0.00  -0.00     0.00   0.00   0.00
    15   1    -0.02   0.07  -0.00     0.00   0.00   0.01    -0.00   0.00   0.03
    16   1     0.14  -0.00   0.00    -0.00  -0.00   0.08     0.00  -0.00   0.13
    17   1    -0.01  -0.04  -0.00    -0.00   0.00  -0.48     0.00  -0.00   0.20
    18   1    -0.05  -0.03  -0.00    -0.00   0.00  -0.45     0.00  -0.00  -0.00
    19   1     0.02  -0.01   0.00     0.00  -0.00   0.59    -0.00   0.00  -0.43
    20   1    -0.02   0.01  -0.00     0.00  -0.00   0.43     0.00  -0.00   0.84
    21   1    -0.21  -0.10  -0.01    -0.00  -0.00  -0.00     0.00  -0.00  -0.00
    22   1    -0.21  -0.10   0.01     0.00   0.00  -0.00    -0.00   0.00  -0.00
    23   1    -0.23   0.06  -0.06    -0.00  -0.00   0.00     0.00  -0.00   0.00
    24   1     0.56   0.58  -0.00    -0.00  -0.00   0.00     0.00   0.00   0.00
    25   1    -0.23   0.06   0.06     0.00   0.00   0.00    -0.00   0.00   0.00
                     31                     32                     33
                      A                      A                      A
 Frequencies --   1019.3338              1022.3516              1022.9292
 Red. masses --      4.2850                 3.9998                 1.3231
 Frc consts  --      2.6232                 2.4632                 0.8157
 IR Inten    --    117.0939               135.1265                 1.1286
  Atom  AN      X      Y      Z        X      Y      Z        X      Y      Z
     1   8    -0.01   0.02  -0.00     0.02  -0.18   0.00     0.00  -0.00  -0.00
     2   6     0.04   0.01   0.00    -0.14  -0.11   0.00    -0.00  -0.00   0.00
     3   6     0.00  -0.03   0.00    -0.10   0.26  -0.00    -0.00   0.00   0.00
     4   7     0.02   0.00  -0.00    -0.03  -0.05   0.00    -0.00  -0.00  -0.00
     5   6    -0.03   0.01   0.00     0.04   0.02   0.00     0.00   0.00  -0.01
     6   6    -0.00   0.02   0.00     0.03   0.03  -0.00     0.00   0.00   0.02
     7   6     0.20  -0.25  -0.00     0.03  -0.05   0.00     0.00  -0.00  -0.12
     8   6    -0.01   0.13  -0.00    -0.01  -0.01  -0.00    -0.00  -0.00   0.11
     9   6    -0.20  -0.04   0.00    -0.02  -0.00   0.00    -0.00   0.00  -0.03
    10   7     0.11  -0.14  -0.00    -0.01  -0.01   0.00    -0.00  -0.00  -0.01
    11   6    -0.06   0.30   0.00    -0.01   0.04  -0.00    -0.00   0.00   0.03
    12   8    -0.03  -0.01   0.00     0.16   0.12  -0.00     0.00   0.00  -0.00
    13   6    -0.02  -0.01   0.00     0.13   0.09  -0.00     0.00   0.00  -0.00
    14   6     0.02   0.01  -0.00    -0.15  -0.09   0.00    -0.00  -0.00   0.00
    15   1     0.03  -0.03   0.00    -0.35   0.31  -0.00    -0.00   0.00  -0.00
    16   1     0.03   0.00  -0.00     0.25  -0.01  -0.00     0.00  -0.00   0.01
    17   1     0.04  -0.47  -0.00    -0.03  -0.14  -0.00     0.00  -0.00   0.74
    18   1    -0.24   0.16   0.00    -0.08  -0.00   0.00    -0.00   0.00  -0.61
    19   1    -0.23   0.05  -0.00    -0.03   0.01  -0.00    -0.00   0.00   0.20
    20   1    -0.45   0.36   0.00    -0.08   0.05   0.00    -0.00   0.00  -0.10
    21   1    -0.06  -0.01  -0.00     0.31   0.10   0.02    -0.00   0.00   0.00
    22   1    -0.06  -0.01   0.00     0.31   0.10  -0.02     0.00  -0.00   0.00
    23   1     0.01   0.02  -0.01    -0.17  -0.13   0.03     0.00   0.00  -0.00
    24   1     0.05   0.05  -0.00    -0.26  -0.25   0.00    -0.00  -0.00  -0.00
    25   1     0.01   0.02   0.01    -0.17  -0.13  -0.03    -0.00  -0.00  -0.00
                     34                     35                     36
                      A                      A                      A
 Frequencies --   1070.0451              1112.1665              1128.1024
 Red. masses --      2.0238                 1.2574                 2.3042
 Frc consts  --      1.3653                 0.9164                 1.7277
 IR Inten    --     16.9407               167.6084                47.0400
  Atom  AN      X      Y      Z        X      Y      Z        X      Y      Z
     1   8     0.00   0.00  -0.00    -0.00   0.01   0.00    -0.01  -0.08  -0.00
     2   6    -0.00   0.00  -0.00     0.01  -0.00   0.00     0.05  -0.02   0.00
     3   6     0.00   0.00  -0.00    -0.02  -0.01   0.00    -0.01   0.08  -0.00
     4   7     0.00  -0.00   0.00     0.01   0.01  -0.00    -0.03  -0.02   0.00
     5   6     0.01   0.01  -0.00    -0.01  -0.00   0.00    -0.01   0.02  -0.00
     6   6    -0.01   0.00   0.00     0.05  -0.02  -0.00    -0.00   0.00   0.00
     7   6    -0.09   0.00  -0.00    -0.07  -0.01  -0.00    -0.01  -0.01  -0.00
     8   6    -0.03   0.14   0.00     0.05   0.01   0.00     0.01  -0.00  -0.00
     9   6     0.21   0.01  -0.00     0.01  -0.04  -0.00     0.00   0.00   0.00
    10   7     0.03  -0.10  -0.00    -0.04   0.04   0.00    -0.00   0.00   0.00
    11   6    -0.06  -0.03  -0.00     0.01   0.07   0.00     0.00   0.00  -0.00
    12   8     0.00  -0.00  -0.00    -0.01   0.00   0.00     0.12   0.02  -0.00
    13   6    -0.00  -0.00   0.00     0.02   0.01  -0.00    -0.17  -0.13   0.00
    14   6     0.00   0.00  -0.00    -0.00  -0.01   0.00     0.02   0.17  -0.00
    15   1     0.01  -0.00   0.00    -0.00  -0.02   0.00    -0.24   0.13  -0.00
    16   1     0.02   0.01   0.00    -0.10   0.00  -0.00     0.04   0.01  -0.00
    17   1    -0.37  -0.32   0.00    -0.50  -0.54   0.00    -0.08  -0.10   0.00
    18   1    -0.57   0.27   0.00     0.61  -0.10  -0.00     0.10  -0.02  -0.00
    19   1     0.33  -0.31  -0.00     0.05  -0.15  -0.00    -0.00   0.00  -0.00
    20   1    -0.26  -0.01   0.00     0.07   0.06   0.00     0.02  -0.00  -0.00
    21   1    -0.00  -0.00  -0.00     0.02   0.01   0.00    -0.34  -0.17  -0.02
    22   1    -0.00  -0.00   0.00     0.02   0.01  -0.00    -0.34  -0.17   0.02
    23   1     0.00   0.00  -0.00    -0.03  -0.01  -0.00     0.46   0.15   0.03
    24   1     0.00   0.00  -0.00     0.00   0.00  -0.00    -0.14  -0.12   0.00
    25   1     0.00   0.00   0.00    -0.03  -0.01   0.00     0.46   0.15  -0.03
                     37                     38                     39
                      A                      A                      A
 Frequencies --   1153.6830              1181.4293              1199.6338
 Red. masses --      2.3996                 1.6225                 2.9501
 Frc consts  --      1.8818                 1.3343                 2.5014
 IR Inten    --    550.2742                 4.3461              1532.2938
  Atom  AN      X      Y      Z        X      Y      Z        X      Y      Z
     1   8    -0.02  -0.05   0.00     0.00   0.00  -0.00     0.03   0.06   0.00
     2   6     0.23  -0.00   0.00    -0.00   0.00   0.01    -0.16  -0.00  -0.00
     3   6    -0.01   0.08  -0.00     0.00  -0.00  -0.00     0.05   0.01  -0.00
     4   7    -0.01  -0.03  -0.00    -0.00  -0.00   0.00    -0.06  -0.04   0.00
     5   6    -0.05   0.04   0.00     0.00   0.00   0.00     0.02   0.02  -0.00
     6   6     0.00   0.01   0.00    -0.00  -0.00  -0.00    -0.10   0.01   0.00
     7   6    -0.00   0.00  -0.00    -0.00  -0.00  -0.00    -0.01  -0.03  -0.00
     8   6     0.00  -0.01  -0.00     0.00   0.00  -0.00     0.03   0.01   0.00
     9   6     0.01   0.01   0.00    -0.00   0.00   0.00     0.01   0.06   0.00
    10   7     0.01   0.00  -0.00     0.00  -0.00  -0.00     0.02  -0.04  -0.00
    11   6    -0.01  -0.02  -0.00     0.00   0.00   0.00    -0.01  -0.03  -0.00
    12   8    -0.00  -0.11   0.00     0.00  -0.00  -0.05     0.18  -0.12   0.00
    13   6    -0.06   0.16  -0.00    -0.00   0.00   0.19    -0.16   0.15  -0.00
    14   6     0.04  -0.08   0.00     0.00  -0.00  -0.13     0.04  -0.04   0.00
    15   1    -0.62   0.23  -0.00     0.00  -0.00  -0.01     0.65  -0.13   0.00
    16   1    -0.08   0.05  -0.00     0.00  -0.00   0.00     0.34  -0.02   0.00
    17   1    -0.01  -0.00   0.00    -0.00  -0.00   0.00    -0.09  -0.14  -0.00
    18   1    -0.00  -0.01  -0.00     0.00  -0.00  -0.00     0.26  -0.03  -0.00
    19   1    -0.00   0.05   0.00    -0.00   0.00   0.00    -0.06   0.26   0.00
    20   1    -0.00  -0.02  -0.00     0.00  -0.00   0.00    -0.01  -0.04  -0.00
    21   1    -0.28   0.14  -0.02     0.12  -0.46  -0.16    -0.10   0.09  -0.02
    22   1    -0.28   0.14   0.02    -0.12   0.46  -0.16    -0.10   0.09   0.02
    23   1    -0.26  -0.01  -0.05    -0.26  -0.32   0.11    -0.14   0.05  -0.06
    24   1     0.21   0.21  -0.00     0.00   0.00   0.26     0.15   0.14  -0.00
    25   1    -0.26  -0.01   0.05     0.26   0.32   0.11    -0.14   0.05   0.06
                     40                     41                     42
                      A                      A                      A
 Frequencies --   1213.6554              1255.1151              1284.2417
 Red. masses --      1.7195                 1.8192                 1.0826
 Frc consts  --      1.4923                 1.6885                 1.0520
 IR Inten    --     74.5459                17.6574                 0.1600
  Atom  AN      X      Y      Z        X      Y      Z        X      Y      Z
     1   8    -0.01  -0.01  -0.00    -0.01  -0.02  -0.00     0.00  -0.00  -0.00
     2   6     0.04   0.00   0.00     0.06   0.01   0.00     0.00   0.00   0.00
     3   6     0.02   0.01  -0.00     0.06   0.03  -0.00     0.00  -0.00   0.00
     4   7     0.02  -0.01  -0.00    -0.02  -0.02   0.00     0.00   0.00   0.00
     5   6    -0.01   0.01   0.00     0.00   0.06   0.00     0.00  -0.00   0.00
     6   6    -0.05   0.04   0.00    -0.19  -0.00   0.00    -0.00  -0.00  -0.00
     7   6    -0.00  -0.03  -0.00    -0.04  -0.06  -0.00    -0.00  -0.00   0.00
     8   6     0.04  -0.02  -0.00     0.03   0.06   0.00     0.00   0.00  -0.00
     9   6     0.05   0.13   0.00    -0.02  -0.00   0.00     0.00   0.00   0.00
    10   7     0.04  -0.05  -0.00     0.02  -0.04  -0.00     0.00  -0.00  -0.00
    11   6    -0.08  -0.10  -0.00     0.04   0.00   0.00    -0.00   0.00   0.00
    12   8    -0.07   0.04  -0.00    -0.07   0.02  -0.00    -0.00   0.00  -0.04
    13   6     0.05  -0.05   0.00     0.05  -0.03   0.00     0.00  -0.00   0.01
    14   6    -0.01   0.01  -0.00    -0.01   0.00  -0.00     0.00   0.00   0.07
    15   1    -0.04   0.03  -0.00     0.00   0.05  -0.00    -0.00   0.00  -0.00
    16   1     0.09   0.00  -0.00     0.66   0.01  -0.00     0.00  -0.00   0.00
    17   1    -0.11  -0.17  -0.00     0.01   0.01  -0.00     0.00   0.00  -0.00
    18   1     0.33  -0.07  -0.00     0.14   0.04   0.00     0.00   0.00  -0.00
    19   1    -0.14   0.75   0.00     0.05  -0.23  -0.00     0.00  -0.00   0.00
    20   1    -0.42  -0.06   0.00     0.63  -0.08  -0.00     0.00  -0.00  -0.00
    21   1     0.05  -0.03   0.01     0.03  -0.02   0.00     0.67  -0.08  -0.04
    22   1     0.05  -0.03  -0.01     0.03  -0.02  -0.00    -0.67   0.08  -0.04
    23   1     0.04  -0.02   0.02     0.01  -0.02   0.01     0.12   0.15  -0.04
    24   1    -0.04  -0.04   0.00    -0.02  -0.02   0.00     0.00  -0.00  -0.07
    25   1     0.04  -0.02  -0.02     0.01  -0.02  -0.01    -0.12  -0.15  -0.04
                     43                     44                     45
                      A                      A                      A
 Frequencies --   1303.4901              1322.4685              1343.1642
 Red. masses --      2.1097                 2.3646                 1.8711
 Frc consts  --      2.1119                 2.4366                 1.9888
 IR Inten    --    227.6448               112.8010               288.0690
  Atom  AN      X      Y      Z        X      Y      Z        X      Y      Z
     1   8     0.01   0.02   0.00    -0.00   0.01  -0.00    -0.01  -0.01  -0.00
     2   6    -0.06  -0.00  -0.00     0.02  -0.00   0.00     0.07   0.01   0.00
     3   6    -0.06  -0.13   0.00    -0.06  -0.03   0.00    -0.07   0.04  -0.00
     4   7     0.05   0.19  -0.00     0.00   0.10   0.00    -0.05   0.04   0.00
     5   6     0.08  -0.09  -0.00    -0.05  -0.14  -0.00    -0.06  -0.05  -0.00
     6   6    -0.02  -0.07  -0.00     0.04   0.20   0.00     0.07  -0.06  -0.00
     7   6    -0.03  -0.01   0.00     0.04   0.02  -0.00     0.05   0.07   0.00
     8   6    -0.01   0.03   0.00     0.09  -0.08  -0.00    -0.07  -0.01   0.00
     9   6     0.02   0.01   0.00    -0.04   0.04   0.00     0.02  -0.10  -0.00
    10   7     0.01  -0.01  -0.00    -0.09  -0.06  -0.00     0.06   0.10   0.00
    11   6    -0.02   0.01   0.00     0.08  -0.03  -0.00    -0.08  -0.01   0.00
    12   8     0.05  -0.01   0.00     0.01  -0.01   0.00    -0.02  -0.01  -0.00
    13   6    -0.04   0.02  -0.00     0.01   0.01  -0.00     0.07   0.01  -0.00
    14   6     0.01  -0.01  -0.00     0.00   0.01  -0.00     0.01   0.03  -0.00
    15   1    -0.71   0.02  -0.00     0.03  -0.04   0.00     0.43  -0.06   0.00
    16   1     0.51  -0.11   0.00     0.23  -0.16  -0.00     0.66  -0.13  -0.00
    17   1     0.10   0.15  -0.00    -0.28  -0.39  -0.00    -0.04  -0.05  -0.00
    18   1     0.22  -0.01  -0.00    -0.54   0.03   0.00    -0.00  -0.02  -0.00
    19   1     0.02   0.01  -0.00    -0.11   0.22   0.00    -0.01   0.05   0.00
    20   1    -0.19   0.03   0.00     0.43  -0.08  -0.00    -0.19   0.00   0.00
    21   1     0.06   0.01   0.00    -0.08  -0.00  -0.01    -0.28  -0.03  -0.03
    22   1     0.06   0.01  -0.00    -0.08  -0.00   0.01    -0.28  -0.03   0.03
    23   1    -0.00   0.02  -0.02    -0.02  -0.01   0.01    -0.10  -0.08   0.07
    24   1     0.03   0.02   0.00    -0.02  -0.03   0.00    -0.12  -0.16   0.00
    25   1    -0.00   0.02   0.02    -0.02  -0.01  -0.01    -0.10  -0.08  -0.07
                     46                     47                     48
                      A                      A                      A
 Frequencies --   1349.5282              1368.7101              1418.4833
 Red. masses --      1.8742                 1.3535                 1.6705
 Frc consts  --      2.0110                 1.4939                 1.9803
 IR Inten    --     79.1150                82.6851                28.6146
  Atom  AN      X      Y      Z        X      Y      Z        X      Y      Z
     1   8     0.00   0.01   0.00    -0.01  -0.01   0.00     0.01   0.01  -0.00
     2   6    -0.03  -0.01  -0.00     0.07  -0.00   0.00    -0.05   0.01  -0.00
     3   6     0.03  -0.02   0.00    -0.01   0.03  -0.00    -0.04  -0.01   0.00
     4   7     0.03  -0.01  -0.00    -0.03   0.01   0.00     0.02   0.01  -0.00
     5   6     0.02   0.03   0.00    -0.05  -0.03  -0.00     0.04   0.01   0.00
     6   6    -0.04  -0.05  -0.00     0.04   0.01   0.00    -0.00  -0.03  -0.00
     7   6     0.09   0.10   0.00     0.01   0.00   0.00    -0.02  -0.01  -0.00
     8   6    -0.04   0.01   0.00    -0.01  -0.02  -0.00     0.00   0.02   0.00
     9   6     0.04  -0.14  -0.00    -0.01   0.00   0.00     0.02   0.00  -0.00
    10   7     0.05   0.04   0.00     0.01   0.03   0.00    -0.02  -0.04  -0.00
    11   6    -0.14   0.01   0.00     0.02  -0.02  -0.00    -0.01   0.03   0.00
    12   8     0.01   0.01   0.00    -0.01   0.01  -0.00     0.01  -0.03   0.00
    13   6    -0.05  -0.01   0.00    -0.06  -0.01   0.00     0.16   0.06  -0.00
    14   6    -0.01  -0.03   0.00    -0.08  -0.09   0.00    -0.13  -0.05   0.00
    15   1    -0.22   0.03  -0.00     0.16  -0.00   0.00     0.03  -0.03   0.00
    16   1    -0.12   0.05   0.00     0.26  -0.06  -0.00    -0.12   0.03   0.00
    17   1    -0.20  -0.27  -0.00    -0.00  -0.01   0.00     0.05   0.08   0.00
    18   1    -0.19   0.04   0.00    -0.01  -0.02  -0.00     0.04   0.02  -0.00
    19   1    -0.16   0.50   0.00     0.03  -0.13  -0.00    -0.02   0.14   0.00
    20   1     0.56  -0.06  -0.00    -0.21   0.01   0.00     0.16   0.01  -0.00
    21   1     0.18   0.02   0.03     0.29   0.09   0.06    -0.47  -0.08  -0.11
    22   1     0.18   0.02  -0.03     0.29   0.09  -0.06    -0.47  -0.08   0.11
    23   1     0.08   0.05  -0.05     0.35   0.16  -0.16     0.35   0.01  -0.04
    24   1     0.08   0.13  -0.00     0.27   0.45  -0.00     0.12   0.34  -0.00
    25   1     0.08   0.05   0.05     0.35   0.16   0.16     0.35   0.01   0.04
                     49                     50                     51
                      A                      A                      A
 Frequencies --   1455.1986              1455.5192              1477.8122
 Red. masses --      2.6181                 1.0403                 1.0464
 Frc consts  --      3.2665                 1.2985                 1.3464
 IR Inten    --     77.8655                 3.7622                 2.7622
  Atom  AN      X      Y      Z        X      Y      Z        X      Y      Z
     1   8    -0.01  -0.03   0.00     0.00   0.00   0.00    -0.00  -0.00  -0.00
     2   6     0.09   0.01   0.00    -0.00  -0.00   0.00     0.00   0.00   0.00
     3   6    -0.07   0.04  -0.00     0.00  -0.00  -0.00     0.00   0.00   0.00
     4   7    -0.06   0.01   0.00     0.00  -0.00  -0.00    -0.00  -0.00   0.00
     5   6     0.04  -0.01   0.00    -0.00   0.00   0.00     0.00  -0.00  -0.00
     6   6     0.13  -0.12  -0.00    -0.00   0.00   0.00    -0.00   0.00   0.00
     7   6    -0.09  -0.02   0.00     0.00   0.00   0.00     0.00   0.00   0.00
     8   6     0.02   0.08   0.00    -0.00  -0.00   0.00     0.00  -0.00   0.00
     9   6     0.09  -0.03  -0.00    -0.00   0.00  -0.00    -0.00   0.00   0.00
    10   7    -0.15  -0.13  -0.00     0.00   0.00  -0.00     0.00   0.00   0.00
    11   6     0.03   0.12   0.00    -0.00  -0.00  -0.00     0.00  -0.00  -0.00
    12   8    -0.01   0.01   0.00     0.00  -0.00   0.00    -0.01   0.01  -0.00
    13   6    -0.05  -0.03  -0.00     0.00   0.00  -0.02     0.03   0.01  -0.00
    14   6     0.03   0.00  -0.00    -0.00  -0.00  -0.05     0.01  -0.05   0.00
    15   1     0.30  -0.03   0.00    -0.00   0.00  -0.00     0.00  -0.00  -0.00
    16   1     0.07  -0.02  -0.00    -0.00   0.00  -0.00    -0.00   0.00   0.00
    17   1     0.19   0.34   0.00    -0.00  -0.00  -0.00    -0.00  -0.00  -0.00
    18   1     0.03   0.10   0.00    -0.00  -0.00   0.00    -0.00  -0.00   0.00
    19   1    -0.12   0.63   0.00     0.00  -0.00   0.00     0.00  -0.00  -0.00
    20   1     0.29   0.10  -0.00    -0.00  -0.00  -0.00    -0.00  -0.00  -0.00
    21   1     0.15   0.09   0.08     0.01   0.04   0.00    -0.03  -0.19  -0.14
    22   1     0.15   0.09  -0.08    -0.01  -0.04   0.00    -0.03  -0.19   0.14
    23   1    -0.07   0.03  -0.02     0.48  -0.11   0.05    -0.09   0.49  -0.38
    24   1    -0.02  -0.07   0.00     0.00   0.00   0.71    -0.15  -0.28   0.00
    25   1    -0.08   0.03   0.02    -0.48   0.11   0.05    -0.09   0.49   0.38
                     52                     53                     54
                      A                      A                      A
 Frequencies --   1498.5720              1517.2005              1554.7673
 Red. masses --      2.6203                 1.1998                 5.3619
 Frc consts  --      3.4670                 1.6273                 7.6366
 IR Inten    --   1476.1158               107.6916              1169.6091
  Atom  AN      X      Y      Z        X      Y      Z        X      Y      Z
     1   8     0.00  -0.01  -0.00     0.00  -0.00   0.00    -0.00   0.03   0.00
     2   6    -0.02   0.03  -0.00    -0.03   0.01  -0.00     0.00  -0.07   0.00
     3   6     0.20   0.01   0.00     0.03  -0.00   0.00    -0.23  -0.02   0.00
     4   7    -0.16   0.00   0.00    -0.02   0.00   0.00     0.31  -0.07  -0.00
     5   6     0.04  -0.01  -0.00     0.03   0.00  -0.00    -0.15   0.16   0.00
     6   6    -0.05  -0.11  -0.00    -0.04  -0.03  -0.00    -0.08  -0.10  -0.00
     7   6    -0.01   0.09   0.00    -0.00   0.02   0.00    -0.17   0.00   0.00
     8   6     0.11  -0.01  -0.00     0.04  -0.01  -0.00     0.29   0.01  -0.00
     9   6    -0.03  -0.08  -0.00    -0.02  -0.02  -0.00    -0.08  -0.11  -0.00
    10   7    -0.06   0.04   0.00    -0.00   0.02   0.00     0.02   0.10   0.00
    11   6     0.15   0.03  -0.00     0.03  -0.00  -0.00     0.07  -0.02  -0.00
    12   8    -0.03   0.00  -0.00     0.00  -0.01   0.00     0.03   0.01   0.00
    13   6     0.02   0.04  -0.00     0.04  -0.07   0.00    -0.03   0.01  -0.00
    14   6    -0.01   0.00  -0.00    -0.00  -0.01   0.00     0.00   0.00   0.00
    15   1    -0.24   0.09  -0.00    -0.05   0.01  -0.00     0.16  -0.10   0.00
    16   1     0.12  -0.01   0.00    -0.01   0.01   0.00     0.22   0.11  -0.00
    17   1    -0.20  -0.12  -0.00    -0.07  -0.05  -0.00    -0.10   0.14   0.00
    18   1    -0.35   0.09   0.00    -0.11   0.02   0.00    -0.49   0.18   0.00
    19   1    -0.15   0.25   0.00    -0.04   0.04   0.00    -0.19   0.22   0.00
    20   1    -0.47   0.10   0.00    -0.13   0.02   0.00    -0.33   0.03   0.00
    21   1     0.02  -0.27  -0.22    -0.20   0.48   0.39     0.07  -0.09  -0.07
    22   1     0.02  -0.27   0.22    -0.20   0.48  -0.39     0.07  -0.09   0.07
    23   1     0.03  -0.10   0.07    -0.00   0.15  -0.11    -0.00  -0.02   0.01
    24   1     0.03   0.07  -0.00    -0.06  -0.10   0.00     0.01   0.01  -0.00
    25   1     0.03  -0.10  -0.07    -0.00   0.15   0.11    -0.00  -0.02  -0.01
                     55                     56                     57
                      A                      A                      A
 Frequencies --   1579.7382              1634.7592              1681.1567
 Red. masses --      4.8879                 6.0383                 7.3993
 Frc consts  --      7.1869                 9.5076                12.3214
 IR Inten    --    149.3594                 5.9824                 7.2250
  Atom  AN      X      Y      Z        X      Y      Z        X      Y      Z
     1   8    -0.02  -0.09  -0.00     0.00   0.02   0.00    -0.00  -0.02  -0.00
     2   6     0.15   0.09   0.00    -0.02  -0.03  -0.00     0.03   0.02   0.00
     3   6    -0.25   0.04  -0.00     0.05  -0.00   0.00    -0.16  -0.01   0.00
     4   7    -0.08   0.08   0.00     0.02  -0.03  -0.00     0.18  -0.04  -0.00
     5   6     0.39  -0.07  -0.00    -0.09   0.06   0.00    -0.05   0.09   0.00
     6   6    -0.18  -0.07  -0.00     0.13  -0.31  -0.00    -0.24  -0.11  -0.00
     7   6     0.01   0.06   0.00     0.05   0.24   0.00     0.31   0.21   0.00
     8   6     0.10  -0.05  -0.00     0.12  -0.18  -0.00    -0.33  -0.03   0.00
     9   6    -0.08   0.05   0.00    -0.12   0.36   0.00     0.11   0.04  -0.00
    10   7     0.08   0.02  -0.00     0.03  -0.17  -0.00    -0.19  -0.12  -0.00
    11   6    -0.05  -0.02   0.00    -0.18   0.12   0.00     0.34   0.04  -0.00
    12   8    -0.02  -0.01  -0.00     0.00   0.00   0.00     0.00  -0.00   0.00
    13   6    -0.03   0.01   0.00     0.00  -0.00  -0.00    -0.01   0.00   0.00
    14   6     0.01  -0.00  -0.00    -0.00   0.00   0.00     0.00  -0.00  -0.00
    15   1     0.48  -0.10   0.00    -0.08   0.03  -0.00     0.12  -0.06   0.00
    16   1    -0.50   0.03   0.00     0.27   0.02  -0.00     0.04   0.07   0.00
    17   1    -0.16  -0.16  -0.00    -0.24  -0.10  -0.00    -0.15  -0.39  -0.00
    18   1    -0.16  -0.00   0.00    -0.23  -0.14  -0.00     0.25  -0.16  -0.00
    19   1    -0.01  -0.20  -0.00     0.11  -0.47  -0.00     0.10   0.05  -0.00
    20   1    -0.06  -0.02  -0.00     0.29   0.07  -0.00    -0.36   0.10   0.00
    21   1     0.11  -0.06  -0.06    -0.01   0.00   0.01     0.02  -0.00  -0.01
    22   1     0.11  -0.06   0.06    -0.01   0.00  -0.01     0.02  -0.00   0.01
    23   1    -0.02  -0.03   0.02     0.00   0.00  -0.00    -0.00  -0.00   0.00
    24   1     0.02   0.02  -0.00    -0.00  -0.00   0.00     0.00   0.00  -0.00
    25   1    -0.02  -0.03  -0.02     0.00   0.00   0.00    -0.00  -0.00  -0.00
                     58                     59                     60
                      A                      A                      A
 Frequencies --   1829.7387              3034.4183              3048.1063
 Red. masses --     12.1442                 1.0834                 1.0589
 Frc consts  --     23.9551                 5.8777                 5.7963
 IR Inten    --    550.9804                75.2924                46.3111
  Atom  AN      X      Y      Z        X      Y      Z        X      Y      Z
     1   8     0.01  -0.46  -0.00     0.00   0.00  -0.00     0.00  -0.00   0.00
     2   6    -0.15   0.78  -0.00     0.00  -0.00   0.00     0.00   0.00  -0.00
     3   6     0.05  -0.14   0.00    -0.00   0.00  -0.00    -0.00  -0.00  -0.00
     4   7     0.12  -0.02  -0.00     0.00  -0.00   0.00     0.00  -0.00  -0.00
     5   6    -0.16   0.04   0.00    -0.01  -0.08  -0.00    -0.00  -0.00   0.00
     6   6     0.08   0.02   0.00     0.00  -0.00   0.00     0.00   0.00   0.00
     7   6    -0.03  -0.02  -0.00     0.00   0.00  -0.00    -0.00  -0.00  -0.00
     8   6     0.02  -0.00  -0.00    -0.00  -0.00  -0.00     0.00  -0.00  -0.00
     9   6    -0.01  -0.00  -0.00    -0.00   0.00   0.00    -0.00  -0.00  -0.00
    10   7     0.01   0.01   0.00    -0.00   0.00   0.00     0.00   0.00   0.00
    11   6    -0.03   0.00   0.00     0.00   0.00   0.00    -0.00   0.00   0.00
    12   8     0.02  -0.05   0.00     0.00   0.00   0.00    -0.00   0.00   0.00
    13   6    -0.01   0.03   0.00    -0.00  -0.00   0.00     0.00   0.07  -0.00
    14   6     0.01  -0.01   0.00     0.00   0.00  -0.00     0.01  -0.00   0.00
    15   1     0.07  -0.16   0.00     0.00  -0.04   0.00     0.00   0.01  -0.00
    16   1     0.11   0.01   0.00     0.10   0.99   0.00     0.00   0.00   0.00
    17   1     0.02   0.04   0.00    -0.00   0.00   0.00     0.00  -0.00  -0.00
    18   1    -0.02   0.01   0.00    -0.00   0.00   0.00     0.00   0.00   0.00
    19   1    -0.01  -0.00  -0.00     0.00   0.00  -0.00     0.00   0.00  -0.00
    20   1     0.04  -0.00   0.00    -0.01  -0.03  -0.00     0.00  -0.00  -0.00
    21   1     0.08   0.03  -0.03     0.00   0.00  -0.00    -0.00  -0.41   0.57
    22   1     0.08   0.03   0.03     0.00   0.00   0.00    -0.00  -0.41  -0.57
    23   1    -0.02  -0.02   0.01     0.00  -0.00  -0.00     0.00  -0.02  -0.02
    24   1     0.03   0.03  -0.00    -0.00   0.00  -0.00    -0.09   0.06  -0.00
    25   1    -0.02  -0.02  -0.01     0.00  -0.00   0.00     0.00  -0.02   0.02
                     61                     62                     63
                      A                      A                      A
 Frequencies --   3061.7509              3085.2795              3096.8446
 Red. masses --      1.0367                 1.1070                 1.0856
 Frc consts  --      5.7258                 6.2087                 6.1345
 IR Inten    --     44.8714                35.9713                65.4806
  Atom  AN      X      Y      Z        X      Y      Z        X      Y      Z
     1   8    -0.00  -0.00   0.00    -0.00   0.00   0.00     0.00   0.00   0.00
     2   6     0.00   0.00   0.00    -0.00  -0.00   0.00    -0.01   0.00  -0.00
     3   6    -0.00   0.00  -0.00     0.00   0.00  -0.00    -0.01  -0.08   0.00
     4   7     0.00   0.00  -0.00     0.00   0.00  -0.00    -0.00  -0.00  -0.00
     5   6    -0.00  -0.00  -0.00    -0.00   0.00   0.00     0.00  -0.00  -0.00
     6   6     0.00   0.00  -0.00     0.00   0.00   0.00    -0.00   0.00   0.00
     7   6    -0.00  -0.00  -0.00     0.00  -0.00   0.00    -0.00   0.00   0.00
     8   6     0.00  -0.00  -0.00     0.00  -0.00  -0.00    -0.00  -0.00   0.00
     9   6    -0.00  -0.00  -0.00    -0.00  -0.00  -0.00    -0.00  -0.00   0.00
    10   7     0.00   0.00  -0.00     0.00   0.00   0.00    -0.00   0.00  -0.00
    11   6    -0.00   0.00  -0.00    -0.00   0.00   0.00     0.00   0.00   0.00
    12   8    -0.00  -0.00   0.00     0.00   0.00   0.00     0.00   0.00   0.00
    13   6     0.00   0.01  -0.00    -0.00  -0.00  -0.09     0.00  -0.00  -0.00
    14   6    -0.04  -0.03   0.00    -0.00   0.00   0.01    -0.00   0.00   0.00
    15   1    -0.00  -0.01   0.00    -0.00  -0.00  -0.00     0.21   0.97  -0.00
    16   1     0.00   0.00   0.00     0.00  -0.00  -0.00    -0.01   0.04   0.00
    17   1     0.00   0.00   0.00    -0.00   0.00  -0.00     0.00  -0.00   0.00
    18   1     0.00   0.00   0.00     0.00   0.00  -0.00     0.00   0.00   0.00
    19   1     0.00   0.00  -0.00    -0.00  -0.00  -0.00     0.00   0.00  -0.00
    20   1    -0.00  -0.00  -0.00    -0.00  -0.00  -0.00    -0.00  -0.01  -0.00
    21   1    -0.00  -0.04   0.05    -0.01  -0.42   0.55    -0.00   0.00  -0.01
    22   1    -0.00  -0.04  -0.05     0.01   0.42   0.55    -0.00   0.00   0.01
    23   1    -0.01   0.32   0.45     0.01  -0.06  -0.09     0.00   0.00   0.00
    24   1     0.51  -0.33   0.00     0.00  -0.00   0.00     0.01  -0.00   0.00
    25   1    -0.01   0.32  -0.45    -0.01   0.06  -0.09     0.00   0.00  -0.00
                     64                     65                     66
                      A                      A                      A
 Frequencies --   3143.5626              3152.5215              3158.0616
 Red. masses --      1.0893                 1.1038                 1.1046
 Frc consts  --      6.3421                 6.4636                 6.4905
 IR Inten    --     51.1910                41.2147                33.2632
  Atom  AN      X      Y      Z        X      Y      Z        X      Y      Z
     1   8     0.00   0.00   0.00    -0.00  -0.00  -0.00    -0.00   0.00   0.00
     2   6    -0.00   0.00  -0.00     0.00   0.00   0.00     0.00  -0.00   0.00
     3   6    -0.00  -0.00   0.00    -0.00   0.00  -0.00    -0.00   0.00  -0.00
     4   7     0.00   0.00  -0.00     0.00  -0.00  -0.00     0.00  -0.00  -0.00
     5   6    -0.00  -0.00  -0.00    -0.00   0.00  -0.00    -0.00   0.00   0.00
     6   6    -0.00   0.00   0.00     0.00   0.00  -0.00     0.00   0.00   0.00
     7   6     0.00   0.00   0.00    -0.00  -0.00   0.00    -0.00  -0.00   0.00
     8   6     0.00  -0.00  -0.00    -0.00  -0.00  -0.00     0.00  -0.00   0.00
     9   6    -0.01  -0.00   0.00    -0.00  -0.00   0.00    -0.00  -0.00   0.00
    10   7    -0.00  -0.00   0.00     0.00   0.00  -0.00     0.00   0.00   0.00
    11   6    -0.01  -0.09  -0.00    -0.00   0.00   0.00    -0.00  -0.00  -0.00
    12   8     0.00   0.00   0.00    -0.00  -0.00  -0.00     0.00   0.00   0.00
    13   6    -0.00   0.00  -0.00    -0.00   0.01   0.00    -0.00  -0.00  -0.02
    14   6    -0.00   0.00   0.00    -0.05   0.08   0.00    -0.00  -0.00  -0.09
    15   1     0.00   0.01  -0.00    -0.00  -0.00   0.00    -0.00  -0.00  -0.00
    16   1     0.01   0.03   0.00     0.00  -0.00  -0.00     0.00   0.00  -0.00
    17   1     0.00  -0.00  -0.00     0.00  -0.00  -0.00     0.00  -0.00  -0.00
    18   1     0.00   0.00   0.00     0.00   0.00   0.00     0.00   0.00  -0.00
    19   1     0.13   0.04  -0.00     0.00   0.00  -0.00     0.00   0.00  -0.00
    20   1     0.11   0.98   0.00    -0.00  -0.00  -0.00     0.00   0.00  -0.00
    21   1     0.00  -0.00   0.00    -0.00  -0.03   0.04    -0.00  -0.06   0.09
    22   1     0.00  -0.00  -0.00    -0.00  -0.03  -0.04     0.00   0.06   0.09
    23   1    -0.00  -0.00  -0.00    -0.00  -0.25  -0.36    -0.01   0.41   0.56
    24   1     0.00  -0.00   0.00     0.66  -0.42   0.00     0.00  -0.00  -0.01
    25   1    -0.00  -0.00   0.00    -0.00  -0.25   0.36     0.01  -0.41   0.56
                     67                     68                     69
                      A                      A                      A
 Frequencies --   3162.8676              3199.7547              3227.0207
 Red. masses --      1.0890                 1.0932                 1.0956
 Frc consts  --      6.4188                 6.5946                 6.7224
 IR Inten    --     23.4776                49.2305                 3.8690
  Atom  AN      X      Y      Z        X      Y      Z        X      Y      Z
     1   8    -0.00  -0.00  -0.00    -0.00   0.00  -0.00     0.00   0.00   0.00
     2   6    -0.00   0.00  -0.00     0.00  -0.00   0.00    -0.00  -0.00   0.00
     3   6     0.00   0.00  -0.00    -0.00   0.00  -0.00     0.00   0.00  -0.00
     4   7    -0.00   0.00   0.00     0.00  -0.00  -0.00    -0.00  -0.00  -0.00
     5   6     0.00   0.00   0.00    -0.00   0.00   0.00    -0.00   0.00   0.00
     6   6     0.00  -0.00  -0.00     0.00  -0.00  -0.00    -0.00  -0.00  -0.00
     7   6     0.00  -0.00  -0.00    -0.01   0.02   0.00    -0.07   0.05   0.00
     8   6     0.01   0.02   0.00    -0.01  -0.08  -0.00     0.01   0.02   0.00
     9   6    -0.08  -0.02   0.00    -0.02  -0.00   0.00     0.00  -0.00  -0.00
    10   7    -0.00  -0.00  -0.00     0.00   0.00  -0.00     0.00   0.00   0.00
    11   6     0.00   0.01   0.00     0.00   0.00   0.00     0.00  -0.00  -0.00
    12   8    -0.00  -0.00  -0.00    -0.00   0.00  -0.00     0.00   0.00   0.00
    13   6     0.00  -0.00   0.00     0.00  -0.00   0.00    -0.00   0.00  -0.00
    14   6     0.00  -0.00   0.00     0.00  -0.00   0.00    -0.00   0.00  -0.00
    15   1    -0.00  -0.00   0.00    -0.00  -0.00   0.00    -0.00  -0.00   0.00
    16   1    -0.00  -0.01  -0.00    -0.00  -0.00  -0.00     0.00   0.01   0.00
    17   1    -0.03   0.02   0.00     0.21  -0.17  -0.00     0.75  -0.60  -0.00
    18   1    -0.06  -0.26  -0.00     0.18   0.91   0.00    -0.06  -0.26  -0.00
    19   1     0.91   0.29  -0.00     0.25   0.07  -0.00    -0.04  -0.01   0.00
    20   1    -0.01  -0.13  -0.00    -0.00  -0.04  -0.00    -0.00   0.00   0.00
    21   1     0.00   0.00  -0.00    -0.00   0.00  -0.00    -0.00  -0.00   0.00
    22   1     0.00   0.00   0.00    -0.00   0.00   0.00    -0.00  -0.00  -0.00
    23   1     0.00   0.00   0.00     0.00   0.00   0.00    -0.00   0.00   0.00
    24   1    -0.00   0.00  -0.00    -0.00   0.00  -0.00     0.00  -0.00   0.00
    25   1     0.00   0.00  -0.00     0.00   0.00  -0.00    -0.00   0.00  -0.00

 -------------------
 - Thermochemistry -
 -------------------
 Temperature   298.150 Kelvin.  Pressure   1.00000 Atm.
 Atom     1 has atomic number  8 and mass  15.99491
 Atom     2 has atomic number  6 and mass  12.00000
 Atom     3 has atomic number  6 and mass  12.00000
 Atom     4 has atomic number  7 and mass  14.00307
 Atom     5 has atomic number  6 and mass  12.00000
 Atom     6 has atomic number  6 and mass  12.00000
 Atom     7 has atomic number  6 and mass  12.00000
 Atom     8 has atomic number  6 and mass  12.00000
 Atom     9 has atomic number  6 and mass  12.00000
 Atom    10 has atomic number  7 and mass  14.00307
 Atom    11 has atomic number  6 and mass  12.00000
 Atom    12 has atomic number  8 and mass  15.99491
 Atom    13 has atomic number  6 and mass  12.00000
 Atom    14 has atomic number  6 and mass  12.00000
 Atom    15 has atomic number  1 and mass   1.00783
 Atom    16 has atomic number  1 and mass   1.00783
 Atom    17 has atomic number  1 and mass   1.00783
 Atom    18 has atomic number  1 and mass   1.00783
 Atom    19 has atomic number  1 and mass   1.00783
 Atom    20 has atomic number  1 and mass   1.00783
 Atom    21 has atomic number  1 and mass   1.00783
 Atom    22 has atomic number  1 and mass   1.00783
 Atom    23 has atomic number  1 and mass   1.00783
 Atom    24 has atomic number  1 and mass   1.00783
 Atom    25 has atomic number  1 and mass   1.00783
 Molecular mass:   191.08205 amu.
 Principal axes and moments of inertia in atomic units:
                           1         2         3
     Eigenvalues --   573.987488629.817529181.28822
           X            0.99998   0.00593  -0.00000
           Y           -0.00593   0.99998  -0.00000
           Z            0.00000   0.00000   1.00000
 This molecule is an asymmetric top.
 Rotational symmetry number  1.
 Warning -- assumption of classical behavior for rotation
           may cause significant error
 Rotational temperatures (Kelvin)      0.15090     0.01004     0.00943
 Rotational constants (GHZ):           3.14422     0.20913     0.19657
 Zero-point vibrational energy     518889.9 (Joules/Mol)
                                  124.01766 (Kcal/Mol)
 Warning -- explicit consideration of  17 degrees of freedom as
           vibrations may cause significant error
 Vibrational temperatures:     49.32    69.87    85.34   122.21   147.23
          (Kelvin)            209.30   266.93   353.89   388.35   399.64
                              427.36   465.42   559.07   609.87   621.61
                              759.00   786.60   901.33   977.83  1062.84
                             1084.76  1111.74  1122.55  1151.00  1190.66
                             1259.65  1263.18  1324.73  1337.48  1369.91
                             1466.59  1470.94  1471.77  1539.56  1600.16
                             1623.09  1659.89  1699.81  1726.01  1746.18
                             1805.83  1847.74  1875.43  1902.74  1932.51
                             1941.67  1969.27  2040.88  2093.71  2094.17
                             2126.24  2156.11  2182.91  2236.96  2272.89
                             2352.05  2418.81  2632.59  4365.85  4385.55
                             4405.18  4439.03  4455.67  4522.89  4535.78
                             4543.75  4550.66  4603.73  4642.96
 
 Zero-point correction=                           0.197635 (Hartree/Particle)
 Thermal correction to Energy=                    0.210623
 Thermal correction to Enthalpy=                  0.211567
 Thermal correction to Gibbs Free Energy=         0.156390
 Sum of electronic and zero-point Energies=           -646.718229
 Sum of electronic and thermal Energies=              -646.705241
 Sum of electronic and thermal Enthalpies=            -646.704297
 Sum of electronic and thermal Free Energies=         -646.759474
 
                     E (Thermal)             CV                S
                      KCal/Mol        Cal/Mol-Kelvin    Cal/Mol-Kelvin
 Total                  132.168             47.603            116.130
 Electronic               0.000              0.000              0.000
 Translational            0.889              2.981             41.648
 Rotational               0.889              2.981             32.186
 Vibrational            130.390             41.642             42.295
 Vibration     1          0.594              1.983              5.565
 Vibration     2          0.595              1.978              4.875
 Vibration     3          0.597              1.974              4.480
 Vibration     4          0.601              1.960              3.773
 Vibration     5          0.604              1.947              3.409
 Vibration     6          0.617              1.908              2.731
 Vibration     7          0.632              1.860              2.272
 Vibration     8          0.660              1.769              1.759
 Vibration     9          0.674              1.729              1.597
 Vibration    10          0.679              1.715              1.547
 Vibration    11          0.691              1.679              1.434
 Vibration    12          0.708              1.628              1.292
 Vibration    13          0.757              1.495              1.006
 Vibration    14          0.786              1.418              0.879
 Vibration    15          0.793              1.400              0.852
 Vibration    16          0.882              1.189              0.593
 Vibration    17          0.902              1.147              0.551
                       Q            Log10(Q)             Ln(Q)
 Total Bot       0.116330D-71        -71.934306       -165.634862
 Total V=0       0.936000D+19         18.971276         43.682977
 Vib (Bot)       0.464152D-86        -86.333340       -198.789861
 Vib (Bot)    1  0.603794D+01          0.780889          1.798063
 Vib (Bot)    2  0.425766D+01          0.629171          1.448719
 Vib (Bot)    3  0.348174D+01          0.541796          1.247532
 Vib (Bot)    4  0.242264D+01          0.384290          0.884859
 Vib (Bot)    5  0.200461D+01          0.302030          0.695449
 Vib (Bot)    6  0.139570D+01          0.144792          0.333396
 Vib (Bot)    7  0.108052D+01          0.033632          0.077441
 Vib (Bot)    8  0.794984D+00         -0.099641         -0.229433
 Vib (Bot)    9  0.716040D+00         -0.145063         -0.334019
 Vib (Bot)   10  0.692983D+00         -0.159278         -0.366750
 Vib (Bot)   11  0.641323D+00         -0.192923         -0.444222
 Vib (Bot)   12  0.579910D+00         -0.236640         -0.544883
 Vib (Bot)   13  0.462492D+00         -0.334896         -0.771126
 Vib (Bot)   14  0.413010D+00         -0.384039         -0.884282
 Vib (Bot)   15  0.402645D+00         -0.395078         -0.909700
 Vib (Bot)   16  0.303859D+00         -0.517328         -1.191192
 Vib (Bot)   17  0.287948D+00         -0.540685         -1.244974
 Vib (V=0)       0.373459D+05          4.572243         10.527978
 Vib (V=0)    1  0.655861D+01          0.816812          1.880779
 Vib (V=0)    2  0.478692D+01          0.680056          1.565886
 Vib (V=0)    3  0.401746D+01          0.603951          1.390649
 Vib (V=0)    4  0.297370D+01          0.473298          1.089808
 Vib (V=0)    5  0.256603D+01          0.409261          0.942358
 Vib (V=0)    6  0.198256D+01          0.297226          0.684388
 Vib (V=0)    7  0.169060D+01          0.228040          0.525082
 Vib (V=0)    8  0.143915D+01          0.158106          0.364052
 Vib (V=0)    9  0.137333D+01          0.137776          0.317242
 Vib (V=0)   10  0.135453D+01          0.131789          0.303456
 Vib (V=0)   11  0.131320D+01          0.118331          0.272468
 Vib (V=0)   12  0.126570D+01          0.102331          0.235625
 Vib (V=0)   13  0.118110D+01          0.072287          0.166447
 Vib (V=0)   14  0.114852D+01          0.060138          0.138474
 Vib (V=0)   15  0.114197D+01          0.057654          0.132753
 Vib (V=0)   16  0.108509D+01          0.035466          0.081663
 Vib (V=0)   17  0.107699D+01          0.032211          0.074168
 Electronic      0.100000D+01          0.000000          0.000000
 Translational   0.103821D+09          8.016284         18.458175
 Rotational      0.241407D+07          6.382749         14.696824
 ***** Axes restored to original set *****
 -------------------------------------------------------------------
 Center     Atomic                   Forces (Hartrees/Bohr)
 Number     Number              X              Y              Z
 -------------------------------------------------------------------
      1        8           0.000032351    0.000046501   -0.000018417
      2        6          -0.000075020   -0.000063232    0.000027350
      3        6           0.000031944    0.000031487   -0.000012213
      4        7          -0.000025434   -0.000018577    0.000005806
      5        6           0.000012333    0.000009640   -0.000001918
      6        6           0.000007041   -0.000031906    0.000008132
      7        6           0.000031974    0.000017408   -0.000005102
      8        6          -0.000027297    0.000000537   -0.000000816
      9        6           0.000009719   -0.000022496    0.000007680
     10        7           0.000019867    0.000019995   -0.000006700
     11        6          -0.000031488    0.000002422   -0.000000369
     12        8           0.000058369    0.000003929    0.000001831
     13        6          -0.000052892    0.000034503   -0.000011123
     14        6           0.000008542   -0.000013903    0.000002977
     15        1          -0.000008026   -0.000006672   -0.000000269
     16        1          -0.000007514   -0.000001672    0.000001837
     17        1          -0.000004796   -0.000003017    0.000001086
     18        1           0.000003924    0.000000237   -0.000000153
     19        1           0.000001556   -0.000000638    0.000000365
     20        1          -0.000000695   -0.000003086    0.000001157
     21        1           0.000009544   -0.000011298    0.000000103
     22        1           0.000008161   -0.000004852    0.000002808
     23        1           0.000001103    0.000003962    0.000001179
     24        1          -0.000002119    0.000009021   -0.000002033
     25        1          -0.000001145    0.000001709   -0.000003199
 -------------------------------------------------------------------
 Cartesian Forces:  Max     0.000075020 RMS     0.000020517
 FormGI is forming the generalized inverse of G from B-inverse, IUseBI=4.

 GradGradGradGradGradGradGradGradGradGradGradGradGradGradGradGradGradGrad
 Berny optimization.
 Internal  Forces:  Max     0.000048534 RMS     0.000010303
 Search for a local minimum.
 Step number   1 out of a maximum of    2
 All quantities printed in internal units (Hartrees-Bohrs-Radians)
 Second derivative matrix not updated -- analytic derivatives used.
 ITU=  0
     Eigenvalues ---    0.00270   0.00325   0.01042   0.01122   0.01528
     Eigenvalues ---    0.01535   0.01912   0.01985   0.02307   0.02465
     Eigenvalues ---    0.02664   0.02836   0.03059   0.03393   0.03520
     Eigenvalues ---    0.03634   0.04289   0.04334   0.04646   0.04903
     Eigenvalues ---    0.06130   0.07273   0.09485   0.10179   0.11240
     Eigenvalues ---    0.11590   0.11867   0.11997   0.12217   0.12655
     Eigenvalues ---    0.12865   0.13141   0.15931   0.16133   0.17807
     Eigenvalues ---    0.18734   0.19304   0.20237   0.20679   0.21489
     Eigenvalues ---    0.22368   0.24419   0.26498   0.29432   0.30346
     Eigenvalues ---    0.32088   0.32853   0.33007   0.33178   0.34232
     Eigenvalues ---    0.34557   0.34560   0.34733   0.34942   0.35057
     Eigenvalues ---    0.35912   0.36195   0.37188   0.39797   0.42549
     Eigenvalues ---    0.44445   0.45335   0.47587   0.48623   0.52254
     Eigenvalues ---    0.54309   0.58661   0.67636   0.86559
 Angle between quadratic step and forces=  58.93 degrees.
 Linear search not attempted -- first point.
 Iteration  1 RMS(Cart)=  0.00020624 RMS(Int)=  0.00000002
 Iteration  2 RMS(Cart)=  0.00000003 RMS(Int)=  0.00000000
 Variable       Old X    -DE/DX   Delta X   Delta X   Delta X     New X
                                 (Linear)    (Quad)   (Total)
    R1        2.29816  -0.00005   0.00000  -0.00007  -0.00007   2.29809
    R2        2.70927  -0.00000   0.00000  -0.00004  -0.00004   2.70923
    R3        2.62740   0.00003   0.00000   0.00020   0.00020   2.62760
    R4        2.50015   0.00002   0.00000   0.00006   0.00006   2.50021
    R5        2.08003  -0.00001   0.00000  -0.00004  -0.00004   2.07999
    R6        2.47124  -0.00001   0.00000  -0.00002  -0.00002   2.47122
    R7        2.72374  -0.00001   0.00000   0.00001   0.00001   2.72375
    R8        2.08999  -0.00000   0.00000  -0.00001  -0.00001   2.08998
    R9        2.67157  -0.00002   0.00000  -0.00007  -0.00007   2.67150
   R10        2.67566   0.00001   0.00000   0.00006   0.00006   2.67571
   R11        2.61879   0.00002   0.00000   0.00006   0.00006   2.61885
   R12        2.06294  -0.00000   0.00000  -0.00001  -0.00001   2.06293
   R13        2.64580  -0.00001   0.00000  -0.00006  -0.00006   2.64574
   R14        2.06484  -0.00000   0.00000  -0.00001  -0.00001   2.06483
   R15        2.52021   0.00001   0.00000   0.00006   0.00006   2.52027
   R16        2.07010  -0.00000   0.00000  -0.00001  -0.00001   2.07009
   R17        2.50931  -0.00002   0.00000  -0.00007  -0.00007   2.50924
   R18        2.07422  -0.00000   0.00000  -0.00000  -0.00000   2.07422
   R19        2.65161  -0.00003   0.00000  -0.00012  -0.00012   2.65149
   R20        2.86395   0.00000   0.00000   0.00001   0.00001   2.86397
   R21        2.08521   0.00001   0.00000   0.00003   0.00003   2.08524
   R22        2.08521   0.00001   0.00000   0.00003   0.00003   2.08524
   R23        2.07747  -0.00000   0.00000   0.00000   0.00000   2.07747
   R24        2.07854  -0.00001   0.00000  -0.00002  -0.00002   2.07852
   R25        2.07747  -0.00000   0.00000   0.00000   0.00000   2.07747
    A1        2.27315   0.00003   0.00000   0.00016   0.00016   2.27331
    A2        2.08175  -0.00004   0.00000  -0.00014  -0.00014   2.08162
    A3        1.92828   0.00001   0.00000  -0.00003  -0.00003   1.92826
    A4        2.10143  -0.00001   0.00000  -0.00009  -0.00009   2.10134
    A5        2.04876   0.00001   0.00000   0.00010   0.00010   2.04886
    A6        2.13300   0.00000   0.00000  -0.00001  -0.00001   2.13299
    A7        2.15970  -0.00001   0.00000  -0.00005  -0.00005   2.15964
    A8        2.11366  -0.00001   0.00000  -0.00004  -0.00004   2.11363
    A9        2.11914   0.00001   0.00000   0.00008   0.00008   2.11921
   A10        2.05038  -0.00000   0.00000  -0.00004  -0.00004   2.05034
   A11        2.13703   0.00000   0.00000   0.00005   0.00005   2.13707
   A12        2.12932  -0.00001   0.00000  -0.00007  -0.00007   2.12925
   A13        2.01684   0.00001   0.00000   0.00002   0.00002   2.01686
   A14        2.08543  -0.00001   0.00000  -0.00004  -0.00004   2.08539
   A15        2.05558   0.00001   0.00000   0.00008   0.00008   2.05566
   A16        2.14218  -0.00000   0.00000  -0.00004  -0.00004   2.14213
   A17        2.08462   0.00000   0.00000   0.00002   0.00002   2.08464
   A18        2.10578  -0.00000   0.00000  -0.00004  -0.00004   2.10574
   A19        2.09279   0.00000   0.00000   0.00002   0.00002   2.09281
   A20        2.13517   0.00000   0.00000   0.00001   0.00001   2.13518
   A21        2.10688   0.00000   0.00000   0.00002   0.00002   2.10690
   A22        2.04113  -0.00000   0.00000  -0.00003  -0.00003   2.04110
   A23        2.06088  -0.00000   0.00000  -0.00002  -0.00002   2.06086
   A24        2.18343   0.00000   0.00000   0.00001   0.00001   2.18344
   A25        2.06773  -0.00000   0.00000  -0.00003  -0.00003   2.06770
   A26        2.03203  -0.00000   0.00000   0.00002   0.00002   2.03205
   A27        2.00810  -0.00003   0.00000  -0.00009  -0.00009   2.00801
   A28        1.88131   0.00001   0.00000   0.00007   0.00007   1.88138
   A29        1.92634   0.00001   0.00000   0.00012   0.00012   1.92646
   A30        1.92638   0.00000   0.00000   0.00009   0.00009   1.92646
   A31        1.94194  -0.00001   0.00000  -0.00006  -0.00006   1.94188
   A32        1.94198  -0.00001   0.00000  -0.00011  -0.00011   1.94188
   A33        1.84654  -0.00000   0.00000  -0.00011  -0.00011   1.84643
   A34        1.92486   0.00000   0.00000   0.00003   0.00003   1.92489
   A35        1.93653   0.00001   0.00000   0.00005   0.00005   1.93658
   A36        1.92490  -0.00000   0.00000  -0.00001  -0.00001   1.92489
   A37        1.89697  -0.00000   0.00000  -0.00001  -0.00001   1.89696
   A38        1.88241  -0.00000   0.00000  -0.00005  -0.00005   1.88236
   A39        1.89697  -0.00000   0.00000  -0.00001  -0.00001   1.89696
    D1       -0.00010   0.00000   0.00000   0.00010   0.00010  -0.00000
    D2        3.14151   0.00000   0.00000   0.00008   0.00008   3.14159
    D3        3.14153  -0.00000   0.00000   0.00006   0.00006   3.14159
    D4       -0.00005  -0.00000   0.00000   0.00005   0.00005  -0.00000
    D5        0.00003  -0.00000   0.00000  -0.00003  -0.00003   0.00000
    D6        3.14159   0.00000   0.00000   0.00000   0.00000  -3.14159
    D7       -3.14152  -0.00000   0.00000  -0.00007  -0.00007  -3.14159
    D8        0.00006  -0.00000   0.00000  -0.00006  -0.00006   0.00000
    D9       -3.14156  -0.00000   0.00000  -0.00003  -0.00003   3.14159
   D10        0.00004  -0.00000   0.00000  -0.00004  -0.00004  -0.00000
   D11        0.00002  -0.00000   0.00000  -0.00002  -0.00002  -0.00000
   D12       -3.14157  -0.00000   0.00000  -0.00003  -0.00003  -3.14159
   D13       -3.14159   0.00000   0.00000  -0.00000  -0.00000   3.14159
   D14        0.00001  -0.00000   0.00000  -0.00001  -0.00001  -0.00000
   D15       -3.14158  -0.00000   0.00000  -0.00001  -0.00001  -3.14159
   D16        0.00001  -0.00000   0.00000  -0.00001  -0.00001   0.00000
   D17       -0.00000   0.00000   0.00000   0.00000   0.00000   0.00000
   D18        3.14159   0.00000   0.00000   0.00000   0.00000  -3.14159
   D19        3.14158   0.00000   0.00000   0.00001   0.00001   3.14159
   D20       -0.00001   0.00000   0.00000   0.00001   0.00001  -0.00000
   D21       -0.00000   0.00000   0.00000   0.00000   0.00000  -0.00000
   D22       -3.14159  -0.00000   0.00000  -0.00000  -0.00000   3.14159
   D23        0.00001  -0.00000   0.00000  -0.00001  -0.00001  -0.00000
   D24       -3.14159  -0.00000   0.00000  -0.00000  -0.00000   3.14159
   D25       -3.14158  -0.00000   0.00000  -0.00001  -0.00001  -3.14159
   D26        0.00000  -0.00000   0.00000  -0.00000  -0.00000  -0.00000
   D27       -0.00001   0.00000   0.00000   0.00001   0.00001  -0.00000
   D28        3.14158   0.00000   0.00000   0.00001   0.00001   3.14159
   D29        3.14159   0.00000   0.00000   0.00000   0.00000  -3.14159
   D30       -0.00000  -0.00000   0.00000   0.00000   0.00000   0.00000
   D31        0.00001  -0.00000   0.00000  -0.00001  -0.00001   0.00000
   D32       -3.14159  -0.00000   0.00000  -0.00000  -0.00000  -3.14159
   D33        0.00000  -0.00000   0.00000  -0.00000  -0.00000  -0.00000
   D34        3.14159   0.00000   0.00000   0.00000   0.00000   3.14159
   D35       -3.14131  -0.00000   0.00000  -0.00028  -0.00028   3.14159
   D36        1.01781  -0.00000   0.00000  -0.00033  -0.00033   1.01748
   D37       -1.01718  -0.00000   0.00000  -0.00032  -0.00032  -1.01750
   D38       -1.03851  -0.00000   0.00000  -0.00013  -0.00013  -1.03863
   D39       -3.14142  -0.00000   0.00000  -0.00017  -0.00017  -3.14159
   D40        1.03881  -0.00000   0.00000  -0.00017  -0.00017   1.03864
   D41        1.07585   0.00001   0.00000   0.00003   0.00003   1.07588
   D42       -1.02707   0.00001   0.00000  -0.00001  -0.00001  -1.02708
   D43       -3.13002   0.00000   0.00000  -0.00001  -0.00001  -3.13004
   D44        3.13025  -0.00000   0.00000  -0.00021  -0.00021   3.13004
   D45        1.02734  -0.00001   0.00000  -0.00025  -0.00025   1.02708
   D46       -1.07561  -0.00001   0.00000  -0.00026  -0.00026  -1.07587
         Item               Value     Threshold  Converged?
 Maximum Force            0.000049     0.000450     YES
 RMS     Force            0.000010     0.000300     YES
 Maximum Displacement     0.000819     0.001800     YES
 RMS     Displacement     0.000206     0.001200     YES
 Predicted change in Energy=-2.556860D-08
 Optimization completed.
    -- Stationary point found.
                           ----------------------------
                           !   Optimized Parameters   !
                           ! (Angstroms and Degrees)  !
 --------------------------                            --------------------------
 ! Name  Definition              Value          Derivative Info.                !
 --------------------------------------------------------------------------------
 ! R1    R(1,2)                  1.2161         -DE/DX =    0.0                 !
 ! R2    R(2,3)                  1.4337         -DE/DX =    0.0                 !
 ! R3    R(2,12)                 1.3904         -DE/DX =    0.0                 !
 ! R4    R(3,4)                  1.323          -DE/DX =    0.0                 !
 ! R5    R(3,15)                 1.1007         -DE/DX =    0.0                 !
 ! R6    R(4,5)                  1.3077         -DE/DX =    0.0                 !
 ! R7    R(5,6)                  1.4413         -DE/DX =    0.0                 !
 ! R8    R(5,16)                 1.106          -DE/DX =    0.0                 !
 ! R9    R(6,7)                  1.4137         -DE/DX =    0.0                 !
 ! R10   R(6,11)                 1.4159         -DE/DX =    0.0                 !
 ! R11   R(7,8)                  1.3858         -DE/DX =    0.0                 !
 ! R12   R(7,17)                 1.0917         -DE/DX =    0.0                 !
 ! R13   R(8,9)                  1.4001         -DE/DX =    0.0                 !
 ! R14   R(8,18)                 1.0927         -DE/DX =    0.0                 !
 ! R15   R(9,10)                 1.3336         -DE/DX =    0.0                 !
 ! R16   R(9,19)                 1.0954         -DE/DX =    0.0                 !
 ! R17   R(10,11)                1.3279         -DE/DX =    0.0                 !
 ! R18   R(11,20)                1.0976         -DE/DX =    0.0                 !
 ! R19   R(12,13)                1.4032         -DE/DX =    0.0                 !
 ! R20   R(13,14)                1.5155         -DE/DX =    0.0                 !
 ! R21   R(13,21)                1.1034         -DE/DX =    0.0                 !
 ! R22   R(13,22)                1.1034         -DE/DX =    0.0                 !
 ! R23   R(14,23)                1.0993         -DE/DX =    0.0                 !
 ! R24   R(14,24)                1.0999         -DE/DX =    0.0                 !
 ! R25   R(14,25)                1.0993         -DE/DX =    0.0                 !
 ! A1    A(1,2,3)              130.2419         -DE/DX =    0.0                 !
 ! A2    A(1,2,12)             119.2757         -DE/DX =    0.0                 !
 ! A3    A(3,2,12)             110.4824         -DE/DX =    0.0                 !
 ! A4    A(2,3,4)              120.4028         -DE/DX =    0.0                 !
 ! A5    A(2,3,15)             117.3851         -DE/DX =    0.0                 !
 ! A6    A(4,3,15)             122.2121         -DE/DX =    0.0                 !
 ! A7    A(3,4,5)              123.7414         -DE/DX =    0.0                 !
 ! A8    A(4,5,6)              121.104          -DE/DX =    0.0                 !
 ! A9    A(4,5,16)             121.4176         -DE/DX =    0.0                 !
 ! A10   A(6,5,16)             117.4784         -DE/DX =    0.0                 !
 ! A11   A(5,6,7)              122.4426         -DE/DX =    0.0                 !
 ! A12   A(5,6,11)             122.0012         -DE/DX =    0.0                 !
 ! A13   A(7,6,11)             115.5563         -DE/DX =    0.0                 !
 ! A14   A(6,7,8)              119.4862         -DE/DX =    0.0                 !
 ! A15   A(6,7,17)             117.7762         -DE/DX =    0.0                 !
 ! A16   A(8,7,17)             122.7376         -DE/DX =    0.0                 !
 ! A17   A(7,8,9)              119.44           -DE/DX =    0.0                 !
 ! A18   A(7,8,18)             120.652          -DE/DX =    0.0                 !
 ! A19   A(9,8,18)             119.908          -DE/DX =    0.0                 !
 ! A20   A(8,9,10)             122.3365         -DE/DX =    0.0                 !
 ! A21   A(8,9,19)             120.7154         -DE/DX =    0.0                 !
 ! A22   A(10,9,19)            116.9481         -DE/DX =    0.0                 !
 ! A23   A(9,10,11)            118.0798         -DE/DX =    0.0                 !
 ! A24   A(6,11,10)            125.1013         -DE/DX =    0.0                 !
 ! A25   A(6,11,20)            118.472          -DE/DX =    0.0                 !
 ! A26   A(10,11,20)           116.4268         -DE/DX =    0.0                 !
 ! A27   A(2,12,13)            115.0555         -DE/DX =    0.0                 !
 ! A28   A(12,13,14)           107.7914         -DE/DX =    0.0                 !
 ! A29   A(12,13,21)           110.3713         -DE/DX =    0.0                 !
 ! A30   A(12,13,22)           110.3733         -DE/DX =    0.0                 !
 ! A31   A(14,13,21)           111.2648         -DE/DX =    0.0                 !
 ! A32   A(14,13,22)           111.2675         -DE/DX =    0.0                 !
 ! A33   A(21,13,22)           105.7987         -DE/DX =    0.0                 !
 ! A34   A(13,14,23)           110.2862         -DE/DX =    0.0                 !
 ! A35   A(13,14,24)           110.955          -DE/DX =    0.0                 !
 ! A36   A(13,14,25)           110.2888         -DE/DX =    0.0                 !
 ! A37   A(23,14,24)           108.6884         -DE/DX =    0.0                 !
 ! A38   A(23,14,25)           107.8539         -DE/DX =    0.0                 !
 ! A39   A(24,14,25)           108.6886         -DE/DX =    0.0                 !
 ! D1    D(1,2,3,4)             -0.0056         -DE/DX =    0.0                 !
 ! D2    D(1,2,3,15)           179.9952         -DE/DX =    0.0                 !
 ! D3    D(12,2,3,4)           179.9964         -DE/DX =    0.0                 !
 ! D4    D(12,2,3,15)           -0.0027         -DE/DX =    0.0                 !
 ! D5    D(1,2,12,13)            0.0016         -DE/DX =    0.0                 !
 ! D6    D(3,2,12,13)         -180.0001         -DE/DX =    0.0                 !
 ! D7    D(2,3,4,5)           -179.9956         -DE/DX =    0.0                 !
 ! D8    D(15,3,4,5)             0.0035         -DE/DX =    0.0                 !
 ! D9    D(3,4,5,6)            180.0016         -DE/DX =    0.0                 !
 ! D10   D(3,4,5,16)             0.0024         -DE/DX =    0.0                 !
 ! D11   D(4,5,6,7)              0.0009         -DE/DX =    0.0                 !
 ! D12   D(4,5,6,11)          -179.9985         -DE/DX =    0.0                 !
 ! D13   D(16,5,6,7)           180.0001         -DE/DX =    0.0                 !
 ! D14   D(16,5,6,11)            0.0007         -DE/DX =    0.0                 !
 ! D15   D(5,6,7,8)           -179.9995         -DE/DX =    0.0                 !
 ! D16   D(5,6,7,17)             0.0004         -DE/DX =    0.0                 !
 ! D17   D(11,6,7,8)            -0.0001         -DE/DX =    0.0                 !
 ! D18   D(11,6,7,17)         -180.0002         -DE/DX =    0.0                 !
 ! D19   D(5,6,11,10)          179.9993         -DE/DX =    0.0                 !
 ! D20   D(5,6,11,20)           -0.0004         -DE/DX =    0.0                 !
 ! D21   D(7,6,11,10)           -0.0002         -DE/DX =    0.0                 !
 ! D22   D(7,6,11,20)          180.0002         -DE/DX =    0.0                 !
 ! D23   D(6,7,8,9)              0.0004         -DE/DX =    0.0                 !
 ! D24   D(6,7,8,18)           180.0001         -DE/DX =    0.0                 !
 ! D25   D(17,7,8,9)          -179.9995         -DE/DX =    0.0                 !
 ! D26   D(17,7,8,18)            0.0001         -DE/DX =    0.0                 !
 ! D27   D(7,8,9,10)            -0.0006         -DE/DX =    0.0                 !
 ! D28   D(7,8,9,19)           179.9995         -DE/DX =    0.0                 !
 ! D29   D(18,8,9,10)         -180.0002         -DE/DX =    0.0                 !
 ! D30   D(18,8,9,19)           -0.0001         -DE/DX =    0.0                 !
 ! D31   D(8,9,10,11)            0.0003         -DE/DX =    0.0                 !
 ! D32   D(19,9,10,11)        -179.9998         -DE/DX =    0.0                 !
 ! D33   D(9,10,11,6)            0.0001         -DE/DX =    0.0                 !
 ! D34   D(9,10,11,20)         179.9997         -DE/DX =    0.0                 !
 ! D35   D(2,12,13,14)         180.016          -DE/DX =    0.0                 !
 ! D36   D(2,12,13,21)          58.3164         -DE/DX =    0.0                 !
 ! D37   D(2,12,13,22)         -58.28           -DE/DX =    0.0                 !
 ! D38   D(12,13,14,23)        -59.502          -DE/DX =    0.0                 !
 ! D39   D(12,13,14,24)       -179.9902         -DE/DX =    0.0                 !
 ! D40   D(12,13,14,25)         59.5194         -DE/DX =    0.0                 !
 ! D41   D(21,13,14,23)         61.6415         -DE/DX =    0.0                 !
 ! D42   D(21,13,14,24)        -58.8467         -DE/DX =    0.0                 !
 ! D43   D(21,13,14,25)       -179.3371         -DE/DX =    0.0                 !
 ! D44   D(22,13,14,23)        179.3504         -DE/DX =    0.0                 !
 ! D45   D(22,13,14,24)         58.8622         -DE/DX =    0.0                 !
 ! D46   D(22,13,14,25)        -61.6282         -DE/DX =    0.0                 !
 --------------------------------------------------------------------------------
 GradGradGradGradGradGradGradGradGradGradGradGradGradGradGradGradGradGrad


 ----------------------------------------------------------------------

 Electric dipole moment (input orientation):
 (Debye = 10**-18 statcoulomb cm , SI units = C m)
                  (au)            (Debye)         (10**-30 SI)
   Tot        0.110978D+01      0.282078D+01      0.940912D+01
   x          0.110592D+01      0.281098D+01      0.937641D+01
   y          0.856320D-01      0.217655D+00      0.726019D+00
   z         -0.348698D-01     -0.886301D-01     -0.295638D+00

 Dipole polarizability, Alpha (input orientation).
 (esu units = cm**3 , SI units = C**2 m**2 J**-1)
 Alpha(0;0):
               (au)            (10**-24 esu)      (10**-40 SI)
   iso        0.177131D+03      0.262481D+02      0.292050D+02
   aniso      0.239361D+03      0.354696D+02      0.394652D+02
   xx         0.332494D+03      0.492705D+02      0.548208D+02
   yx         0.520698D+01      0.771595D+00      0.858515D+00
   yy         0.124834D+03      0.184985D+02      0.205824D+02
   zx        -0.357423D+01     -0.529646D+00     -0.589310D+00
   zy        -0.176206D+02     -0.261110D+01     -0.290524D+01
   zz         0.740660D+02      0.109754D+02      0.122118D+02

 ----------------------------------------------------------------------

 Dipole orientation:
     8         -0.71311480         -3.04592728          4.33261818
     6         -0.20392435         -0.81009644          4.48531355
     6          0.21417622          1.02669194          2.53812203
     7          0.06536382          0.37337263          0.12943597
     6          0.42327265          1.94505448         -1.74373431
     6          0.23444701          1.11634243         -4.33146234
     6         -0.34060820         -1.40824986         -4.98950837
     6         -0.49340043         -2.07885763         -7.51636418
     6         -0.07550574         -0.24413194         -9.37630754
     7          0.46987150          2.15019202         -8.80951587
     6          0.61491764          2.78684330         -6.38665301
     8          0.04707390          0.29138379          6.85743269
     6         -0.32708314         -1.35243494          8.90411328
     6          0.01615617          0.15753514         11.31334857
     1          0.65655002          2.96961584          3.13467510
     1          0.88134034          3.95608810         -1.40615201
     1         -0.64735968         -2.75509130         -3.45730711
     1         -0.93546865         -4.01960239         -8.06557618
     1         -0.18636620         -0.73075508        -11.38534094
     1          1.06659174          4.76975466         -5.97866085
     1          1.01642733         -2.94444480          8.81148771
     1         -2.22697192         -2.20676335          8.81112451
     1          1.92424994          0.97603659         11.38473782
     1         -0.25673546         -1.04279093         12.98818240
     1         -1.35047085          1.72057663         11.38475406

 Electric dipole moment (dipole orientation):
 (Debye = 10**-18 statcoulomb cm , SI units = C m)
                  (au)            (Debye)         (10**-30 SI)
   Tot        0.110978D+01      0.282078D+01      0.940912D+01
   x          0.000000D+00      0.000000D+00      0.000000D+00
   y          0.000000D+00      0.000000D+00      0.000000D+00
   z          0.110978D+01      0.282078D+01      0.940912D+01

 Dipole polarizability, Alpha (dipole orientation).
 (esu units = cm**3 , SI units = C**2 m**2 J**-1)
 Alpha(0;0):
               (au)            (10**-24 esu)      (10**-40 SI)
   iso        0.177131D+03      0.262481D+02      0.292050D+02
   aniso      0.239361D+03      0.354696D+02      0.394652D+02
   xx         0.716039D+02      0.106106D+02      0.118059D+02
   yx         0.134686D+02      0.199585D+01      0.222068D+01
   yy         0.127678D+03      0.189199D+02      0.210512D+02
   zx        -0.238419D+01     -0.353301D+00     -0.393100D+00
   zy        -0.105051D+02     -0.155670D+01     -0.173206D+01
   zz         0.332112D+03      0.492139D+02      0.547579D+02

 ----------------------------------------------------------------------
 Unable to Open any file for archive entry.
 1\1\GINC-NOTCH123\Freq\RM062X\def2SVP\C10H11N2O2(1-)\U6067110\18-Jul-2
 025\0\\#N Geom=AllCheck Guess=TCheck SCRF=Check GenChk RM062X/def2SVP 
 Freq\\A12_crest_conformers_censo-1\\-1,1\O,2.4222484668,-1.3950603087,
 0.4283849601\C,2.4020333573,-0.2343386071,0.0660376075\C,1.2924511888,
 0.6346011953,-0.1970662256\N,0.0516968905,0.1989049515,-0.0518664429\C
 ,-1.0069089797,0.9339698532,-0.2736348498\C,-2.3341754416,0.4004006208
 ,-0.0971960383\C,-2.5674389423,-0.9300552298,0.320077402\C,-3.86972906
 53,-1.3795017998,0.470046623\C,-4.9332126025,-0.5080756552,0.205684909
 4\N,-4.7422014596,0.7513895855,-0.1891018352\C,-3.4932206143,1.1790567
 892,-0.3318706561\O,3.6033106898,0.4312704604,-0.1507398809\C,4.756662
 8233,-0.3339656347,0.0796573544\C,5.959118616,0.544118682,-0.203058858
 1\H,1.5194975045,1.6622065295,-0.5195987033\H,-0.9194988381,1.98616217
 34,-0.6029184582\H,-1.6987685276,-1.5629426158,0.5113572329\H,-4.07190
 62903,-2.404040881,0.7915418387\H,-5.9707255444,-0.8413780878,0.317419
 6757\H,-3.3674137912,2.2196024924,-0.6578051016\H,4.7567298634,-1.2314
 652892,-0.5622811593\H,4.7689259891,-0.7072604554,1.1179699113\H,5.936
 8605673,0.8973445905,-1.2438761976\H,6.8963965819,-0.0073111899,-0.037
 9886462\H,5.9493875582,1.4264878306,0.4526055382\\Version=ES64L-G16Rev
 C.01\State=1-A\HF=-646.9158636\RMSD=4.212e-09\RMSF=2.052e-05\ZeroPoint
 =0.1976347\Thermal=0.2106228\ETot=-646.7052409\HTot=-646.7042967\GTot=
 -646.7594737\Dipole=1.1059231,0.085632,-0.0348698\DipoleDeriv=-1.15970
 48,0.1099228,-0.0285783,1.4122549,-1.264699,0.2648048,-0.4352952,0.274
 415,-0.4658513,4.351619,-0.240888,0.045125,-1.7002529,1.3758082,-0.328
 0847,0.5007826,-0.3388448,0.3872221,-3.7067508,0.4145094,-0.1045647,0.
 3141816,0.1700543,-0.1609783,-0.0731546,-0.1617407,-0.2870181,3.691273
 9,-0.216623,0.0393295,-0.6263938,-0.6248849,0.1538951,0.1672812,0.1508
 826,-0.1952304,-3.1211908,-0.0692246,0.042853,0.8962629,0.4179332,-0.2
 134059,-0.2586396,-0.2062773,-0.1778236,2.6312024,0.3674349,-0.1335937
 ,1.0239742,-0.2842622,0.1059004,-0.3386383,0.1107408,0.0468901,-0.4836
 569,0.0293632,-0.0066945,-0.9313365,-0.0599657,-0.0207615,0.2933607,-0
 .0278407,-0.1418931,0.3736916,-0.1103528,0.0308143,0.1467633,0.1430587
 ,-0.0837855,-0.0494927,-0.0818901,-0.0957787,-0.2417655,0.065073,-0.01
 92316,-0.2316026,-0.138394,0.0153465,0.0734234,0.0131584,-0.0993862,-0
 .0705341,0.2956685,-0.0939455,0.4368158,-0.2158619,-0.0253418,-0.13802
 95,-0.0242981,-0.2780808,-0.9674892,-0.3208759,0.1067313,0.2739486,0.3
 770084,-0.1464883,-0.0790579,-0.1421092,-0.0405611,-3.2051971,-0.02601
 02,0.0295654,-0.4202191,-0.5859258,0.0886927,0.1525888,0.0858021,-0.33
 97434,1.4126119,-0.0827905,0.0180936,-0.4358583,0.4072846,-0.0089272,0
 .1283689,-0.0115387,0.3707838,-0.0347007,-0.0678293,0.0219632,-0.04941
 31,0.0546003,0.0063884,0.0162174,0.0065109,0.0717393,-0.0306712,-0.004
 2497,0.002562,-0.1184843,-0.1728937,0.0975975,0.038247,0.0967587,0.106
 3917,-0.0513983,-0.0436721,0.0148646,-0.0223689,-0.2260637,0.1066324,0
 .0081954,0.1067891,0.0813964,0.03164,0.0669067,-0.0203287,0.0364383,0.
 062468,0.0143159,-0.0108099,0.0140903,0.1048386,0.0444458,-0.0504906,0
 .016234,-0.1104613,-0.1249224,0.0733663,0.0349636,0.0729225,0.0843253,
 -0.2065493,-0.087979,0.0297352,-0.1017687,0.0203636,0.0256172,0.034044
 4,0.0255156,0.0917613,0.0574232,-0.0518467,0.0163855,-0.0053223,-0.148
 0096,0.0723553,0.001853,0.072699,0.0608013,-0.1095299,-0.0248029,-0.00
 62439,0.1265847,-0.1085673,-0.0861384,0.0077932,-0.099269,-0.0506726,-
 0.1098265,-0.0155272,0.0188734,0.1008324,-0.0034519,0.0517935,-0.07866
 44,0.0668893,-0.1552146,0.0588208,-0.0021849,-0.0165931,-0.0529276,0.0
 22691,0.0575367,0.041213,0.0705755,-0.1202356,-0.2124577,0.060739,-0.0
 169177,0.1070311,-0.0101865,0.0218078,-0.0313566,0.0221462,0.0555959,0
 .0586942,0.0057298,0.0135618,-0.0686785,-0.0831816,-0.0821388,-0.00519
 39,-0.0960875,-0.0142564\Polar=332.4935687,5.2069793,124.8341326,-3.57
 42252,-17.6205512,74.0659728\Quadrupole=-21.7437801,9.9067586,11.83702
 15,6.3221683,-1.7256261,0.6116844\PG=C01 [X(C10H11N2O2)]\NImag=0\\0.11
 690754,0.00538075,0.76230133,-0.00227160,-0.22660167,0.10762261,-0.115
 98136,0.01572964,-0.00465746,0.58380689,0.02309830,-0.64761448,0.17658
 184,-0.10775351,0.93666332,-0.00695908,0.17663390,-0.13676211,0.030886
 60,-0.22565178,0.28178404,0.00370613,0.04541305,-0.01406867,-0.1666714
 9,0.05907549,-0.01766999,0.73338038,0.03110392,-0.04826126,0.02075947,
 0.11994533,-0.17987300,0.03586609,0.01746482,0.62741613,-0.00960081,0.
 02065342,0.01257452,-0.03667941,0.03631799,-0.07323057,-0.01016706,-0.
 16639022,0.14696696,0.01013756,-0.03801118,0.01180449,-0.10666391,0.04
 751354,-0.01418293,-0.31973664,-0.13870376,0.04526979,0.78943795,0.001
 44255,0.00493445,-0.00116607,0.01629280,0.00458633,-0.00720106,-0.1090
 8172,-0.13827005,0.02716780,-0.06601235,0.37734148,-0.00051594,-0.0008
 7430,0.00151013,-0.00443283,-0.00743083,-0.01573170,0.03601765,0.02738
 478,-0.06265889,0.01552051,-0.08717149,0.12376510,-0.00502674,0.025257
 88,-0.00786214,0.04409112,-0.04237112,0.01298898,-0.14771872,0.0325026
 1,-0.00895975,-0.27525291,0.15342202,-0.04633409,0.72829415,0.00143180
 ,-0.00615031,0.00141304,-0.01184453,0.01091967,0.00026875,0.01368654,0
 .00164677,0.00357894,0.17769796,-0.22575313,0.05038367,-0.05087958,0.6
 2652412,-0.00042173,0.00123713,-0.00197403,0.00345838,0.00049299,0.011
 31807,-0.00308417,0.00344175,0.01238121,-0.05391565,0.05056132,-0.0756
 3513,0.01137627,-0.15906271,0.16564588,0.00413190,-0.01569096,0.004867
 74,-0.02751804,0.02237304,-0.00676994,0.04913467,-0.00165839,0.0002398
 9,-0.11292976,0.01410361,-0.00366116,-0.21582094,-0.09529599,0.0309327
 6,0.69151470,0.00188151,-0.00564112,0.00167058,-0.01074102,0.00909771,
 -0.00221631,0.02034699,-0.00193293,0.00406487,-0.00049659,0.01798637,-
 0.00941880,-0.06223037,-0.14236853,0.02705338,0.00703299,0.63743580,-0
 .00061991,0.00180036,-0.00080462,0.00357016,-0.00246138,0.00248700,-0.
 00663170,0.00422704,0.01029307,0.00089783,-0.00952527,-0.00921627,0.02
 060642,0.02729694,-0.06589594,-0.00606901,-0.14735085,0.21190920,-0.00
 073125,0.00354123,-0.00109989,0.00523638,-0.00466301,0.00141837,-0.008
 02982,0.00019024,-0.00000689,0.01013595,-0.00568574,0.00170193,-0.0145
 4283,-0.03580204,0.01135775,-0.12384661,0.00591427,-0.00145751,0.77958
 999,-0.00165190,0.00383095,-0.00115765,0.00792099,-0.00535846,0.001653
 60,-0.01085145,0.00107383,-0.00053987,0.01689922,-0.00866337,0.0026026
 8,-0.03596078,-0.01041001,0.00639552,-0.03330841,-0.29343572,0.0697619
 6,-0.02127338,0.62810687,0.00052197,-0.00119618,0.00045440,-0.00251164
 ,0.00174703,-0.00040188,0.00344175,-0.00062152,-0.00074317,-0.00535251
 ,0.00276926,-0.00075692,0.01140719,0.00639406,0.00713571,0.01079371,0.
 06947344,-0.09264804,0.00192404,-0.15278042,0.18616679,0.00074555,-0.0
 0220524,0.00068439,-0.00417442,0.00306625,-0.00093143,0.00594859,-0.00
 096413,0.00025732,-0.00798721,0.00358629,-0.00106384,0.01253705,0.0062
 4696,-0.00200527,0.01285016,-0.08061458,0.02510548,-0.36158490,-0.0442
 1534,0.01602819,0.70161657,0.00033054,-0.00061403,0.00024084,-0.001392
 46,0.00081506,-0.00044805,0.00156074,0.00004864,-0.00002224,-0.0013436
 7,0.00183440,-0.00066287,0.00641898,-0.00626867,0.00354671,-0.04132269
 ,-0.00086134,0.00144270,-0.11008256,-0.15094139,0.02908232,0.02573722,
 0.69979171,-0.00010752,0.00025965,0.00008471,0.00046093,-0.00048107,-0
 .00050582,-0.00053140,-0.00000350,0.00001954,0.00047626,-0.00069945,-0
 .00010475,-0.00205894,0.00354818,0.00414520,0.01283290,0.00173183,0.00
 214788,0.03660079,0.02859762,-0.06962686,-0.01220405,-0.17639415,0.190
 84027,-0.00086980,0.00300785,-0.00093285,0.00526470,-0.00422032,0.0012
 7852,-0.00800322,0.00077429,-0.00018336,0.01022471,-0.00354816,0.00103
 532,-0.01393440,-0.00113614,0.00045423,0.00277000,0.02327733,-0.007379
 46,-0.05852911,-0.00768729,0.00291087,-0.25290264,0.13141327,-0.039693
 60,0.75509297,-0.00043881,0.00167691,-0.00051831,0.00285209,-0.0024618
 8,0.00073047,-0.00450896,0.00022540,-0.00006701,0.00585797,0.00063680,
 -0.00013834,-0.00638728,0.00452025,-0.00151561,0.03845939,-0.06528413,
 0.01635674,0.04985453,0.06191708,-0.01633886,0.05547394,-0.19486748,0.
 03889543,0.02931661,0.63692127,0.00014351,-0.00054381,0.00017547,-0.00
 092998,0.00078294,-0.00029225,0.00146652,-0.00010622,-0.00007418,-0.00
 190245,-0.00006865,0.00036923,0.00209395,-0.00155420,-0.00001247,-0.01
 212128,0.01646840,-0.01706491,-0.01506153,-0.01591565,0.01586180,-0.01
 597481,0.03833672,-0.08089053,-0.01364318,-0.15382245,0.19327646,0.000
 38482,-0.00223837,0.00069659,-0.00369094,0.00338328,-0.00103210,0.0072
 0943,-0.00032141,0.00004324,-0.01288553,0.00091951,-0.00018167,0.01557
 286,0.00259369,-0.00088460,-0.08035497,0.04012893,-0.01178295,-0.02971
 182,-0.03052346,0.00969106,0.05869653,0.00497056,-0.00181005,-0.124960
 97,-0.00601896,0.00228907,0.54016653,0.00068689,-0.00177437,0.00056782
 ,-0.00367865,0.00264385,-0.00092546,0.00512595,-0.00080270,0.00005440,
 -0.00450862,0.00104535,0.00013873,0.00900990,-0.00755956,0.00400258,-0
 .02213135,0.07280004,-0.01580152,-0.04570336,-0.04015985,0.01028152,0.
 07810075,-0.06089292,0.02584538,-0.04504663,-0.32938842,0.08155879,0.1
 2392595,0.53958171,-0.00021693,0.00058954,-0.00012221,0.00117318,-0.00
 097795,-0.00011083,-0.00165789,0.00009491,-0.00052375,0.00151324,0.000
 09817,0.00133958,-0.00288856,0.00404986,0.00422384,0.00766361,-0.01625
 931,0.02671146,0.01443240,0.01016978,-0.01160121,-0.02465165,0.0263834
 9,0.01563451,0.01447917,0.08127146,-0.09481935,-0.04193796,-0.13787588
 ,0.14444647,-0.00170378,0.00630715,-0.00195716,0.01089697,-0.00926253,
 0.00281136,-0.01854818,0.00183078,-0.00043740,0.02154762,-0.00639842,0
 .00186543,-0.05772316,0.02217482,-0.00645745,-0.21939696,0.05580723,-0
 .01636444,0.05162229,0.04857348,-0.01551133,-0.06889097,0.02598358,-0.
 00767698,-0.00832458,-0.11089163,0.03475329,-0.35753996,-0.05665361,0.
 01983884,0.70465710,0.00015805,-0.00075693,0.00022956,-0.00140383,0.00
 098812,-0.00031010,0.00261875,0.00048206,-0.00029864,-0.01083947,-0.00
 016724,0.00126249,0.00296226,0.01775742,-0.00373862,0.10585187,-0.1969
 0289,0.03742231,0.02443998,-0.02242563,0.00852418,-0.00699392,-0.00275
 611,-0.00197652,-0.04389285,-0.03768945,0.01446547,-0.09325203,-0.1442
 4585,0.02506536,0.03836318,0.68893367,-0.00003694,0.00018428,-0.000075
 34,0.00035786,-0.00025226,0.00003794,-0.00068420,-0.00029276,-0.000315
 80,0.00325364,0.00122953,0.00321108,-0.00045682,-0.00388018,0.00707277
 ,-0.03199604,0.03779043,-0.08616410,-0.00797335,0.00834708,0.00289328,
 0.00262314,-0.00221911,-0.00857480,0.01382682,0.01495844,0.00281590,0.
 03127028,0.02479623,-0.07416841,-0.01605416,-0.16815497,0.20411099,-0.
 00805449,-0.05632027,0.01782909,-0.17163243,-0.03442308,0.01156848,-0.
 07833728,-0.01960091,0.00678648,0.02008147,0.00438102,-0.00148037,-0.0
 2028495,0.00329557,-0.00088628,0.01305487,0.00604487,-0.00198801,-0.00
 260425,-0.00417264,0.00132262,0.00211402,0.00086332,-0.00028462,-0.002
 68701,-0.00133671,0.00043740,0.00136056,0.00181165,-0.00057526,-0.0054
 0646,0.00030552,-0.00005551,0.51884863,-0.05963997,-0.05726107,0.02596
 799,-0.00791130,-0.13031627,0.02148524,0.00609880,0.01515607,-0.001247
 67,0.00906337,0.00051769,0.00127410,-0.00239512,0.00060494,-0.00045918
 ,0.00159377,0.00052018,-0.00033252,-0.00021016,-0.00048998,0.00016115,
 0.00024200,0.00015220,-0.00002268,-0.00031639,-0.00006954,0.00002857,0
 .00009988,0.00011961,-0.00001211,-0.00044770,0.00002369,-0.00000251,-0
 .03992019,0.34348783,0.01886577,0.02594341,0.01622960,0.00328912,0.021
 68020,-0.06850480,-0.00124048,-0.00105637,0.01164485,-0.00294203,0.001
 30908,0.00442686,0.00089078,-0.00050127,-0.00077272,-0.00059769,-0.000
 36544,-0.00038849,0.00008497,0.00019037,-0.00003911,-0.00009054,-0.000
 02724,0.00009454,0.00011872,0.00003611,0.00000235,-0.00004060,-0.00002
 474,0.00009127,0.00017973,-0.00000806,0.00000626,0.00916341,-0.0834288
 0,0.10135916,0.00188619,0.01355689,-0.00429443,-0.07476079,0.00514676,
 -0.00105083,0.01017745,-0.00385677,0.00114846,-0.00911035,0.00152384,-
 0.00039343,0.00680209,-0.00166797,0.00046743,-0.00482466,-0.00199725,0
 .00065755,0.00095199,0.00150728,-0.00047809,-0.00075791,-0.00031019,0.
 00010255,0.00095822,0.00049960,-0.00016305,-0.00051343,-0.00065738,0.0
 0020927,0.00192632,-0.00017797,0.00004134,-0.18280356,0.06599032,-0.01
 977091,0.51661889,-0.00512648,-0.01107917,0.00159585,0.00430264,0.0293
 0433,-0.00910781,-0.00651479,-0.00277054,0.00175502,0.00187182,0.00050
 900,0.00045680,-0.00309035,0.00057909,-0.00029303,0.00215477,0.0009191
 7,-0.00037744,-0.00045280,-0.00068399,0.00020444,0.00033554,0.00014681
 ,-0.00004574,-0.00044166,-0.00023286,0.00007793,0.00021970,0.00028730,
 -0.00008467,-0.00089811,0.00006635,-0.00001599,0.08231486,-0.15872718,
 0.02672755,0.01915759,0.57980116,0.00153712,0.00145816,-0.00656114,-0.
 00078975,-0.00911703,0.00309685,0.00197846,0.00173525,0.00213801,-0.00
 050178,0.00045907,0.00187555,0.00091120,-0.00030330,-0.00034396,-0.000
 63867,-0.00034663,-0.00012551,0.00013400,0.00018983,-0.00010040,-0.000
 09908,-0.00004094,0.00002182,0.00013082,0.00007094,-0.00001690,-0.0000
 6463,-0.00007814,0.00004630,0.00026606,-0.00002129,-0.00000139,-0.0248
 6991,0.02685070,-0.07937186,-0.00530936,0.00923459,0.60704123,0.001529
 87,-0.00200582,0.00062560,0.00012464,0.00706524,-0.00220966,-0.0010099
 1,-0.00112113,0.00035793,-0.00020336,0.00017259,-0.00005149,-0.0003153
 2,0.00002311,-0.00000523,0.00020409,0.00010685,-0.00003498,-0.00004704
 ,-0.00007040,0.00002235,0.00003464,0.00001319,-0.00000436,-0.00004488,
 -0.00002470,0.00000804,0.00001983,0.00003317,-0.00001051,-0.00009528,0
 .00000196,0.00000011,-0.04979187,-0.01616067,0.00542347,-0.16045494,-0
 .06860067,0.02194414,0.54347101,-0.00240083,0.00280734,-0.00040691,-0.
 00017993,-0.00730888,0.00224467,0.00147791,0.00122682,-0.00038359,-0.0
 0033846,-0.00019192,0.00009142,0.00065940,-0.00008541,0.00000985,-0.00
 040158,-0.00020494,0.00006319,0.00008304,0.00012707,-0.00003958,-0.000
 06647,-0.00002403,0.00000849,0.00008628,0.00004332,-0.00001428,-0.0000
 4834,-0.00005997,0.00001873,0.00017498,-0.00000319,0.00000052,0.027335
 03,0.01417052,-0.00393985,-0.08134635,-0.14087072,0.01771174,-0.042953
 90,0.56108658,0.00075113,-0.00040973,0.00157120,0.00005520,0.00219094,
 -0.00081291,-0.00045337,-0.00036395,0.00015154,0.00010774,0.00008783,0
 .00006534,-0.00020362,0.00001444,-0.00004146,0.00012363,0.00005932,-0.
 00003164,-0.00002553,-0.00003838,0.00001449,0.00002049,0.00000789,-0.0
 0000102,-0.00002658,-0.00001344,0.00000402,0.00001492,0.00001810,-0.00
 000690,-0.00005384,0.00000179,0.00000244,-0.00814945,-0.00362164,0.003
 37180,0.02592163,0.01761824,-0.09168597,0.01371172,0.00792110,0.582877
 52,-0.00475574,0.00368510,-0.00107657,0.00799380,0.01966133,-0.0062245
 7,-0.06094481,-0.04224785,0.01344876,-0.01741728,-0.03180186,0.0101766
 6,0.00684592,-0.00645948,0.00191511,-0.00077856,0.00066733,-0.00020006
 ,-0.00000525,-0.00010690,0.00003331,-0.00004160,0.00017755,-0.00005195
 ,0.00000885,0.00013554,-0.00004263,-0.00028439,-0.00011233,0.00003789,
 0.00019236,-0.00022329,0.00006778,-0.00152027,0.00059159,-0.00017925,0
 .00019641,-0.00029027,0.00008481,0.00003578,-0.00002887,0.00000909,0.0
 6943713,0.00449163,-0.00093399,0.00190490,-0.01232087,-0.01594250,0.00
 397515,-0.03459174,-0.27769826,0.07881051,-0.01386664,-0.01097066,0.00
 851273,0.00432704,0.00227227,-0.00293154,-0.00041674,0.00041620,-0.000
 02000,0.00013015,-0.00022585,0.00006487,0.00008463,0.00021785,0.000066
 19,-0.00009508,0.00007375,-0.00003235,-0.00025814,-0.00000319,0.000033
 08,0.00003285,-0.00027969,0.00006367,0.00066778,0.00177263,-0.00079819
 ,0.00039917,0.00022202,-0.00025742,0.00000165,-0.00005315,0.00003052,0
 .05370075,0.30007216,-0.00132833,0.00191167,0.00468743,0.00376190,0.00
 373745,-0.00470220,0.01105829,0.07886728,-0.05081413,0.00457587,0.0086
 4628,0.01322957,-0.00145300,-0.00285295,-0.00611293,0.00013831,-0.0000
 2792,0.00035034,-0.00004074,0.00006662,-0.00003567,-0.00002292,0.00006
 557,0.00041163,0.00002939,-0.00003396,-0.00002169,0.00008334,0.0000319
 1,0.00008611,-0.00001212,0.00006550,-0.00009550,-0.00020284,-0.0007975
 4,-0.00051718,-0.00013047,-0.00025238,-0.00051339,-0.00000048,0.000030
 82,0.00003521,-0.01714810,-0.08850162,0.04565974,-0.00035101,-0.000325
 42,0.00010460,0.00008825,-0.00010331,0.00003607,0.00638642,0.00532432,
 -0.00176958,-0.00328862,0.03027693,-0.00928648,-0.05992551,-0.02656774
 ,0.00849781,-0.00150581,-0.02470708,0.00773248,-0.00482054,0.00028597,
 -0.00003040,0.00050777,-0.00139736,0.00043676,0.00008297,0.00045984,-0
 .00014353,-0.00041181,0.00020923,-0.00006657,0.00164322,-0.00275590,0.
 00084044,-0.00028398,-0.00003082,0.00001166,0.00002242,-0.00005120,0.0
 0001635,-0.00000565,0.00000865,-0.00000264,0.00063963,-0.00233682,0.00
 071424,0.06171380,0.00041210,0.00068223,-0.00019863,-0.00021207,-0.000
 73577,0.00041563,-0.00652074,0.00221775,-0.00317802,0.01339915,-0.0263
 2792,0.01428817,-0.03094418,-0.26550875,0.07291006,0.00135690,-0.00989
 563,0.00328029,-0.00199534,0.00077145,0.00076420,0.00068471,-0.0004920
 7,0.00031834,-0.00007294,0.00061545,-0.00016176,-0.00089272,0.00008637
 ,-0.00019944,0.00178802,-0.00056179,-0.00018697,0.00071537,0.00004483,
 -0.00002201,-0.00015162,0.00010804,-0.00000959,0.00001936,-0.00003672,
 0.00001164,0.00231265,0.00056901,-0.00064676,0.02097186,0.29777162,-0.
 00012575,-0.00019316,0.00011722,0.00007023,0.00041452,0.00045995,0.001
 92948,-0.00326439,-0.00710594,-0.00401491,0.01416251,0.01534363,0.0098
 6452,0.07287810,-0.05564385,-0.00040772,0.00347284,-0.00044167,0.00068
 208,0.00074724,0.00293254,-0.00021347,0.00033365,0.00044047,0.00002279
 ,-0.00016562,0.00014745,0.00027765,-0.00020761,-0.00051050,-0.00057883
 ,-0.00015345,-0.00106608,-0.00022152,-0.00001644,-0.00000182,0.0000477
 8,-0.00001041,0.00007657,-0.00000600,0.00001174,-0.00000254,-0.0007378
 0,-0.00061263,-0.00125104,-0.00686214,-0.08709370,0.04667445,0.0003540
 4,0.00054361,-0.00017430,0.00011252,-0.00086655,0.00027298,-0.00166616
 ,0.00028368,-0.00007725,0.00081446,-0.00265290,0.00081707,-0.00301563,
 0.00042273,-0.00012993,0.01009108,-0.00154415,0.00045829,-0.23808193,0
 .13649685,-0.04119225,-0.01393262,0.01689484,-0.00514076,-0.00294995,-
 0.00422423,0.00140629,0.00090227,0.00034406,-0.00014065,-0.00050545,-0
 .00105213,0.00038665,0.00015928,0.00006816,-0.00002292,-0.00005764,0.0
 0004180,-0.00001252,0.00000357,-0.00000166,0.00000046,0.00013775,0.000
 22392,-0.00007232,0.00004790,0.00038513,-0.00012167,0.24698299,0.00016
 928,-0.00012150,-0.00004374,-0.00011409,-0.00003810,0.00014731,-0.0016
 1074,0.00044676,-0.00016793,0.00169975,-0.00004337,-0.00022957,0.00067
 198,-0.00018274,-0.00080107,0.02498728,-0.01090303,0.00535464,0.134318
 85,-0.15574622,0.03444957,-0.01010446,0.01060384,-0.00181357,-0.002990
 60,0.00110088,0.00244035,-0.00057739,-0.00079626,-0.00087168,-0.002705
 76,-0.00392022,0.00354328,0.00019906,-0.00006504,0.00000004,-0.0000735
 7,0.00005989,-0.00001389,0.00000896,-0.00000702,0.00000124,0.00036494,
 0.00028439,-0.00015017,-0.00014183,0.00020838,-0.00010876,-0.14553477,
 0.15959648,-0.00005741,-0.00004656,-0.00024255,0.00003794,0.00015290,0
 .00038274,0.00051456,-0.00018199,-0.00007600,-0.00054242,-0.00019720,-
 0.00067227,-0.00020757,-0.00079923,-0.00248037,-0.00782870,0.00554968,
 0.00515370,-0.04051177,0.03443356,-0.05274165,0.00329211,-0.00201230,0
 .00516363,0.00102086,0.00244951,0.00807095,0.00014719,-0.00087850,-0.0
 0332739,0.00090303,0.00353112,0.00625069,-0.00006379,0.00000103,-0.000
 05999,0.00002350,-0.00001475,0.00001809,-0.00000285,0.00000133,-0.0000
 0321,-0.00011641,-0.00014915,-0.00014044,0.00004288,-0.00011268,-0.000
 10835,0.04384295,-0.04009002,0.04001085,-0.00003590,0.00025282,-0.0000
 7882,0.00024914,-0.00030666,0.00009381,-0.00030006,0.00002810,-0.00000
 644,0.00020369,0.00022000,-0.00006918,0.00079146,-0.00107723,0.0003308
 1,-0.00533447,-0.00127179,0.00050214,0.00110688,-0.02806853,0.00878667
 ,-0.06764413,-0.04757146,0.01507909,0.01127865,0.02087115,-0.00659378,
 -0.00313511,0.00474141,-0.00140110,-0.00213556,-0.00028279,0.00010270,
 -0.00013571,0.00001524,-0.00000377,0.00004996,-0.00003453,0.00001047,-
 0.00000388,0.00000489,-0.00000150,0.00000507,-0.00000835,0.00000274,-0
 .00042388,-0.00023205,0.00007296,0.00113812,0.00070354,-0.00026402,0.0
 6362984,-0.00015480,0.00047103,-0.00015160,0.00075987,-0.00061606,0.00
 018199,-0.00090607,0.00008890,-0.00001629,0.00085402,-0.00009807,0.000
 06903,-0.00029383,-0.00013439,0.00005152,-0.00117033,0.00250172,0.0020
 1139,0.00090241,-0.00524902,0.00281545,-0.04717151,-0.30547615,0.08399
 045,-0.01014001,-0.01193767,0.00414796,0.00448617,-0.00153934,0.002858
 52,0.00040448,0.00134540,-0.00047988,-0.00044973,-0.00003286,0.0000133
 4,0.00016509,-0.00008474,0.00002798,-0.00000884,0.00001291,-0.00000399
 ,-0.00001208,-0.00003351,0.00001750,-0.00018292,-0.00015320,-0.0000630
 1,-0.00007382,0.00018039,-0.00157928,0.05277537,0.32093856,0.00004848,
 -0.00015463,0.00002986,-0.00023929,0.00018992,-0.00007280,0.00028532,-
 0.00002321,0.00002039,-0.00026717,0.00007373,0.00012209,0.00008613,0.0
 0005724,0.00000502,0.00047044,0.00201210,0.00828182,-0.00026212,0.0030
 2872,0.00284223,0.01495413,0.08399329,-0.06402753,0.00309233,0.0039198
 6,-0.00014330,-0.00132141,0.00285661,0.00683558,-0.00011197,-0.0004748
 5,-0.00003234,0.00014146,0.00000991,-0.00000491,-0.00005187,0.00002947
 ,-0.00000002,0.00000279,-0.00000410,0.00000117,0.00000390,0.00001747,0
 .00001675,0.00005760,-0.00006265,-0.00034010,-0.00002124,-0.00158498,-
 0.00438235,-0.01675975,-0.09245987,0.05516385,-0.00014566,0.00022765,-
 0.00007030,0.00051257,-0.00027256,0.00008289,-0.00037455,0.00005203,-0
 .00001317,0.00022975,-0.00015984,0.00004635,-0.00016200,0.00025316,-0.
 00008602,0.00047689,0.00053567,-0.00016907,-0.00185111,0.00445477,-0.0
 0133477,-0.01635377,-0.01067554,0.00348254,-0.30917490,-0.06739591,0.0
 2307435,0.00024402,-0.01034952,0.00318425,0.00306038,0.00110693,-0.000
 29634,-0.00036124,-0.00004258,0.00001571,0.00013453,-0.00006473,0.0000
 1916,-0.00000664,0.00000867,-0.00000266,-0.00003182,-0.00005162,0.0000
 1550,-0.00005347,-0.00007696,0.00002536,-0.00073236,-0.00056887,0.0001
 8462,0.00047503,0.00039474,-0.00014955,0.32430704,-0.00005171,0.000186
 18,-0.00006971,0.00029438,-0.00023574,0.00013819,-0.00041981,0.0000503
 3,0.00000003,0.00034792,0.00002732,-0.00009097,-0.00033890,0.00026125,
 -0.00042572,0.00007951,-0.00069855,0.00029206,0.00250307,-0.00200203,0
 .00243477,0.01810101,0.00944793,-0.00190477,-0.06828421,-0.07030054,0.
 01183947,-0.03322296,-0.01945498,0.00434263,-0.00071112,-0.00218051,0.
 00374116,-0.00017449,-0.00001702,-0.00000439,0.00006422,-0.00003188,0.
 00000744,-0.00000344,0.00000469,-0.00000157,0.00000675,-0.00001374,-0.
 00003194,0.00004782,0.00005199,0.00002298,0.00074050,0.00037226,-0.000
 05593,-0.00080581,0.00012143,-0.00099902,0.08271031,0.08470425,0.00001
 694,-0.00007180,-0.00001596,-0.00009417,0.00014240,0.00016994,0.000134
 24,-0.00000346,0.00004057,-0.00011231,-0.00008716,-0.00022761,0.000098
 96,-0.00043009,-0.00097616,-0.00002662,0.00028870,0.00014837,-0.000725
 14,0.00242045,0.00510149,-0.00550564,-0.00169309,0.00434528,0.02335180
 ,0.01183301,-0.03787077,0.01032849,0.00417416,-0.00771368,0.00027168,0
 .00372785,0.00861426,0.00005691,-0.00000535,-0.00003393,-0.00002110,0.
 00000840,-0.00000897,0.00000112,-0.00000166,0.00000009,-0.00000273,-0.
 00003150,-0.00010600,-0.00001361,0.00002390,0.00011933,-0.00022439,-0.
 00004630,0.00022677,0.00022541,-0.00100786,-0.00278291,-0.02804006,-0.
 01945996,0.03063282,0.00004843,-0.00017431,0.00005393,-0.00021867,0.00
 019956,-0.00005981,0.00009786,0.00002910,-0.00001027,-0.00024442,-0.00
 086920,0.00027118,0.00130434,0.00236597,-0.00076539,0.00645644,0.02114
 201,-0.00659764,-0.00393854,0.00225251,-0.00063154,-0.00103784,-0.0003
 6155,0.00012355,-0.00297286,-0.00237419,0.00084538,-0.01127315,-0.0353
 8568,0.01109106,-0.05459694,-0.01499200,0.00479558,0.00015174,0.000000
 72,-0.00000146,-0.00005858,0.00003153,-0.00000937,0.00000401,-0.000003
 99,0.00000122,-0.00001814,0.00001615,-0.00000544,-0.00005559,-0.001006
 86,0.00031603,0.00019611,0.00128018,-0.00040891,0.00023778,-0.00012700
 ,0.00002570,-0.00015544,-0.00086317,0.00027375,0.06605695,0.00008545,-
 0.00007341,0.00001617,-0.00035589,0.00015493,-0.00000784,0.00044799,-0
 .00015357,0.00002549,0.00008371,0.00072211,-0.00031515,-0.00134367,-0.
 00042245,-0.00057100,-0.00585264,-0.01325720,0.00645253,0.00383348,-0.
 00026293,0.00187835,0.00078619,0.00018289,0.00006401,-0.00015046,0.004
 41961,0.00209915,-0.01329633,-0.00979258,0.00127330,-0.01377337,-0.297
 67447,0.08082019,0.00022582,0.00005945,-0.00002526,-0.00006887,0.00002
 277,-0.00000506,0.00000273,-0.00000802,0.00000271,0.00003590,0.0000541
 0,-0.00003960,0.00101941,0.00060053,-0.00014697,-0.00048245,-0.0010105
 9,-0.00000396,0.00003488,-0.00033396,-0.00041432,-0.00010771,-0.000303
 42,0.00022309,0.02885158,0.31708182,-0.00002719,0.00001810,-0.00002504
 ,0.00011367,-0.00001198,0.00012423,-0.00014111,0.00002862,-0.00006917,
 -0.00002642,-0.00030819,-0.00018855,0.00039331,-0.00059821,-0.00209820
 ,0.00183379,0.00625385,0.00529648,-0.00112537,0.00188998,0.00525913,-0
 .00023487,0.00007245,0.00038546,0.00015079,0.00211555,0.01047470,0.004
 19145,0.00143579,-0.00650847,0.00441520,0.08082924,-0.06452473,-0.0000
 7178,-0.00002359,-0.00000819,0.00002198,-0.00000581,0.00000657,-0.0000
 0088,0.00000276,-0.00000012,-0.00001162,-0.00003945,-0.00005944,-0.000
 31685,-0.00013209,0.00019760,0.00014165,-0.00001694,-0.00103042,-0.000
 02485,-0.00041314,-0.00153042,0.00003778,0.00022864,0.00033659,-0.0093
 1094,-0.09132554,0.05396788,-0.00050875,-0.00339537,0.00053199,0.00618
 174,0.00712850,-0.00125468,-0.00191485,-0.00052117,-0.00044062,0.00118
 174,-0.00022027,-0.00018590,-0.00097969,0.00024250,-0.00003110,0.00063
 315,0.00028303,-0.00004193,-0.00012619,-0.00018718,0.00005835,0.000097
 18,0.00003262,-0.00001470,-0.00012547,-0.00007158,0.00002191,0.0000842
 2,0.00008943,-0.00003399,-0.00026371,0.00002491,-0.00000825,-0.0154560
 0,0.03108397,0.01768291,-0.04650434,-0.00954381,-0.00855352,0.00026014
 ,-0.02088270,-0.01657491,0.00019119,-0.00009172,0.00018305,0.00000235,
 0.00000661,-0.00002301,-0.00000343,0.00000722,0.00000166,-0.00000726,-
 0.00001937,0.00000668,-0.00001316,-0.00000717,0.00000399,0.00000654,0.
 00000787,-0.00000245,0.05805095,-0.00083880,0.00234408,0.00021189,-0.0
 0622340,-0.00371420,0.00136580,0.00145488,0.00009474,-0.00015707,-0.00
 087713,0.00019721,0.00016327,0.00081904,-0.00017729,0.00004989,-0.0005
 7825,-0.00024617,0.00007553,0.00011949,0.00018099,-0.00005383,-0.00008
 892,-0.00003674,0.00001297,0.00011663,0.00006232,-0.00001968,-0.000061
 18,-0.00007580,0.00003001,0.00023722,-0.00002009,0.00000720,0.01774930
 ,-0.02018537,-0.00761608,-0.00545716,-0.20996538,-0.12321727,-0.001077
 36,-0.01218993,-0.01012611,-0.00003237,0.00005382,-0.00016210,0.000000
 62,-0.00002468,-0.00000879,-0.00000841,-0.00001369,-0.00000081,0.00000
 790,0.00002086,-0.00000851,0.00001640,0.00000779,-0.00000344,-0.000007
 93,-0.00000738,-0.00000036,-0.00175993,0.23618891,-0.00170695,0.002268
 21,-0.00011903,-0.00177811,-0.00338363,0.00169358,0.00006520,0.0003143
 0,-0.00045717,0.00006593,0.00001525,-0.00010516,-0.00000624,-0.0000033
 2,0.00003751,-0.00001694,0.00001021,0.00001426,0.00000880,-0.00000323,
 0.00000519,0.00000046,-0.00000044,0.00000031,0.00000125,0.00000318,-0.
 00000110,-0.00000393,0.00000255,-0.00000001,0.00000620,-0.00000273,0.0
 0000173,0.00367789,0.00735845,0.01005472,-0.00471597,-0.12486224,-0.14
 907556,0.00058252,0.00740912,0.00491059,-0.00003685,0.00008534,-0.0000
 3177,-0.00000322,0.00000870,-0.00001518,0.00000362,-0.00000359,-0.0000
 0257,0.00000247,0.00000139,-0.00000220,0.00000033,0.00000062,-0.000000
 13,-0.00000096,0.00000269,-0.00000207,0.00535743,0.13338252,0.14981531
 ,-0.00047942,-0.00312778,0.00152336,0.00621568,0.00661676,-0.00312004,
 -0.00191182,-0.00017774,0.00068193,0.00118646,-0.00008174,0.00026192,-
 0.00098244,0.00022209,-0.00009891,0.00063439,0.00025464,-0.00013510,-0
 .00012666,-0.00018703,0.00006046,0.00009748,0.00003490,-0.00000782,-0.
 00012581,-0.00007102,0.00002448,0.00008452,0.00009273,-0.00002412,-0.0
 0026446,0.00002639,-0.00000386,-0.01593315,0.01562015,-0.03191347,-0.0
 4630351,-0.00213072,0.00960215,0.00056557,-0.00778016,0.02554513,0.000
 18988,-0.00018227,-0.00010100,0.00000268,0.00001834,0.00001494,-0.0000
 0351,0.00000506,-0.00000551,-0.00000733,-0.00001980,0.00000563,-0.0000
 1323,-0.00000815,0.00000099,0.00000658,0.00000781,-0.00000257,0.001722
 38,-0.00112083,-0.00151905,0.05795854,0.00027266,0.00039778,-0.0005747
 2,-0.00413076,-0.00103088,0.00058069,0.00116600,-0.00016179,-0.0000682
 6,-0.00076710,0.00001944,-0.00023783,0.00068154,-0.00013334,0.00005701
 ,-0.00046840,-0.00020109,0.00008092,0.00009379,0.00015117,-0.00004844,
 -0.00007380,-0.00003044,0.00000945,0.00009572,0.00004941,-0.00001673,-
 0.00004850,-0.00006669,0.00001676,0.00019265,-0.00001604,0.00000191,0.
 01281358,-0.01040373,0.02164292,-0.00097036,-0.07422979,0.07146357,-0.
 00101277,-0.00535306,0.01715325,-0.00000484,0.00006288,0.00009767,0.00
 000241,-0.00002163,0.00001314,-0.00000893,-0.00000801,0.00000473,0.000
 00514,0.00001679,-0.00000469,0.00001337,0.00000652,-0.00000136,-0.0000
 0598,-0.00000675,0.00000369,-0.00034641,0.00768624,-0.02360902,-0.0055
 4506,0.08353199,0.00190421,-0.00258559,0.00179268,0.00492751,0.0051534
 0,-0.00102730,-0.00085907,-0.00051582,-0.00020185,0.00042827,-0.000099
 78,0.00006668,-0.00044636,0.00011766,-0.00000268,0.00033396,0.00013428
 ,-0.00003266,-0.00007333,-0.00009448,0.00003555,0.00004882,0.00002111,
 -0.00000639,-0.00006557,-0.00003690,0.00001227,0.00003690,0.00004197,-
 0.00000949,-0.00013624,0.00001460,-0.00000131,-0.01287429,0.00655070,0
 .00075113,0.00412145,0.07314694,-0.28502321,0.00009977,-0.00018727,-0.
 00222631,0.00004501,-0.00014806,-0.00003921,0.00000200,-0.00000457,-0.
 00001852,0.00000176,0.00000729,-0.00000817,-0.00000646,-0.00001417,0.0
 0000194,-0.00000941,-0.00000508,0.00000123,0.00000517,0.00000041,-0.00
 000273,0.00163655,0.00530316,-0.01881172,-0.00053045,-0.08745755,0.302
 57696,-0.00055565,0.00072872,-0.00049603,-0.00092514,-0.00140732,0.000
 34066,0.00019544,0.00004638,-0.00005449,-0.00012232,0.00007080,-0.0000
 3718,0.00013513,-0.00004478,0.00001298,-0.00011092,-0.00004076,0.00001
 349,0.00002429,0.00003275,-0.00001115,-0.00001629,-0.00000645,0.000001
 25,0.00002052,0.00001311,-0.00000444,-0.00001182,-0.00001584,0.0000037
 4,0.00004534,-0.00000688,0.00000170,0.00403583,0.00072648,-0.00088168,
 0.00063006,-0.00839284,0.02793389,-0.04574015,0.00410820,-0.00978895,-
 0.00003596,0.00006370,0.00000346,-0.00000078,0.00000407,0.00000244,-0.
 00000076,-0.00000288,0.00000272,0.00000197,0.00000467,-0.00000108,0.00
 000357,0.00000192,-0.00000032,-0.00000204,0.00000036,0.00000057,0.0009
 9007,0.00068135,-0.00067612,-0.00407856,-0.00286504,0.00053210,0.04612
 891,-0.00049281,0.00028036,-0.00033570,0.00039265,-0.00065300,0.000125
 82,-0.00031332,0.00006444,-0.00001633,0.00026130,-0.00001633,0.0000071
 7,-0.00021874,0.00004983,-0.00001839,0.00015176,0.00006583,-0.00002488
 ,-0.00002858,-0.00005172,0.00001489,0.00002471,0.00000935,-0.00000433,
 -0.00003052,-0.00001641,0.00000495,0.00001550,0.00002251,-0.00000861,-
 0.00006224,0.00000655,-0.00000164,0.00134624,0.00079123,-0.00163605,0.
 00162341,-0.00726118,0.02166488,0.00272418,-0.07358756,0.08014859,0.00
 000347,0.00001220,0.00000317,-0.00000193,0.00000775,0.00000069,0.00000
 301,0.00000281,0.00000158,-0.00000106,-0.00000493,0.00000248,-0.000004
 68,-0.00000196,0.00000105,0.00000181,0.00000271,-0.00000022,0.00093113
 ,0.00028600,0.00000899,-0.00381343,-0.00126999,0.00012888,0.00001780,0
 .07735085,0.00022193,-0.00049513,0.00018308,-0.00019193,0.00042259,-0.
 00009227,0.00029741,0.00008838,0.00002262,-0.00022485,-0.00007327,0.00
 002699,0.00017940,-0.00001340,0.00000874,-0.00010735,-0.00006078,0.000
 02017,0.00001864,0.00003928,-0.00000996,-0.00002036,-0.00000758,0.0000
 0387,0.00002291,0.00000883,-0.00000256,-0.00000856,-0.00001746,0.00000
 789,0.00004306,0.00000357,-0.00000007,0.00007884,-0.00078801,0.0009474
 9,-0.00126407,0.00190505,-0.00558190,-0.00770541,0.08136208,-0.2964322
 9,0.00002586,-0.00005464,-0.00000754,0.00000296,-0.00001688,0.00000067
 ,-0.00000112,-0.00000074,-0.00000238,-0.00000063,0.00000216,-0.0000017
 0,0.00000305,0.00000107,-0.00000093,-0.00000072,-0.00000516,0.00000026
 ,0.00035138,0.00002200,0.00097847,0.00085864,0.00088731,0.00148667,0.0
 0769545,-0.08991621,0.31583752,-0.00008043,-0.00102607,0.00031999,0.00
 238501,0.00267124,-0.00084787,-0.00126214,-0.00046952,0.00015587,0.000
 78113,0.00001930,-0.00001209,-0.00082253,0.00016332,-0.00004485,0.0005
 7943,0.00026016,-0.00008549,-0.00011409,-0.00019200,0.00006081,0.00009
 487,0.00003848,-0.00001273,-0.00011634,-0.00006298,0.00002053,0.000060
 07,0.00008679,-0.00002756,-0.00024114,0.00002014,-0.00000451,-0.008550
 41,-0.00521196,0.00169897,-0.01450702,0.01797344,-0.00551666,-0.242963
 31,0.11607456,-0.03475153,-0.00000336,0.00002954,-0.00000927,-0.000009
 89,0.00002908,-0.00000902,0.00001012,0.00001279,-0.00000406,-0.0000063
 0,-0.00002116,0.00000666,-0.00001798,-0.00000819,0.00000269,0.00000748
 ,0.00000821,-0.00000262,0.00056965,-0.00043432,-0.00057322,0.00057775,
 -0.00003600,0.00071041,0.00050452,-0.00134002,0.00043741,0.26230465,0.
 00037649,-0.00026632,0.00003613,-0.00066594,0.00144918,-0.00025059,-0.
 00019121,-0.00033327,0.00009890,-0.00012805,0.00011730,-0.00005205,0.0
 0000372,-0.00003380,0.00001454,-0.00003557,-0.00000025,0.00000204,0.00
 000661,0.00001032,-0.00000338,-0.00000383,-0.00000234,0.00000033,0.000
 00349,0.00000420,-0.00000145,-0.00000108,-0.00000423,0.00000100,0.0000
 0995,-0.00000702,0.00000219,-0.00473514,-0.00181913,0.00100075,-0.0147
 0095,0.01156543,-0.00425392,0.11876043,-0.11829078,0.02157689,-0.00001
 080,0.00004154,-0.00001578,-0.00000139,0.00000971,-0.00000328,-0.00000
 139,-0.00000103,0.00000069,0.00000033,0.00000199,-0.00000053,0.0000024
 3,0.00000102,-0.00000017,-0.00000117,0.00000138,-0.00000044,0.00080146
 ,0.00036237,-0.00053487,0.00077825,0.00052164,0.00021220,0.00671952,-0
 .00526235,-0.00026869,-0.12708037,0.12254307,-0.00011803,0.00004616,-0
 .00015535,0.00019497,-0.00027426,0.00071638,0.00006877,0.00010076,-0.0
 0005324,0.00003377,-0.00005314,-0.00003623,0.00000499,0.00001336,0.000
 00866,0.00000687,-0.00000013,0.00000546,-0.00000122,-0.00000191,0.0000
 0026,0.00000049,0.00000001,-0.00000140,-0.00000024,-0.00000096,-0.0000
 0006,-0.00000011,0.00000036,-0.00000115,-0.00000133,0.00000211,-0.0000
 0042,0.00154838,0.00100389,0.00095189,0.00467420,-0.00449461,-0.001052
 26,-0.03558835,0.02159604,-0.05277354,0.00000333,-0.00001605,-0.000004
 21,0.00000050,-0.00000350,0.00000026,0.00000037,0.00000058,0.00000095,
 -0.00000006,-0.00000037,0.00000042,-0.00000062,-0.00000009,0.00000058,
 0.00000031,-0.00000051,0.00000009,-0.00020468,-0.00001055,0.00007755,-
 0.00029757,-0.00029716,-0.00009144,-0.02555880,0.01395678,-0.00175442,
 0.03802363,-0.02362136,0.05088502,-0.00055205,0.00088843,-0.00000155,-
 0.00092221,-0.00134933,0.00053423,0.00019326,0.00006719,0.00001681,-0.
 00012019,0.00008093,-0.00000837,0.00013362,-0.00004475,0.00001306,-0.0
 0011009,-0.00004019,0.00001342,0.00002417,0.00003288,-0.00000967,-0.00
 001611,-0.00000588,0.00000286,0.00002034,0.00001317,-0.00000406,-0.000
 01175,-0.00001495,0.00000607,0.00004502,-0.00000687,0.00000195,0.00403
 665,0.00109238,0.00025958,0.00030219,-0.02277074,-0.01820341,-0.045570
 93,0.00641165,0.00377222,-0.00003659,0.00005103,-0.00003905,-0.0000008
 6,0.00000212,-0.00000442,-0.00000078,-0.00000393,-0.00000061,0.0000019
 8,0.00000444,-0.00000180,0.00000354,0.00000173,-0.00000088,-0.00000204
 ,0.00000003,-0.00000068,-0.00406845,-0.00263685,0.00126547,0.00098798,
 0.00094710,0.00016729,-0.00111527,-0.00118965,-0.00071194,0.00082025,0
 .02009421,0.01721043,0.04595835,-0.00052580,0.00063533,0.00002864,0.00
 043786,-0.00072330,0.00030570,-0.00042734,0.00001873,0.00002578,0.0003
 4327,0.00002679,-0.00001286,-0.00028243,0.00005279,-0.00000740,0.00018
 640,0.00009051,-0.00002678,-0.00003418,-0.00006354,0.00002271,0.000032
 00,0.00001303,-0.00000253,-0.00003821,-0.00001827,0.00000652,0.0000177
 0,0.00002997,-0.00000694,-0.00007587,0.00000386,0.00000017,0.00106419,
 0.00196632,0.00090998,0.00180224,-0.01765394,-0.01320970,0.00410629,-0
 .22120398,-0.13226568,-0.00001195,0.00002969,-0.00002872,-0.00000334,0
 .00001303,-0.00000919,0.00000307,0.00000074,-0.00000378,-0.00000054,-0
 .00000608,0.00000055,-0.00000560,-0.00000260,0.00000020,0.00000189,0.0
 0000443,-0.00000269,-0.00359258,-0.00082863,0.00153157,0.00056861,0.00
 048936,0.00031667,-0.00043704,0.00917300,0.00697563,-0.00150445,-0.010
 60862,-0.00794547,-0.00162416,0.23856139,0.00010306,0.00016859,-0.0001
 7554,-0.00005310,0.00003506,-0.00002326,-0.00006855,-0.00008520,0.0000
 7060,0.00003808,0.00007091,-0.00001832,-0.00002500,-0.00001539,0.00000
 730,0.00000350,0.00001227,-0.00000536,0.00000060,-0.00000269,0.0000020
 0,0.00000292,0.00000124,0.,-0.00000177,0.00000193,-0.00000052,-0.00000
 160,0.00000240,0.00000036,-0.00000063,-0.00000595,0.00000295,-0.000887
 34,0.00006632,-0.00022890,0.00020644,0.00680460,0.00514146,0.00284061,
 -0.13350637,-0.14898749,-0.00002296,0.00002817,-0.00002444,-0.00000135
 ,0.00000831,-0.00000455,-0.00000079,-0.00000136,-0.00000029,0.00000108
 ,0.00000079,-0.00000057,0.00000010,0.00000007,-0.00000026,-0.00000042,
 0.00000228,-0.00000145,0.00153382,0.00076036,0.00103448,-0.00082012,0.
 00030276,0.00077788,0.00096581,-0.02410756,-0.01563841,0.00046453,0.00
 606084,0.00327619,-0.00427694,0.14339763,0.15479615\\-0.00003235,-0.00
 004650,0.00001842,0.00007502,0.00006323,-0.00002735,-0.00003194,-0.000
 03149,0.00001221,0.00002543,0.00001858,-0.00000581,-0.00001233,-0.0000
 0964,0.00000192,-0.00000704,0.00003191,-0.00000813,-0.00003197,-0.0000
 1741,0.00000510,0.00002730,-0.00000054,0.00000082,-0.00000972,0.000022
 50,-0.00000768,-0.00001987,-0.00001999,0.00000670,0.00003149,-0.000002
 42,0.00000037,-0.00005837,-0.00000393,-0.00000183,0.00005289,-0.000034
 50,0.00001112,-0.00000854,0.00001390,-0.00000298,0.00000803,0.00000667
 ,0.00000027,0.00000751,0.00000167,-0.00000184,0.00000480,0.00000302,-0
 .00000109,-0.00000392,-0.00000024,0.00000015,-0.00000156,0.00000064,-0
 .00000037,0.00000069,0.00000309,-0.00000116,-0.00000954,0.00001130,-0.
 00000010,-0.00000816,0.00000485,-0.00000281,-0.00000110,-0.00000396,-0
 .00000118,0.00000212,-0.00000902,0.00000203,0.00000115,-0.00000171,0.0
 0000320\\\@
 The archive entry for this job was punched.


 IN NATURE THERE ARE NEITHER REWARDS OR
 PUNISHMENTS -- THERE ARE CONSEQUENCES.

                            -- ROBERT GREEN INGERSOLL
 Job cpu time:       0 days  2 hours 37 minutes 28.0 seconds.
 Elapsed time:       0 days  0 hours  9 minutes 56.9 seconds.
 File lengths (MBytes):  RWF=    264 Int=      0 D2E=      0 Chk=      7 Scr=      2
 Normal termination of Gaussian 16 at Fri Jul 18 09:50:51 2025.
 Initial command:
 /uufs/chpc.utah.edu/sys/installdir/gaussian16/C01/AVX/g16/l1.exe "/scratch/general/vast/u6067110/5269538-notchpeak.peaks/Gau-3924795.inp" -scrdir="/scratch/general/vast/u6067110/5269538-notchpeak.peaks/"
 Entering Link 1 = /uufs/chpc.utah.edu/sys/installdir/gaussian16/C01/AVX/g16/l1.exe PID=   3929557.
  
 Copyright (c) 1988-2019, Gaussian, Inc.  All Rights Reserved.
  
 This is part of the Gaussian(R) 16 program.  It is based on
 the Gaussian(R) 09 system (copyright 2009, Gaussian, Inc.),
 the Gaussian(R) 03 system (copyright 2003, Gaussian, Inc.),
 the Gaussian(R) 98 system (copyright 1998, Gaussian, Inc.),
 the Gaussian(R) 94 system (copyright 1995, Gaussian, Inc.),
 the Gaussian 92(TM) system (copyright 1992, Gaussian, Inc.),
 the Gaussian 90(TM) system (copyright 1990, Gaussian, Inc.),
 the Gaussian 88(TM) system (copyright 1988, Gaussian, Inc.),
 the Gaussian 86(TM) system (copyright 1986, Carnegie Mellon
 University), and the Gaussian 82(TM) system (copyright 1983,
 Carnegie Mellon University). Gaussian is a federally registered
 trademark of Gaussian, Inc.
  
 This software contains proprietary and confidential information,
 including trade secrets, belonging to Gaussian, Inc.
  
 This software is provided under written license and may be
 used, copied, transmitted, or stored only in accord with that
 written license.
  
 The following legend is applicable only to US Government
 contracts under FAR:
  
                    RESTRICTED RIGHTS LEGEND
  
 Use, reproduction and disclosure by the US Government is
 subject to restrictions as set forth in subparagraphs (a)
 and (c) of the Commercial Computer Software - Restricted
 Rights clause in FAR 52.227-19.
  
 Gaussian, Inc.
 340 Quinnipiac St., Bldg. 40, Wallingford CT 06492
  
  
 ---------------------------------------------------------------
 Warning -- This program may not be used in any manner that
 competes with the business of Gaussian, Inc. or will provide
 assistance to any competitor of Gaussian, Inc.  The licensee
 of this program is prohibited from giving any competitor of
 Gaussian, Inc. access to this program.  By using this program,
 the user acknowledges that Gaussian, Inc. is engaged in the
 business of creating and licensing software in the field of
 computational chemistry and represents and warrants to the
 licensee that it is not a competitor of Gaussian, Inc. and that
 it will not use this program in any manner prohibited above.
 ---------------------------------------------------------------
  

 Cite this work as:
 Gaussian 16, Revision C.01,
 M. J. Frisch, G. W. Trucks, H. B. Schlegel, G. E. Scuseria, 
 M. A. Robb, J. R. Cheeseman, G. Scalmani, V. Barone, 
 G. A. Petersson, H. Nakatsuji, X. Li, M. Caricato, A. V. Marenich, 
 J. Bloino, B. G. Janesko, R. Gomperts, B. Mennucci, H. P. Hratchian, 
 J. V. Ortiz, A. F. Izmaylov, J. L. Sonnenberg, D. Williams-Young, 
 F. Ding, F. Lipparini, F. Egidi, J. Goings, B. Peng, A. Petrone, 
 T. Henderson, D. Ranasinghe, V. G. Zakrzewski, J. Gao, N. Rega, 
 G. Zheng, W. Liang, M. Hada, M. Ehara, K. Toyota, R. Fukuda, 
 J. Hasegawa, M. Ishida, T. Nakajima, Y. Honda, O. Kitao, H. Nakai, 
 T. Vreven, K. Throssell, J. A. Montgomery, Jr., J. E. Peralta, 
 F. Ogliaro, M. J. Bearpark, J. J. Heyd, E. N. Brothers, K. N. Kudin, 
 V. N. Staroverov, T. A. Keith, R. Kobayashi, J. Normand, 
 K. Raghavachari, A. P. Rendell, J. C. Burant, S. S. Iyengar, 
 J. Tomasi, M. Cossi, J. M. Millam, M. Klene, C. Adamo, R. Cammi, 
 J. W. Ochterski, R. L. Martin, K. Morokuma, O. Farkas, 
 J. B. Foresman, and D. J. Fox, Gaussian, Inc., Wallingford CT, 2019.
 
 ******************************************
 Gaussian 16:  ES64L-G16RevC.01  3-Jul-2019
                18-Jul-2025 
 ******************************************
 %NProcShared=32
 Will use up to   32 processors via shared memory.
 %Mem=48GB
 %chk=A12_crest_conformers_censo-1.chk
 ----------------------------------------------------------------------
 #N Guess=Read Geom=Check Integral(Ultrafine) Density Pop=NBO7 Pop=Hirs
 hfeld Pop=(ChelpG,ReadRadii) Polar Prop=(Potential,EFG) Volume M062X E
 mpiricalDispersion=GD3 def2TZVPP SCRF(IEFPCM,solvent=thf)
 ----------------------------------------------------------------------
 1/29=2,38=1,172=1/1;
 2/12=2,40=1/2;
 3/5=44,7=202,11=2,14=-4,25=1,30=1,70=2201,72=20,74=-55,75=-5,116=-2,124=31/1,2,3;
 4/5=1/1;
 5/5=2,38=6,53=20,98=1/2;
 8/6=4,10=90,11=11/1;
 10/6=1,13=10/2;
 6/7=2,8=2,9=2,10=2,14=4,15=8,20=103,22=-1,28=1,40=1,44=1,79=1,113=1,114=1,124=3103/1,2,4,12;
 99/5=1,9=1/99;
 ----------------------------
 A12_crest_conformers_censo-1
 ----------------------------
 Structure from the checkpoint file:  "A12_crest_conformers_censo-1.chk"
 Charge = -1 Multiplicity = 1
 Redundant internal coordinates found in file.  (old form).
 O,0,2.4222484668,-1.3950603087,0.4283849601
 C,0,2.4020333573,-0.2343386071,0.0660376075
 C,0,1.2924511888,0.6346011953,-0.1970662256
 N,0,0.0516968905,0.1989049515,-0.0518664429
 C,0,-1.0069089797,0.9339698532,-0.2736348498
 C,0,-2.3341754416,0.4004006208,-0.0971960383
 C,0,-2.5674389423,-0.9300552298,0.320077402
 C,0,-3.8697290653,-1.3795017998,0.470046623
 C,0,-4.9332126025,-0.5080756552,0.2056849094
 N,0,-4.7422014596,0.7513895855,-0.1891018352
 C,0,-3.4932206143,1.1790567892,-0.3318706561
 O,0,3.6033106898,0.4312704604,-0.1507398809
 C,0,4.7566628233,-0.3339656347,0.0796573544
 C,0,5.959118616,0.544118682,-0.2030588581
 H,0,1.5194975045,1.6622065295,-0.5195987033
 H,0,-0.9194988381,1.9861621734,-0.6029184582
 H,0,-1.6987685276,-1.5629426158,0.5113572329
 H,0,-4.0719062903,-2.404040881,0.7915418387
 H,0,-5.9707255444,-0.8413780878,0.3174196757
 H,0,-3.3674137912,2.2196024924,-0.6578051016
 H,0,4.7567298634,-1.2314652892,-0.5622811593
 H,0,4.7689259891,-0.7072604554,1.1179699113
 H,0,5.9368605673,0.8973445905,-1.2438761976
 H,0,6.8963965819,-0.0073111899,-0.0379886462
 H,0,5.9493875582,1.4264878306,0.4526055382
 Recover connectivity data from disk.
                           ----------------------------
                           !    Current Parameters    !
                           ! (Angstroms and Degrees)  !
 --------------------------                            --------------------------
 ! Name  Definition              Value                                          !
 --------------------------------------------------------------------------------
 ! R1    R(1,2)                  1.2161                                         !
 ! R2    R(2,3)                  1.4337                                         !
 ! R3    R(2,12)                 1.3904                                         !
 ! R4    R(3,4)                  1.323                                          !
 ! R5    R(3,15)                 1.1007                                         !
 ! R6    R(4,5)                  1.3077                                         !
 ! R7    R(5,6)                  1.4413                                         !
 ! R8    R(5,16)                 1.106                                          !
 ! R9    R(6,7)                  1.4137                                         !
 ! R10   R(6,11)                 1.4159                                         !
 ! R11   R(7,8)                  1.3858                                         !
 ! R12   R(7,17)                 1.0917                                         !
 ! R13   R(8,9)                  1.4001                                         !
 ! R14   R(8,18)                 1.0927                                         !
 ! R15   R(9,10)                 1.3336                                         !
 ! R16   R(9,19)                 1.0954                                         !
 ! R17   R(10,11)                1.3279                                         !
 ! R18   R(11,20)                1.0976                                         !
 ! R19   R(12,13)                1.4032                                         !
 ! R20   R(13,14)                1.5155                                         !
 ! R21   R(13,21)                1.1034                                         !
 ! R22   R(13,22)                1.1034                                         !
 ! R23   R(14,23)                1.0993                                         !
 ! R24   R(14,24)                1.0999                                         !
 ! R25   R(14,25)                1.0993                                         !
 ! A1    A(1,2,3)              130.2419                                         !
 ! A2    A(1,2,12)             119.2757                                         !
 ! A3    A(3,2,12)             110.4824                                         !
 ! A4    A(2,3,4)              120.4028                                         !
 ! A5    A(2,3,15)             117.3851                                         !
 ! A6    A(4,3,15)             122.2121                                         !
 ! A7    A(3,4,5)              123.7414                                         !
 ! A8    A(4,5,6)              121.104                                          !
 ! A9    A(4,5,16)             121.4176                                         !
 ! A10   A(6,5,16)             117.4784                                         !
 ! A11   A(5,6,7)              122.4426                                         !
 ! A12   A(5,6,11)             122.0012                                         !
 ! A13   A(7,6,11)             115.5563                                         !
 ! A14   A(6,7,8)              119.4862                                         !
 ! A15   A(6,7,17)             117.7762                                         !
 ! A16   A(8,7,17)             122.7376                                         !
 ! A17   A(7,8,9)              119.44                                           !
 ! A18   A(7,8,18)             120.652                                          !
 ! A19   A(9,8,18)             119.908                                          !
 ! A20   A(8,9,10)             122.3365                                         !
 ! A21   A(8,9,19)             120.7154                                         !
 ! A22   A(10,9,19)            116.9481                                         !
 ! A23   A(9,10,11)            118.0798                                         !
 ! A24   A(6,11,10)            125.1013                                         !
 ! A25   A(6,11,20)            118.472                                          !
 ! A26   A(10,11,20)           116.4268                                         !
 ! A27   A(2,12,13)            115.0555                                         !
 ! A28   A(12,13,14)           107.7914                                         !
 ! A29   A(12,13,21)           110.3713                                         !
 ! A30   A(12,13,22)           110.3733                                         !
 ! A31   A(14,13,21)           111.2648                                         !
 ! A32   A(14,13,22)           111.2675                                         !
 ! A33   A(21,13,22)           105.7987                                         !
 ! A34   A(13,14,23)           110.2862                                         !
 ! A35   A(13,14,24)           110.955                                          !
 ! A36   A(13,14,25)           110.2888                                         !
 ! A37   A(23,14,24)           108.6884                                         !
 ! A38   A(23,14,25)           107.8539                                         !
 ! A39   A(24,14,25)           108.6886                                         !
 ! D1    D(1,2,3,4)             -0.0056                                         !
 ! D2    D(1,2,3,15)           179.9952                                         !
 ! D3    D(12,2,3,4)           179.9964                                         !
 ! D4    D(12,2,3,15)           -0.0027                                         !
 ! D5    D(1,2,12,13)            0.0016                                         !
 ! D6    D(3,2,12,13)          179.9999                                         !
 ! D7    D(2,3,4,5)           -179.9956                                         !
 ! D8    D(15,3,4,5)             0.0035                                         !
 ! D9    D(3,4,5,6)           -179.9984                                         !
 ! D10   D(3,4,5,16)             0.0024                                         !
 ! D11   D(4,5,6,7)              0.0009                                         !
 ! D12   D(4,5,6,11)          -179.9985                                         !
 ! D13   D(16,5,6,7)          -179.9999                                         !
 ! D14   D(16,5,6,11)            0.0007                                         !
 ! D15   D(5,6,7,8)           -179.9995                                         !
 ! D16   D(5,6,7,17)             0.0004                                         !
 ! D17   D(11,6,7,8)            -0.0001                                         !
 ! D18   D(11,6,7,17)          179.9998                                         !
 ! D19   D(5,6,11,10)          179.9993                                         !
 ! D20   D(5,6,11,20)           -0.0004                                         !
 ! D21   D(7,6,11,10)           -0.0002                                         !
 ! D22   D(7,6,11,20)         -179.9998                                         !
 ! D23   D(6,7,8,9)              0.0004                                         !
 ! D24   D(6,7,8,18)          -179.9999                                         !
 ! D25   D(17,7,8,9)          -179.9995                                         !
 ! D26   D(17,7,8,18)            0.0001                                         !
 ! D27   D(7,8,9,10)            -0.0006                                         !
 ! D28   D(7,8,9,19)           179.9995                                         !
 ! D29   D(18,8,9,10)          179.9998                                         !
 ! D30   D(18,8,9,19)           -0.0001                                         !
 ! D31   D(8,9,10,11)            0.0003                                         !
 ! D32   D(19,9,10,11)        -179.9998                                         !
 ! D33   D(9,10,11,6)            0.0001                                         !
 ! D34   D(9,10,11,20)         179.9997                                         !
 ! D35   D(2,12,13,14)        -179.984                                          !
 ! D36   D(2,12,13,21)          58.3164                                         !
 ! D37   D(2,12,13,22)         -58.28                                           !
 ! D38   D(12,13,14,23)        -59.502                                          !
 ! D39   D(12,13,14,24)       -179.9902                                         !
 ! D40   D(12,13,14,25)         59.5194                                         !
 ! D41   D(21,13,14,23)         61.6415                                         !
 ! D42   D(21,13,14,24)        -58.8467                                         !
 ! D43   D(21,13,14,25)       -179.3371                                         !
 ! D44   D(22,13,14,23)        179.3504                                         !
 ! D45   D(22,13,14,24)         58.8622                                         !
 ! D46   D(22,13,14,25)        -61.6282                                         !
 --------------------------------------------------------------------------------
                          Input orientation:                          
 ---------------------------------------------------------------------
 Center     Atomic      Atomic             Coordinates (Angstroms)
 Number     Number       Type             X           Y           Z
 ---------------------------------------------------------------------
      1          8           0        2.422248   -1.395060    0.428385
      2          6           0        2.402033   -0.234339    0.066038
      3          6           0        1.292451    0.634601   -0.197066
      4          7           0        0.051697    0.198905   -0.051866
      5          6           0       -1.006909    0.933970   -0.273635
      6          6           0       -2.334175    0.400401   -0.097196
      7          6           0       -2.567439   -0.930055    0.320077
      8          6           0       -3.869729   -1.379502    0.470047
      9          6           0       -4.933213   -0.508076    0.205685
     10          7           0       -4.742201    0.751390   -0.189102
     11          6           0       -3.493221    1.179057   -0.331871
     12          8           0        3.603311    0.431270   -0.150740
     13          6           0        4.756663   -0.333966    0.079657
     14          6           0        5.959119    0.544119   -0.203059
     15          1           0        1.519498    1.662207   -0.519599
     16          1           0       -0.919499    1.986162   -0.602918
     17          1           0       -1.698769   -1.562943    0.511357
     18          1           0       -4.071906   -2.404041    0.791542
     19          1           0       -5.970726   -0.841378    0.317420
     20          1           0       -3.367414    2.219602   -0.657805
     21          1           0        4.756730   -1.231465   -0.562281
     22          1           0        4.768926   -0.707260    1.117970
     23          1           0        5.936861    0.897345   -1.243876
     24          1           0        6.896397   -0.007311   -0.037989
     25          1           0        5.949388    1.426488    0.452606
 ---------------------------------------------------------------------
                    Distance matrix (angstroms):
                    1          2          3          4          5
     1  O    0.000000
     2  C    1.216133   0.000000
     3  C    2.405651   1.433685   0.000000
     4  N    2.896702   2.392840   1.323021   0.000000
     5  C    4.204323   3.619559   2.320031   1.307726   0.000000
     6  C    5.111114   4.781340   3.635553   2.394795   1.441341
     7  C    5.012478   5.024362   4.196944   2.876242   2.502466
     8  C    6.292135   6.388241   5.581197   4.259266   3.755123
     9  C    7.412094   7.341680   6.342461   5.041376   4.210119
    10  N    7.504524   7.216429   6.035788   4.827581   3.740707
    11  C    6.495910   6.075363   4.818429   3.688569   2.499041
    12  O    2.250728   1.390358   2.320250   3.560580   4.639174
    13  C    2.587861   2.356776   3.607695   4.736872   5.911957
    14  C    4.082718   3.651200   4.667548   5.919431   6.977285
    15  H    3.325735   2.172262   1.100704   2.124727   2.640749
    16  H    4.864517   4.051012   2.623768   2.107408   1.105973
    17  H    4.125270   4.333598   3.778685   2.546656   2.707296
    18  H    6.582095   6.866284   6.243959   4.948815   4.655226
    19  H    8.411949   8.398499   7.429465   6.122755   5.304779
    20  H    6.911280   6.311283   4.943567   4.017549   2.715220
    21  H    2.541257   2.633181   3.951811   4.944069   6.163762
    22  H    2.540766   2.632945   3.951682   4.943875   6.163641
    23  H    4.517087   3.935935   4.768164   6.045152   7.011323
    24  H    4.707585   4.501296   5.642833   6.847819   7.962649
    25  H    4.516905   3.935924   4.768251   6.045180   7.011424
                    6          7          8          9         10
     6  C    0.000000
     7  C    1.413733   0.000000
     8  C    2.418210   1.385804   0.000000
     9  C    2.769848   2.405834   1.400096   0.000000
    10  N    2.435206   2.795731   2.395075   1.333640   0.000000
    11  C    1.415897   2.393838   2.707592   2.282314   1.327869
    12  O    5.937808   6.336642   7.714311   8.595443   8.351738
    13  C    7.130958   7.352251   8.698286   9.692259   9.564447
    14  C    8.295215   8.668855  10.037910  10.950665  10.703336
    15  H    4.076932   4.912019   6.266989   6.846432   6.336220
    16  H    2.184423   3.474471   4.602478   4.794263   4.038436
    17  H    2.151464   1.091661   2.179089   3.415817   3.887063
    18  H    3.416790   2.158317   1.092664   2.163276   3.371602
    19  H    3.865025   3.404443   2.174180   1.095449   2.074306
    20  H    2.165955   3.393605   3.804986   3.261529   2.065278
    21  H    7.291106   7.383282   8.689270   9.747207   9.710853
    22  H    7.290925   7.382989   8.688963   9.746970   9.710697
    23  H    8.364919   8.837899  10.212285  11.055990  10.732018
    24  H    9.239762   9.515453  10.865103  11.842711  11.664280
    25  H    8.364960   8.837827  10.212195  11.055971  10.732084
                   11         12         13         14         15
    11  C    0.000000
    12  O    7.138119   0.000000
    13  C    8.397569   1.403172   0.000000
    14  C    9.474516   2.359089   1.515540   0.000000
    15  H    5.039446   2.448170   3.850071   4.589178   0.000000
    16  H    2.710891   4.803953   6.169904   7.039514   2.461827
    17  H    3.383733   5.703271   6.585540   7.974543   4.671370
    18  H    3.799411   8.236252   9.095912  10.502492   7.036850
    19  H    3.262172   9.669590  10.742014  12.021301   7.941787
    20  H    1.097632   7.214308   8.547817   9.486741   4.920538
    21  H    8.597987   2.065050   1.103445   2.174276   4.342215
    22  H    8.597866   2.065075   1.103446   2.174310   4.342210
    23  H    9.478267   2.618707   2.158873   1.099347   4.541221
    24  H   10.461261   3.324076   2.167719   1.099915   5.650689
    25  H    9.478369   2.618885   2.158907   1.099348   4.541439
                   16         17         18         19         20
    16  H    0.000000
    17  H    3.800660   0.000000
    18  H    5.581763   2.533324   0.000000
    19  H    5.861476   4.336806   2.504440   0.000000
    20  H    2.459633   4.296390   4.896427   4.134960   0.000000
    21  H    6.524902   6.552560   9.008473  10.770531   8.827270
    22  H    6.524888   6.552194   9.008104  10.770282   8.827227
    23  H    6.971801   8.211984  10.733941  12.134719   9.416016
    24  H    8.085871   8.752065  11.257713  12.899024  10.520890
    25  H    6.972013   8.211847  10.733786  12.134685   9.416200
                   21         22         23         24         25
    21  H    0.000000
    22  H    1.760166   0.000000
    23  H    2.527669   3.084987   0.000000
    24  H    2.520240   2.520377   1.786974   0.000000
    25  H    3.084987   2.527663   1.777132   1.786977   0.000000
 Stoichiometry    C10H11N2O2(1-)
 Framework group  C1[X(C10H11N2O2)]
 Deg. of freedom    69
 Full point group                 C1      NOp   1
 Largest Abelian subgroup         C1      NOp   1
 Largest concise Abelian subgroup C1      NOp   1
                         Standard orientation:                         
 ---------------------------------------------------------------------
 Center     Atomic      Atomic             Coordinates (Angstroms)
 Number     Number       Type             X           Y           Z
 ---------------------------------------------------------------------
      1          8           0       -2.339443    1.509885   -0.000034
      2          6           0       -2.335060    0.293761   -0.000041
      3          6           0       -1.237364   -0.628473    0.000033
      4          7           0        0.009294   -0.185495    0.000015
      5          6           0        1.057841   -0.966967   -0.000004
      6          6           0        2.392344   -0.422389    0.000011
      7          6           0        2.643747    0.968812    0.000065
      8          6           0        3.952127    1.425534    0.000066
      9          6           0        5.003690    0.501152    0.000006
     10          7           0        4.795506   -0.816138   -0.000043
     11          6           0        3.540731   -1.250621   -0.000039
     12          8           0       -3.545379   -0.390508   -0.000087
     13          6           0       -4.688258    0.423566   -0.000159
     14          6           0       -5.902649   -0.483140    0.000201
     15          1           0       -1.478418   -1.702458    0.000091
     16          1           0        0.956082   -2.068249   -0.000045
     17          1           0        1.783737    1.641199    0.000102
     18          1           0        4.168272    2.496607    0.000108
     19          1           0        6.045717    0.839071   -0.000002
     20          1           0        3.400735   -2.339288   -0.000085
     21          1           0       -4.685861    1.088926   -0.880432
     22          1           0       -4.685656    1.089431    0.879733
     23          1           0       -5.895076   -1.130725   -0.888135
     24          1           0       -6.832379    0.104581   -0.000014
     25          1           0       -5.895081   -1.130093    0.888998
 ---------------------------------------------------------------------
 Rotational constants (GHZ):           3.1442170           0.2091285           0.1965673
 Standard basis: def2TZVPP (5D, 7F)
 There are   669 symmetry adapted cartesian basis functions of A   symmetry.
 There are   588 symmetry adapted basis functions of A   symmetry.
   588 basis functions,   901 primitive gaussians,   669 cartesian basis functions
    51 alpha electrons       51 beta electrons
       nuclear repulsion energy       781.5497465125 Hartrees.
 NAtoms=   25 NActive=   25 NUniq=   25 SFac= 1.00D+00 NAtFMM=   60 NAOKFM=F Big=F
 Integral buffers will be    131072 words long.
 Raffenetti 2 integral format.
 Two-electron integral symmetry is turned on.
 Nuclear repulsion after empirical dispersion term =      781.5489055436 Hartrees.
 ------------------------------------------------------------------------------
 Polarizable Continuum Model (PCM)
 =================================
 Model                : PCM.
 Atomic radii         : UFF (Universal Force Field).
 Polarization charges : Total charges.
 Charge compensation  : None.
 Solution method      : On-the-fly selection.
 Cavity type          : Scaled VdW (van der Waals Surface) (Alpha=1.100).
 Cavity algorithm     : GePol (No added spheres)
                        Default sphere list used, NSphG=   25.
                        Lebedev-Laikov grids with approx.  5.0 points / Ang**2.
                        Smoothing algorithm: York/Karplus (Gamma=1.0000).
                        Polarization charges: spherical gaussians, with
                                              point-specific exponents (IZeta= 3).
                        Self-potential: point-specific (ISelfS= 7).
                        Self-field    : sphere-specific E.n sum rule (ISelfD= 2).
 Solvent              : TetraHydroFuran, Eps=   7.425700 Eps(inf)=   1.974025
 ------------------------------------------------------------------------------
 One-electron integrals computed using PRISM.
   1 Symmetry operations used in ECPInt.
 ECPInt:  NShTT=   24310 NPrTT=   68237 LenC2=   19830 LenP2D=   41832.
 LDataN:  DoStor=T MaxTD1= 6 Len=  172
 NBasis=   588 RedAO= T EigKep=  4.48D-05  NBF=   588
 NBsUse=   588 1.00D-06 EigRej= -1.00D+00 NBFU=   588
 Initial guess from the checkpoint file:  "A12_crest_conformers_censo-1.chk"
 B after Tr=     0.000000   -0.000000    0.000000
         Rot=    1.000000   -0.000000   -0.000000    0.000000 Ang=   0.00 deg.
 Requested convergence on RMS density matrix=1.00D-08 within 128 cycles.
 Requested convergence on MAX density matrix=1.00D-06.
 Requested convergence on             energy=1.00D-06.
 No special actions if energy rises.
 Inv3:  Mode=1 IEnd=    13623483.
 Iteration    1 A*A^-1 deviation from unit magnitude is 4.55D-15 for   2124.
 Iteration    1 A*A^-1 deviation from orthogonality  is 1.60D-15 for   2123   1623.
 Iteration    1 A^-1*A deviation from unit magnitude is 4.33D-15 for   2124.
 Iteration    1 A^-1*A deviation from orthogonality  is 2.71D-15 for   2126    902.
 Error on total polarization charges =  0.01501
 SCF Done:  E(RM062X) =  -647.725529407     A.U. after   13 cycles
            NFock= 13  Conv=0.63D-08     -V/T= 2.0051
 DoSCS=F DFT=T ScalE2(SS,OS)=  1.000000  1.000000
 Range of M.O.s used for correlation:     1   588
 NBasis=   588 NAE=    51 NBE=    51 NFC=     0 NFV=     0
 NROrb=    588 NOA=    51 NOB=    51 NVA=   537 NVB=   537

 **** Warning!!: The largest alpha MO coefficient is  0.24575679D+02

 NEqPCM:  Using equilibrium solvation (IEInf=0, Eps=   7.4257, EpsInf=   1.9740)
          Differentiating once with respect to electric field.
                with respect to dipole field.
          Electric field/nuclear overlap derivatives assumed to be zero.
          There are     3 degrees of freedom in the 1st order CPHF.  IDoFFX=0 NUNeed=     3.
      3 vectors produced by pass  0 Test12= 9.13D-13 3.33D-08 XBig12= 3.39D+02 1.55D+01.
 AX will form     3 AO Fock derivatives at one time.
      3 vectors produced by pass  1 Test12= 9.13D-13 3.33D-08 XBig12= 4.28D+01 1.56D+00.
      3 vectors produced by pass  2 Test12= 9.13D-13 3.33D-08 XBig12= 9.61D+00 7.79D-01.
      3 vectors produced by pass  3 Test12= 9.13D-13 3.33D-08 XBig12= 2.25D+00 3.21D-01.
      3 vectors produced by pass  4 Test12= 9.13D-13 3.33D-08 XBig12= 5.51D-01 1.62D-01.
      3 vectors produced by pass  5 Test12= 9.13D-13 3.33D-08 XBig12= 1.09D-01 7.80D-02.
      3 vectors produced by pass  6 Test12= 9.13D-13 3.33D-08 XBig12= 2.72D-02 5.98D-02.
      3 vectors produced by pass  7 Test12= 9.13D-13 3.33D-08 XBig12= 4.93D-03 1.11D-02.
      3 vectors produced by pass  8 Test12= 9.13D-13 3.33D-08 XBig12= 1.24D-03 6.40D-03.
      3 vectors produced by pass  9 Test12= 9.13D-13 3.33D-08 XBig12= 1.17D-04 2.09D-03.
      3 vectors produced by pass 10 Test12= 9.13D-13 3.33D-08 XBig12= 3.41D-05 1.01D-03.
      3 vectors produced by pass 11 Test12= 9.13D-13 3.33D-08 XBig12= 5.10D-06 4.68D-04.
      3 vectors produced by pass 12 Test12= 9.13D-13 3.33D-08 XBig12= 4.79D-07 9.98D-05.
      3 vectors produced by pass 13 Test12= 9.13D-13 3.33D-08 XBig12= 7.93D-08 3.92D-05.
      3 vectors produced by pass 14 Test12= 9.13D-13 3.33D-08 XBig12= 3.80D-09 1.29D-05.
      2 vectors produced by pass 15 Test12= 9.13D-13 3.33D-08 XBig12= 1.79D-10 2.89D-06.
      2 vectors produced by pass 16 Test12= 9.13D-13 3.33D-08 XBig12= 8.04D-12 4.57D-07.
      1 vectors produced by pass 17 Test12= 9.13D-13 3.33D-08 XBig12= 3.45D-13 9.60D-08.
 InvSVY:  IOpt=1 It=  1 EMax= 2.16D-15
 Solved reduced A of dimension    50 with     3 vectors.
 Isotropic polarizability for W=    0.000000      260.97 Bohr**3.
 End of Minotr F.D. properties file   721 does not exist.
 End of Minotr F.D. properties file   722 does not exist.
 End of Minotr F.D. properties file   788 does not exist.

 **********************************************************************

            Population analysis using the SCF Density.

 **********************************************************************

 Orbital symmetries:
       Occupied  (A) (A) (A) (A) (A) (A) (A) (A) (A) (A) (A) (A)
                 (A) (A) (A) (A) (A) (A) (A) (A) (A) (A) (A) (A)
                 (A) (A) (A) (A) (A) (A) (A) (A) (A) (A) (A) (A)
                 (A) (A) (A) (A) (A) (A) (A) (A) (A) (A) (A) (A)
                 (A) (A) (A)
       Virtual   (A) (A) (A) (A) (A) (A) (A) (A) (A) (A) (A) (A)
                 (A) (A) (A) (A) (A) (A) (A) (A) (A) (A) (A) (A)
                 (A) (A) (A) (A) (A) (A) (A) (A) (A) (A) (A) (A)
                 (A) (A) (A) (A) (A) (A) (A) (A) (A) (A) (A) (A)
                 (A) (A) (A) (A) (A) (A) (A) (A) (A) (A) (A) (A)
                 (A) (A) (A) (A) (A) (A) (A) (A) (A) (A) (A) (A)
                 (A) (A) (A) (A) (A) (A) (A) (A) (A) (A) (A) (A)
                 (A) (A) (A) (A) (A) (A) (A) (A) (A) (A) (A) (A)
                 (A) (A) (A) (A) (A) (A) (A) (A) (A) (A) (A) (A)
                 (A) (A) (A) (A) (A) (A) (A) (A) (A) (A) (A) (A)
                 (A) (A) (A) (A) (A) (A) (A) (A) (A) (A) (A) (A)
                 (A) (A) (A) (A) (A) (A) (A) (A) (A) (A) (A) (A)
                 (A) (A) (A) (A) (A) (A) (A) (A) (A) (A) (A) (A)
                 (A) (A) (A) (A) (A) (A) (A) (A) (A) (A) (A) (A)
                 (A) (A) (A) (A) (A) (A) (A) (A) (A) (A) (A) (A)
                 (A) (A) (A) (A) (A) (A) (A) (A) (A) (A) (A) (A)
                 (A) (A) (A) (A) (A) (A) (A) (A) (A) (A) (A) (A)
                 (A) (A) (A) (A) (A) (A) (A) (A) (A) (A) (A) (A)
                 (A) (A) (A) (A) (A) (A) (A) (A) (A) (A) (A) (A)
                 (A) (A) (A) (A) (A) (A) (A) (A) (A) (A) (A) (A)
                 (A) (A) (A) (A) (A) (A) (A) (A) (A) (A) (A) (A)
                 (A) (A) (A) (A) (A) (A) (A) (A) (A) (A) (A) (A)
                 (A) (A) (A) (A) (A) (A) (A) (A) (A) (A) (A) (A)
                 (A) (A) (A) (A) (A) (A) (A) (A) (A) (A) (A) (A)
                 (A) (A) (A) (A) (A) (A) (A) (A) (A) (A) (A) (A)
                 (A) (A) (A) (A) (A) (A) (A) (A) (A) (A) (A) (A)
                 (A) (A) (A) (A) (A) (A) (A) (A) (A) (A) (A) (A)
                 (A) (A) (A) (A) (A) (A) (A) (A) (A) (A) (A) (A)
                 (A) (A) (A) (A) (A) (A) (A) (A) (A) (A) (A) (A)
                 (A) (A) (A) (A) (A) (A) (A) (A) (A) (A) (A) (A)
                 (A) (A) (A) (A) (A) (A) (A) (A) (A) (A) (A) (A)
                 (A) (A) (A) (A) (A) (A) (A) (A) (A) (A) (A) (A)
                 (A) (A) (A) (A) (A) (A) (A) (A) (A) (A) (A) (A)
                 (A) (A) (A) (A) (A) (A) (A) (A) (A) (A) (A) (A)
                 (A) (A) (A) (A) (A) (A) (A) (A) (A) (A) (A) (A)
                 (A) (A) (A) (A) (A) (A) (A) (A) (A) (A) (A) (A)
                 (A) (A) (A) (A) (A) (A) (A) (A) (A) (A) (A) (A)
                 (A) (A) (A) (A) (A) (A) (A) (A) (A) (A) (A) (A)
                 (A) (A) (A) (A) (A) (A) (A) (A) (A) (A) (A) (A)
                 (A) (A) (A) (A) (A) (A) (A) (A) (A) (A) (A) (A)
                 (A) (A) (A) (A) (A) (A) (A) (A) (A) (A) (A) (A)
                 (A) (A) (A) (A) (A) (A) (A) (A) (A) (A) (A) (A)
                 (A) (A) (A) (A) (A) (A) (A) (A) (A) (A) (A) (A)
                 (A) (A) (A) (A) (A) (A) (A) (A) (A) (A) (A) (A)
                 (A) (A) (A) (A) (A) (A) (A) (A) (A)
 The electronic state is 1-A.
 Alpha  occ. eigenvalues --  -19.62149 -19.56029 -14.72985 -14.71875 -10.61480
 Alpha  occ. eigenvalues --  -10.56444 -10.54850 -10.54761 -10.53025 -10.52804
 Alpha  occ. eigenvalues --  -10.52634 -10.51727 -10.51449 -10.50134  -1.18279
 Alpha  occ. eigenvalues --   -1.08924  -1.03121  -0.99744  -0.88146  -0.84751
 Alpha  occ. eigenvalues --   -0.83966  -0.77494  -0.71785  -0.68795  -0.67525
 Alpha  occ. eigenvalues --   -0.63105  -0.59179  -0.56972  -0.55077  -0.54101
 Alpha  occ. eigenvalues --   -0.53562  -0.50708  -0.50168  -0.48043  -0.46487
 Alpha  occ. eigenvalues --   -0.46188  -0.45640  -0.44131  -0.44080  -0.43132
 Alpha  occ. eigenvalues --   -0.41084  -0.39749  -0.38858  -0.38709  -0.33505
 Alpha  occ. eigenvalues --   -0.32349  -0.31518  -0.30538  -0.30017  -0.28782
 Alpha  occ. eigenvalues --   -0.17787
 Alpha virt. eigenvalues --    0.00735   0.03237   0.09192   0.09580   0.11342
 Alpha virt. eigenvalues --    0.12523   0.13089   0.14393   0.14601   0.14711
 Alpha virt. eigenvalues --    0.15383   0.15877   0.15908   0.16832   0.17682
 Alpha virt. eigenvalues --    0.18274   0.18660   0.19367   0.20015   0.21560
 Alpha virt. eigenvalues --    0.22582   0.23572   0.24817   0.26077   0.26317
 Alpha virt. eigenvalues --    0.26797   0.27387   0.27560   0.28687   0.28729
 Alpha virt. eigenvalues --    0.30222   0.30562   0.30789   0.32595   0.33444
 Alpha virt. eigenvalues --    0.33472   0.34978   0.35847   0.36275   0.36364
 Alpha virt. eigenvalues --    0.37515   0.38420   0.38532   0.39271   0.40168
 Alpha virt. eigenvalues --    0.40681   0.42392   0.42663   0.42806   0.43836
 Alpha virt. eigenvalues --    0.44733   0.44999   0.46189   0.46596   0.47538
 Alpha virt. eigenvalues --    0.47749   0.47914   0.48681   0.50275   0.50719
 Alpha virt. eigenvalues --    0.51339   0.51535   0.51810   0.52588   0.53312
 Alpha virt. eigenvalues --    0.53543   0.53789   0.55087   0.55209   0.56308
 Alpha virt. eigenvalues --    0.56985   0.58093   0.59500   0.60679   0.60922
 Alpha virt. eigenvalues --    0.62579   0.62865   0.63971   0.64416   0.65165
 Alpha virt. eigenvalues --    0.65645   0.65990   0.66841   0.68350   0.69408
 Alpha virt. eigenvalues --    0.70318   0.70513   0.71027   0.72594   0.74910
 Alpha virt. eigenvalues --    0.74948   0.75722   0.76510   0.77591   0.78030
 Alpha virt. eigenvalues --    0.78155   0.80869   0.81822   0.82661   0.83575
 Alpha virt. eigenvalues --    0.83583   0.84300   0.85187   0.85646   0.87242
 Alpha virt. eigenvalues --    0.88639   0.89111   0.90307   0.91582   0.93157
 Alpha virt. eigenvalues --    0.93303   0.93367   0.95951   0.96094   0.96635
 Alpha virt. eigenvalues --    0.99048   0.99615   1.00096   1.01666   1.01980
 Alpha virt. eigenvalues --    1.03457   1.04736   1.05064   1.06464   1.07586
 Alpha virt. eigenvalues --    1.09016   1.09210   1.09967   1.11680   1.13552
 Alpha virt. eigenvalues --    1.14153   1.15890   1.16193   1.17863   1.19092
 Alpha virt. eigenvalues --    1.19096   1.19327   1.20315   1.21574   1.22291
 Alpha virt. eigenvalues --    1.24222   1.24939   1.25298   1.27899   1.29277
 Alpha virt. eigenvalues --    1.30138   1.31962   1.32151   1.32615   1.34979
 Alpha virt. eigenvalues --    1.35078   1.35802   1.37490   1.38132   1.40026
 Alpha virt. eigenvalues --    1.43562   1.43566   1.44656   1.45263   1.45371
 Alpha virt. eigenvalues --    1.46294   1.46694   1.47279   1.47825   1.49211
 Alpha virt. eigenvalues --    1.49687   1.50046   1.50644   1.50811   1.52077
 Alpha virt. eigenvalues --    1.52353   1.53877   1.54572   1.55966   1.56979
 Alpha virt. eigenvalues --    1.57046   1.57321   1.58523   1.60546   1.60790
 Alpha virt. eigenvalues --    1.61808   1.63133   1.63774   1.66014   1.66763
 Alpha virt. eigenvalues --    1.68202   1.69106   1.69199   1.69361   1.72428
 Alpha virt. eigenvalues --    1.74323   1.77445   1.78339   1.79509   1.80837
 Alpha virt. eigenvalues --    1.81377   1.82767   1.82902   1.83465   1.85106
 Alpha virt. eigenvalues --    1.85286   1.86369   1.90837   1.92062   1.93122
 Alpha virt. eigenvalues --    1.93764   1.96573   1.98555   2.01204   2.03237
 Alpha virt. eigenvalues --    2.03711   2.05541   2.05797   2.08481   2.09571
 Alpha virt. eigenvalues --    2.10168   2.10854   2.12680   2.14492   2.15285
 Alpha virt. eigenvalues --    2.19533   2.21789   2.23211   2.25321   2.26044
 Alpha virt. eigenvalues --    2.28288   2.30259   2.31206   2.34360   2.35030
 Alpha virt. eigenvalues --    2.36671   2.38371   2.41141   2.43739   2.45203
 Alpha virt. eigenvalues --    2.46609   2.48543   2.48860   2.50488   2.53468
 Alpha virt. eigenvalues --    2.54695   2.55434   2.56365   2.57262   2.57500
 Alpha virt. eigenvalues --    2.59560   2.61650   2.63582   2.65042   2.68857
 Alpha virt. eigenvalues --    2.70403   2.70502   2.72336   2.73013   2.75209
 Alpha virt. eigenvalues --    2.75576   2.76137   2.78798   2.79783   2.81043
 Alpha virt. eigenvalues --    2.81934   2.83261   2.84419   2.85445   2.86235
 Alpha virt. eigenvalues --    2.86847   2.87260   2.89367   2.90164   2.90474
 Alpha virt. eigenvalues --    2.92029   2.93029   2.93852   2.94035   2.94053
 Alpha virt. eigenvalues --    2.95707   2.97006   2.97971   2.98881   2.99833
 Alpha virt. eigenvalues --    3.00478   3.00742   3.02723   3.03239   3.03240
 Alpha virt. eigenvalues --    3.04017   3.04566   3.05816   3.07116   3.07263
 Alpha virt. eigenvalues --    3.07324   3.09813   3.10016   3.10737   3.11818
 Alpha virt. eigenvalues --    3.12315   3.13834   3.14786   3.15159   3.15450
 Alpha virt. eigenvalues --    3.18018   3.18398   3.19190   3.20051   3.20336
 Alpha virt. eigenvalues --    3.20434   3.22130   3.22206   3.22628   3.22846
 Alpha virt. eigenvalues --    3.25102   3.26766   3.27364   3.27932   3.29428
 Alpha virt. eigenvalues --    3.31406   3.31655   3.31997   3.32770   3.35462
 Alpha virt. eigenvalues --    3.35591   3.35620   3.37128   3.37801   3.38533
 Alpha virt. eigenvalues --    3.41345   3.41435   3.42870   3.43143   3.44061
 Alpha virt. eigenvalues --    3.44605   3.44671   3.45902   3.47841   3.48664
 Alpha virt. eigenvalues --    3.48811   3.51402   3.51815   3.52928   3.54747
 Alpha virt. eigenvalues --    3.55577   3.56485   3.57284   3.58091   3.59435
 Alpha virt. eigenvalues --    3.61737   3.62090   3.62411   3.63756   3.64125
 Alpha virt. eigenvalues --    3.65952   3.66812   3.67065   3.68350   3.69819
 Alpha virt. eigenvalues --    3.72800   3.72851   3.75282   3.76472   3.77245
 Alpha virt. eigenvalues --    3.79442   3.80249   3.81060   3.81574   3.82129
 Alpha virt. eigenvalues --    3.82526   3.83294   3.85156   3.85592   3.88193
 Alpha virt. eigenvalues --    3.88610   3.88630   3.88822   3.89759   3.91092
 Alpha virt. eigenvalues --    3.92312   3.92423   3.94526   3.95679   3.96026
 Alpha virt. eigenvalues --    3.96256   3.97248   3.97559   4.01335   4.01460
 Alpha virt. eigenvalues --    4.01895   4.02987   4.03671   4.04800   4.05519
 Alpha virt. eigenvalues --    4.06873   4.08574   4.09354   4.10134   4.13128
 Alpha virt. eigenvalues --    4.13969   4.15552   4.16422   4.17250   4.17332
 Alpha virt. eigenvalues --    4.19586   4.21650   4.22502   4.23069   4.24600
 Alpha virt. eigenvalues --    4.25898   4.27173   4.28434   4.31010   4.32166
 Alpha virt. eigenvalues --    4.32963   4.33610   4.33631   4.36118   4.36645
 Alpha virt. eigenvalues --    4.39715   4.41036   4.42808   4.44954   4.48349
 Alpha virt. eigenvalues --    4.49135   4.51783   4.52259   4.52908   4.56036
 Alpha virt. eigenvalues --    4.57911   4.61264   4.62074   4.64279   4.66352
 Alpha virt. eigenvalues --    4.68198   4.69408   4.74343   4.74872   4.75374
 Alpha virt. eigenvalues --    4.77167   4.80814   4.81370   4.81626   4.82010
 Alpha virt. eigenvalues --    4.83514   4.86828   4.87062   4.89676   4.89973
 Alpha virt. eigenvalues --    4.90688   4.90760   4.92747   4.93528   4.94751
 Alpha virt. eigenvalues --    4.96748   4.98483   4.99990   5.01374   5.02297
 Alpha virt. eigenvalues --    5.05682   5.08327   5.12035   5.13403   5.13787
 Alpha virt. eigenvalues --    5.14041   5.15155   5.20419   5.21595   5.22494
 Alpha virt. eigenvalues --    5.24151   5.25380   5.25711   5.26765   5.27602
 Alpha virt. eigenvalues --    5.28225   5.29173   5.31335   5.31818   5.33296
 Alpha virt. eigenvalues --    5.35050   5.36766   5.37857   5.38196   5.39921
 Alpha virt. eigenvalues --    5.39999   5.41905   5.45164   5.46075   5.48804
 Alpha virt. eigenvalues --    5.49003   5.55076   5.55219   5.56729   5.58510
 Alpha virt. eigenvalues --    5.59268   5.61938   5.62990   5.63783   5.69878
 Alpha virt. eigenvalues --    5.71517   5.75311   5.81074   5.83584   5.87790
 Alpha virt. eigenvalues --    5.90118   5.94037   6.03835   6.05940   6.08383
 Alpha virt. eigenvalues --    6.14961   6.19558   6.24135   6.32394   6.41248
 Alpha virt. eigenvalues --    6.42358   6.49298   6.62161   6.72051   6.77600
 Alpha virt. eigenvalues --    6.77826   6.84453   6.96638   6.96707   7.14714
 Alpha virt. eigenvalues --    7.19154   7.41316   7.46132  23.05389  23.20462
 Alpha virt. eigenvalues --   23.25054  23.34809  23.37815  23.45088  23.53027
 Alpha virt. eigenvalues --   23.58331  23.69219  23.78529  32.65520  32.89488
 Alpha virt. eigenvalues --   44.16407  44.50911
          Condensed to atoms (all electrons):
               1          2          3          4          5          6
     1  O    8.028261   0.651934  -0.102455  -0.003720   0.003278  -0.000715
     2  C    0.651934   4.456789   0.497444  -0.084045  -0.005669   0.003075
     3  C   -0.102455   0.497444   5.195646   0.510376  -0.202414   0.011654
     4  N   -0.003720  -0.084045   0.510376   6.389971   0.626569  -0.174616
     5  C    0.003278  -0.005669  -0.202414   0.626569   5.017562   0.400231
     6  C   -0.000715   0.003075   0.011654  -0.174616   0.400231   5.499928
     7  C   -0.000842  -0.001194   0.000671   0.038876  -0.083813   0.063620
     8  C   -0.000006  -0.000043   0.000022  -0.003042   0.006406   0.006399
     9  C    0.000002   0.000001  -0.000029   0.000857  -0.000243  -0.060053
    10  N   -0.000000  -0.000003  -0.000019  -0.000634   0.005276  -0.062148
    11  C   -0.000006   0.000033   0.000040   0.001587  -0.080694   0.496699
    12  O   -0.101214   0.293624  -0.092817   0.004065   0.000843  -0.000036
    13  C   -0.015684  -0.054632   0.005855  -0.000310   0.000083  -0.000008
    14  C    0.007308   0.005354   0.002207   0.000013  -0.000007   0.000000
    15  H    0.004870  -0.063705   0.416130  -0.049907  -0.004507  -0.006057
    16  H    0.000021  -0.004870  -0.011890  -0.059518   0.427906  -0.092984
    17  H    0.002945   0.000104  -0.001644   0.032003  -0.004275  -0.088177
    18  H   -0.000002  -0.000002   0.000001  -0.000227  -0.000179   0.016333
    19  H   -0.000000  -0.000000  -0.000000  -0.000002   0.000043  -0.001191
    20  H    0.000000  -0.000010  -0.000101  -0.000471  -0.003314  -0.073194
    21  H    0.007584  -0.005847   0.001640  -0.000014  -0.000010   0.000002
    22  H    0.007599  -0.005860   0.001638  -0.000014  -0.000010   0.000002
    23  H   -0.000130  -0.000434  -0.000075   0.000001   0.000002   0.000000
    24  H    0.000202  -0.000101  -0.000026  -0.000000  -0.000000  -0.000000
    25  H   -0.000130  -0.000433  -0.000075   0.000001   0.000002   0.000000
               7          8          9         10         11         12
     1  O   -0.000842  -0.000006   0.000002  -0.000000  -0.000006  -0.101214
     2  C   -0.001194  -0.000043   0.000001  -0.000003   0.000033   0.293624
     3  C    0.000671   0.000022  -0.000029  -0.000019   0.000040  -0.092817
     4  N    0.038876  -0.003042   0.000857  -0.000634   0.001587   0.004065
     5  C   -0.083813   0.006406  -0.000243   0.005276  -0.080694   0.000843
     6  C    0.063620   0.006399  -0.060053  -0.062148   0.496699  -0.000036
     7  C    5.425007   0.410076  -0.006177  -0.081286  -0.039084   0.000010
     8  C    0.410076   4.992966   0.474325  -0.050280  -0.016317  -0.000000
     9  C   -0.006177   0.474325   4.894948   0.491237  -0.139899   0.000000
    10  N   -0.081286  -0.050280   0.491237   6.498826   0.537853  -0.000000
    11  C   -0.039084  -0.016317  -0.139899   0.537853   4.874088  -0.000001
    12  O    0.000010  -0.000000   0.000000  -0.000000  -0.000001   8.101834
    13  C    0.000004  -0.000000   0.000000  -0.000000   0.000000   0.224001
    14  C    0.000000   0.000000  -0.000000   0.000000   0.000000  -0.046456
    15  H    0.002219  -0.000035   0.000010  -0.000003  -0.000253   0.014845
    16  H    0.039928  -0.002468   0.000884  -0.000664  -0.010336   0.000098
    17  H    0.456804  -0.035034   0.008788  -0.002184   0.004261   0.000053
    18  H   -0.054264   0.422872  -0.033234   0.009055  -0.002682  -0.000000
    19  H    0.001676  -0.054963   0.435862  -0.024671   0.005284  -0.000000
    20  H    0.011005  -0.002505   0.007731  -0.025220   0.438483   0.000000
    21  H    0.000000   0.000000  -0.000000   0.000000   0.000000  -0.045322
    22  H    0.000000   0.000000  -0.000000   0.000000   0.000000  -0.045320
    23  H    0.000000  -0.000000   0.000000   0.000000  -0.000000   0.002560
    24  H    0.000000   0.000000  -0.000000  -0.000000   0.000000   0.004672
    25  H    0.000000  -0.000000   0.000000   0.000000  -0.000000   0.002561
              13         14         15         16         17         18
     1  O   -0.015684   0.007308   0.004870   0.000021   0.002945  -0.000002
     2  C   -0.054632   0.005354  -0.063705  -0.004870   0.000104  -0.000002
     3  C    0.005855   0.002207   0.416130  -0.011890  -0.001644   0.000001
     4  N   -0.000310   0.000013  -0.049907  -0.059518   0.032003  -0.000227
     5  C    0.000083  -0.000007  -0.004507   0.427906  -0.004275  -0.000179
     6  C   -0.000008   0.000000  -0.006057  -0.092984  -0.088177   0.016333
     7  C    0.000004   0.000000   0.002219   0.039928   0.456804  -0.054264
     8  C   -0.000000   0.000000  -0.000035  -0.002468  -0.035034   0.422872
     9  C    0.000000  -0.000000   0.000010   0.000884   0.008788  -0.033234
    10  N   -0.000000   0.000000  -0.000003  -0.000664  -0.002184   0.009055
    11  C    0.000000   0.000000  -0.000253  -0.010336   0.004261  -0.002682
    12  O    0.224001  -0.046456   0.014845   0.000098   0.000053  -0.000000
    13  C    4.840843   0.275264   0.001629   0.000020  -0.000002   0.000000
    14  C    0.275264   4.946065  -0.000652  -0.000001  -0.000000   0.000000
    15  H    0.001629  -0.000652   0.596535   0.022532   0.000521  -0.000001
    16  H    0.000020  -0.000001   0.022532   0.647934   0.002508  -0.000015
    17  H   -0.000002  -0.000000   0.000521   0.002508   0.486368  -0.006828
    18  H    0.000000   0.000000  -0.000001  -0.000015  -0.006828   0.515890
    19  H   -0.000000   0.000000   0.000000   0.000002  -0.000177   0.000003
    20  H    0.000000  -0.000000   0.000065   0.007050  -0.000061   0.000083
    21  H    0.423206  -0.036850  -0.000032  -0.000002  -0.000002   0.000000
    22  H    0.423212  -0.036863  -0.000032  -0.000002  -0.000002   0.000000
    23  H   -0.034973   0.407232   0.000061  -0.000000   0.000000  -0.000000
    24  H   -0.041059   0.412004   0.000012  -0.000000  -0.000000   0.000000
    25  H   -0.034977   0.407240   0.000061  -0.000000   0.000000  -0.000000
              19         20         21         22         23         24
     1  O   -0.000000   0.000000   0.007584   0.007599  -0.000130   0.000202
     2  C   -0.000000  -0.000010  -0.005847  -0.005860  -0.000434  -0.000101
     3  C   -0.000000  -0.000101   0.001640   0.001638  -0.000075  -0.000026
     4  N   -0.000002  -0.000471  -0.000014  -0.000014   0.000001  -0.000000
     5  C    0.000043  -0.003314  -0.000010  -0.000010   0.000002  -0.000000
     6  C   -0.001191  -0.073194   0.000002   0.000002   0.000000  -0.000000
     7  C    0.001676   0.011005   0.000000   0.000000   0.000000   0.000000
     8  C   -0.054963  -0.002505   0.000000   0.000000  -0.000000   0.000000
     9  C    0.435862   0.007731  -0.000000  -0.000000   0.000000  -0.000000
    10  N   -0.024671  -0.025220   0.000000   0.000000   0.000000  -0.000000
    11  C    0.005284   0.438483   0.000000   0.000000  -0.000000   0.000000
    12  O   -0.000000   0.000000  -0.045322  -0.045320   0.002560   0.004672
    13  C   -0.000000   0.000000   0.423206   0.423212  -0.034973  -0.041059
    14  C    0.000000  -0.000000  -0.036850  -0.036863   0.407232   0.412004
    15  H    0.000000   0.000065  -0.000032  -0.000032   0.000061   0.000012
    16  H    0.000002   0.007050  -0.000002  -0.000002  -0.000000  -0.000000
    17  H   -0.000177  -0.000061  -0.000002  -0.000002   0.000000  -0.000000
    18  H    0.000003   0.000083   0.000000   0.000000  -0.000000   0.000000
    19  H    0.514857  -0.000123   0.000000   0.000000  -0.000000   0.000000
    20  H   -0.000123   0.540059  -0.000000  -0.000000   0.000000  -0.000000
    21  H    0.000000  -0.000000   0.618496  -0.056479  -0.010501  -0.000897
    22  H    0.000000  -0.000000  -0.056479   0.618506   0.008852  -0.000895
    23  H   -0.000000   0.000000  -0.010501   0.008852   0.572682  -0.021145
    24  H    0.000000  -0.000000  -0.000897  -0.000895  -0.021145   0.562025
    25  H   -0.000000   0.000000   0.008851  -0.010501  -0.032006  -0.021142
              25
     1  O   -0.000130
     2  C   -0.000433
     3  C   -0.000075
     4  N    0.000001
     5  C    0.000002
     6  C    0.000000
     7  C    0.000000
     8  C   -0.000000
     9  C    0.000000
    10  N    0.000000
    11  C   -0.000000
    12  O    0.002561
    13  C   -0.034977
    14  C    0.407240
    15  H    0.000061
    16  H   -0.000000
    17  H    0.000000
    18  H   -0.000000
    19  H   -0.000000
    20  H    0.000000
    21  H    0.008851
    22  H   -0.010501
    23  H   -0.032006
    24  H   -0.021142
    25  H    0.572667
 Mulliken charges:
               1
     1  O   -0.489099
     2  C    0.318490
     3  C   -0.231780
     4  N   -0.227798
     5  C   -0.103066
     6  C    0.061235
     7  C   -0.183235
     8  C   -0.148372
     9  C   -0.075009
    10  N   -0.295135
    11  C   -0.069057
    12  O   -0.317999
    13  C   -0.012471
    14  C   -0.341858
    15  H    0.065691
    16  H    0.033868
    17  H    0.144030
    18  H    0.133197
    19  H    0.123399
    20  H    0.100520
    21  H    0.096175
    22  H    0.096169
    23  H    0.107875
    24  H    0.106351
    25  H    0.107881
 Sum of Mulliken charges =  -1.00000
 Mulliken charges with hydrogens summed into heavy atoms:
               1
     1  O   -0.489099
     2  C    0.318490
     3  C   -0.166089
     4  N   -0.227798
     5  C   -0.069198
     6  C    0.061235
     7  C   -0.039206
     8  C   -0.015175
     9  C    0.048389
    10  N   -0.295135
    11  C    0.031463
    12  O   -0.317999
    13  C    0.179872
    14  C   -0.019751
 Electronic spatial extent (au):  <R**2>=           5285.2227
 Charge=             -1.0000 electrons
 Dipole moment (field-independent basis, Debye):
    X=             -1.7946    Y=             -0.6114    Z=              0.0001  Tot=              1.8959
 Quadrupole moment (field-independent basis, Debye-Ang):
   XX=           -120.8369   YY=            -89.9863   ZZ=            -88.7926
   XY=             12.9287   XZ=              0.0005   YZ=              0.0003
 Traceless Quadrupole moment (field-independent basis, Debye-Ang):
   XX=            -20.9650   YY=              9.8856   ZZ=             11.0793
   XY=             12.9287   XZ=              0.0005   YZ=              0.0003
 Octapole moment (field-independent basis, Debye-Ang**2):
  XXX=           -188.3554  YYY=             -4.2436  ZZZ=             -0.0007  XYY=              9.3895
  XXY=             60.2720  XXZ=              0.0004  XZZ=            -21.1814  YZZ=              2.0643
  YYZ=              0.0004  XYZ=              0.0001
 Hexadecapole moment (field-independent basis, Debye-Ang**3):
 XXXX=          -7255.5364 YYYY=           -534.7480 ZZZZ=           -112.7356 XXXY=            266.9450
 XXXZ=              0.0266 YYYX=             40.2028 YYYZ=              0.0045 ZZZX=             -0.0008
 ZZZY=             -0.0019 XXYY=          -1258.3930 XXZZ=          -1172.5495 YYZZ=           -115.7603
 XXYZ=             -0.0002 YYXZ=              0.0017 ZZXY=             -5.8049
 N-N= 7.815489055436D+02 E-N=-3.088986926294D+03  KE= 6.444261064661D+02
 There are a total of      575682 grid points.
 ElSum from          density=      101.9999973471
 ElSum from atomic densities=      100.9999964329
 Hirshfeld populations at iteration   1 (CA, CB, DipXYZ):
               1          2          3          4          5
     1  O    4.193749   4.193749  -0.051463  -0.199299   0.000005
     2  C    2.936822   2.936822  -0.118117  -0.032118  -0.000012
     3  C    3.068462   3.068462   0.026777  -0.014839  -0.000003
     4  N    3.583753   3.583753  -0.016546  -0.165421   0.000003
     5  C    3.038976   3.038976   0.010895  -0.022440   0.000001
     6  C    3.015629   3.015629  -0.011383  -0.009074   0.000000
     7  C    3.024037   3.024037  -0.043833   0.030482   0.000000
     8  C    3.030882   3.030882   0.016334   0.065523   0.000003
     9  C    3.012806   3.012806   0.021419   0.009832  -0.000001
    10  N    3.603348   3.603348  -0.201230   0.171326   0.000011
    11  C    3.007837   3.007837  -0.011912  -0.014528  -0.000000
    12  O    4.086483   4.086483  -0.010963   0.156051  -0.000002
    13  C    2.992102   2.992102   0.014486  -0.051559   0.000012
    14  C    3.046083   3.046083  -0.002469   0.023598  -0.000003
    15  H    0.501235   0.501235  -0.015884  -0.131607   0.000010
    16  H    0.495503   0.495503  -0.010596  -0.129286  -0.000007
    17  H    0.483180   0.483180  -0.081337   0.108430   0.000006
    18  H    0.478382   0.478382   0.030201   0.156799   0.000006
    19  H    0.484516   0.484516   0.144984   0.057558  -0.000001
    20  H    0.485701   0.485701  -0.022466  -0.147057  -0.000006
    21  H    0.488844   0.488844  -0.025228   0.072610  -0.109274
    22  H    0.488845   0.488845  -0.025226   0.072665   0.109232
    23  H    0.485239   0.485239  -0.004336  -0.080069  -0.116733
    24  H    0.482346   0.482346  -0.120638   0.080530  -0.000029
    25  H    0.485238   0.485238  -0.004334  -0.079987   0.116792
       Tot  50.999999  50.999999  -0.512865  -0.071882   0.000011

 Dip from Atomic Chgs             -0.193146  -0.168689   0.000023
         Total Dipole             -0.706010  -0.240571   0.000033

 Hirshfeld charges, spin densities, dipoles, and CM5 charges using IRadAn=      5:
              Q-H        S-H        Dx         Dy         Dz        Q-CM5   
     1  O   -0.387498   0.000000  -0.051463  -0.199299   0.000005  -0.433195
     2  C    0.126356   0.000000  -0.118117  -0.032118  -0.000012   0.185718
     3  C   -0.136924   0.000000   0.026777  -0.014839  -0.000003  -0.102415
     4  N   -0.167507   0.000000  -0.016546  -0.165421   0.000003  -0.368521
     5  C   -0.077952   0.000000   0.010895  -0.022440   0.000001  -0.045384
     6  C   -0.031257   0.000000  -0.011383  -0.009074   0.000000  -0.030980
     7  C   -0.048074   0.000000  -0.043833   0.030482   0.000000  -0.095788
     8  C   -0.061764   0.000000   0.016334   0.065523   0.000003  -0.110234
     9  C   -0.025613   0.000000   0.021419   0.009832  -0.000001  -0.000473
    10  N   -0.206696   0.000000  -0.201230   0.171326   0.000011  -0.399980
    11  C   -0.015673   0.000000  -0.011912  -0.014528  -0.000000   0.013453
    12  O   -0.172966   0.000000  -0.010963   0.156051  -0.000002  -0.255259
    13  C    0.015795   0.000000   0.014486  -0.051559   0.000012  -0.062919
    14  C   -0.092167   0.000000  -0.002469   0.023598  -0.000003  -0.236538
    15  H   -0.002471   0.000000  -0.015884  -0.131607   0.000010   0.064799
    16  H    0.008994   0.000000  -0.010596  -0.129286  -0.000007   0.072501
    17  H    0.033639   0.000000  -0.081337   0.108430   0.000006   0.093489
    18  H    0.043235   0.000000   0.030201   0.156799   0.000006   0.098215
    19  H    0.030968   0.000000   0.144984   0.057558  -0.000001   0.094992
    20  H    0.028598   0.000000  -0.022466  -0.147057  -0.000006   0.093713
    21  H    0.022311   0.000000  -0.025228   0.072610  -0.109274   0.087091
    22  H    0.022310   0.000000  -0.025226   0.072665   0.109232   0.087094
    23  H    0.029523   0.000000  -0.004336  -0.080069  -0.116733   0.082434
    24  H    0.035308   0.000000  -0.120638   0.080530  -0.000029   0.085757
    25  H    0.029524   0.000000  -0.004334  -0.079987   0.116792   0.082434
       Tot  -0.999997   0.000000  -0.512865  -0.071882   0.000011  -0.999997
 Hirshfeld charges with hydrogens summed into heavy atoms:
              Q-H       Q-CM5   
     1  O   -0.387498  -0.433195
     2  C    0.126356   0.185718
     3  C   -0.139394  -0.037617
     4  N   -0.167507  -0.368521
     5  C   -0.068958   0.027116
     6  C   -0.031257  -0.030980
     7  C   -0.014435  -0.002298
     8  C   -0.018528  -0.012019
     9  C    0.005355   0.094519
    10  N   -0.206696  -0.399980
    11  C    0.012925   0.107166
    12  O   -0.172966  -0.255259
    13  C    0.060417   0.111267
    14  C    0.002189   0.014086
 
 EQQ=  0.00000000000     EQD=  0.00000000000     EDD= 0.286573668453E-02
 EQQ+QD+DD= 0.286573668453E-02
 
  Exact polarizability:     480.571      -4.662     189.963       0.002       0.001     112.380
 Approx polarizability:     355.982      -6.994     194.901       0.001       0.001     119.311
 Breneman (CHELPG) radii used.
 Read replacement radii for each type of atom:
 Atom Element Radius
    1     8    1.70
    2     6    1.50
    3     6    1.50
    4     7    1.70
    5     6    1.50
    6     6    1.50
    7     6    1.50
    8     6    1.50
    9     6    1.50
   10     7    1.70
   11     6    1.50
   12     8    1.70
   13     6    1.50
   14     6    1.50
   15     1    1.45
   16     1    1.45
   17     1    1.45
   18     1    1.45
   19     1    1.45
   20     1    1.45
   21     1    1.45
   22     1    1.45
   23     1    1.45
   24     1    1.45
   25     1    1.45
 Generate Potential Derived Charges using the Breneman model, NDens= 1.
 Grid spacing= 0.300 Box extension= 2.800
 NStep X,Y,Z=   62     36     26   Total possible points=       58032
 Number of Points to Fit=   16911

 **********************************************************************

            Electrostatic Properties Using The SCF Density.

 **********************************************************************

       Atomic Center    1 is at  -2.339443  1.509885 -0.000034
       Atomic Center    2 is at  -2.335060  0.293761 -0.000041
       Atomic Center    3 is at  -1.237364 -0.628473  0.000033
       Atomic Center    4 is at   0.009294 -0.185495  0.000015
       Atomic Center    5 is at   1.057841 -0.966967 -0.000004
       Atomic Center    6 is at   2.392344 -0.422389  0.000011
       Atomic Center    7 is at   2.643747  0.968812  0.000065
       Atomic Center    8 is at   3.952127  1.425534  0.000066
       Atomic Center    9 is at   5.003690  0.501152  0.000006
       Atomic Center   10 is at   4.795506 -0.816138 -0.000043
       Atomic Center   11 is at   3.540731 -1.250621 -0.000039
       Atomic Center   12 is at  -3.545379 -0.390508 -0.000087
       Atomic Center   13 is at  -4.688258  0.423566 -0.000159
       Atomic Center   14 is at  -5.902649 -0.483140  0.000201
       Atomic Center   15 is at  -1.478418 -1.702458  0.000091
       Atomic Center   16 is at   0.956082 -2.068249 -0.000045
       Atomic Center   17 is at   1.783737  1.641199  0.000102
       Atomic Center   18 is at   4.168272  2.496607  0.000108
       Atomic Center   19 is at   6.045717  0.839071 -0.000002
       Atomic Center   20 is at   3.400735 -2.339288 -0.000085
       Atomic Center   21 is at  -4.685861  1.088926 -0.880432
       Atomic Center   22 is at  -4.685656  1.089431  0.879733
       Atomic Center   23 is at  -5.895076 -1.130725 -0.888135
       Atomic Center   24 is at  -6.832379  0.104581 -0.000014
       Atomic Center   25 is at  -5.895081 -1.130093  0.888998
 Evaluate density.
 Using the total density.
 Monte-Carlo method of calculating molar volume:
 based on  0.001 e/bohr**3 density envelope.
 Number of points per bohr**3 =   20 CutOff= 1.00D-04
 Using the SCF density.
 There are       398 points.  Will hold       398 in memory.
 LenV=  6441785809 MDV=  6442450944.
 Box volume = 7922.796 fraction occupied=0.231
 Integrated density= 7.7679528982155915D+01 error=-2.4320471017844085D+01
 Molar volume = 1831.400 bohr**3/mol (163.432 cm**3/mol)
 Recommended a0 for SCRF calculation =  4.92 angstrom (  9.30 bohr)
 Running external command "gaunbo7 R"
         input file       "/scratch/general/vast/u6067110/5269538-notchpeak.peaks/Gau-3929557.EIn"
         output file      "/scratch/general/vast/u6067110/5269538-notchpeak.peaks/Gau-3929557.EOu"
         message file     "/scratch/general/vast/u6067110/5269538-notchpeak.peaks/Gau-3929557.EMs"
         fchk file        "/scratch/general/vast/u6067110/5269538-notchpeak.peaks/Gau-3929557.EFC"
         mat. el file     "/scratch/general/vast/u6067110/5269538-notchpeak.peaks/Gau-3929557.EUF"

 Writing WrtUnf unformatted file "/scratch/general/vast/u6067110/5269538-notchpeak.peaks/Gau-3929557.EUF"
 Gaussian matrix elements                                         Version   2 NLab=11 Len12L=8 Len4L=8
 Write SHELL TO ATOM MAP                   from file      0 offset           0 length                 220 to matrix element file.
 Write SHELL TYPES                         from file      0 offset           0 length                 220 to matrix element file.
 Write NUMBER OF PRIMITIVES PER SHELL      from file      0 offset           0 length                 220 to matrix element file.
 Write PRIMITIVE EXPONENTS                 from file      0 offset           0 length                 368 to matrix element file.
 Write CONTRACTION COEFFICIENTS            from file      0 offset           0 length                 368 to matrix element file.
 Write P(S=P) CONTRACTION COEFFICIENTS     from file      0 offset           0 length                 368 to matrix element file.
 Write COORDINATES OF EACH SHELL           from file      0 offset           0 length                 660 to matrix element file.
 Write BONDS PER ATOM                      from file      0 offset           0 length                  25 to matrix element file.
 Write BONDED ATOMS                        from file      0 offset           0 length                  50 to matrix element file.
 Write BOND TYPES                          from file      0 offset           0 length                  50 to matrix element file.
 Write ONIOM CHARGE/MULT                   from file      0 offset           0 length                  32 to matrix element file.
 Write ONIOM ATOM LAYERS                   from file      0 offset           0 length                  25 to matrix element file.
 Write ONIOM ATOM MODIFIERS                from file      0 offset           0 length                  25 to matrix element file.
 Write ONIOM ATOM TYPES                    from file      0 offset           0 length                  25 to matrix element file.
 Write ONIOM LINK ATOMS                    from file      0 offset           0 length                  25 to matrix element file.
 Write ONIOM LINK CHARGES                  from file      0 offset           0 length                  25 to matrix element file.
 Write ONIOM LINK DISTANCES                from file      0 offset           0 length                 100 to matrix element file.
 Write SYMINF INTS                         from file      0 offset           0 length                  26 to matrix element file.
 Write ROTTR TO SO                         from file      0 offset           0 length                  12 to matrix element file.
 Write GAUSSIAN SCALARS                    from file    501 offset           0 to matrix element file.
 Write OPTIMIZATION FLAGS                  from file      0 offset           0 length                  25 to matrix element file.
 Write INTEGER ISO                         from file      0 offset           0 length                  25 to matrix element file.
 Write INTEGER SPIN                        from file      0 offset           0 length                  25 to matrix element file.
 Write REAL ZEFFECTIVE                     from file      0 offset           0 length                  25 to matrix element file.
 Write REAL QUADRUPOLEMOMENT               from file      0 offset           0 length                  25 to matrix element file.
 Write REAL GFACTOR                        from file      0 offset           0 length                  25 to matrix element file.
 Write REAL ZNUCLEAR                       from file      0 offset           0 length                  25 to matrix element file.
 Write MULLIKEN CHARGES                    from file      0 offset           0 length                  25 to matrix element file.
 Write TYPE 6 CHARGES                      from file      0 offset           0 length                  25 to matrix element file.
 Write TYPE 7 CHARGES                      from file      0 offset           0 length                  25 to matrix element file.
 Write NUCLEAR GRADIENT                    from file  10584 offset           0 length                  75 to matrix element file.
 Array NUCLEAR FORCE CONSTANTS              on  file  10585 does not exist.
 Write ELECTRIC DIPOLE MOMENT              from file      0 offset           0 length                   3 to matrix element file.
 Write ELECTRIC DIPOLE POLARIZABILITY      from file      0 offset           0 length                   6 to matrix element file.
 Write ELECTRIC DIPOLE HYPERPOLARIZABILITY from file      0 offset           0 length                  10 to matrix element file.
 Write NON-ADIABATIC COUPLING              from file  10810 offset           0 length                  75 to matrix element file.
 Write RED INT COORD DIMS                  from file      0 offset           0 length                   4 to matrix element file.
 Write RED INT COORD ATOMS                 from file      0 offset           0 length                 440 to matrix element file.
 Write RED INT COORD VALS                  from file      0 offset           0 length                 110 to matrix element file.
 Write RED INT COORD IFLAGS                from file      0 offset           0 length                 110 to matrix element file.
 Write RED INT COORD RFLAGS                from file      0 offset           0 length                 110 to matrix element file.
 Write RED INT COORD CONSTRAINT            from file      0 offset           0 length                 220 to matrix element file.
 Write FINITE EM FIELD                     from file  10521 offset           0 length                  35 to matrix element file.
 Write OVERLAP                             from file  10514 offset           0 length              173166 to matrix element file.
 Write CORE HAMILTONIAN ALPHA              from file  10515 offset           0 length              173166 to matrix element file.
 Write CORE HAMILTONIAN BETA               from file  10515 offset      173166 length              173166 to matrix element file.
 Write KINETIC ENERGY                      from file  10516 offset           0 length              173166 to matrix element file.
 Write ORTHOGONAL BASIS                    from file  10685 offset           0 length              345744 to matrix element file.
 Write DIPOLE INTEGRALS                    from file  10518 offset           0 length              519498 to matrix element file.
 Array DIP VEL INTEGRALS                    on  file  10572 does not exist.
 Array R X DEL INTEGRALS                    on  file  10572 does not exist.
 Write ALPHA ORBITAL ENERGIES              from file      0 offset           0 length                 588 to matrix element file.
 Write ALPHA MO COEFFICIENTS               from file  10524 offset           0 length              345744 to matrix element file.
 Write ALPHA DENSITY MATRIX                from file      0 offset           0 length              173166 to matrix element file.
 Write ALPHA FOCK MATRIX                   from file  10536 offset           0 length              173166 to matrix element file.
 Write ENERGY-WEIGHTED DENSITY             from file  10571 offset           0 length              173166 to matrix element file.
 Write ALPHA SCF DENSITY MATRIX            from file      0 offset           0 length              173166 to matrix element file.
 Write TRANS MO COEFFICIENTS               from file  10548 offset           0 length              345744 to matrix element file.
 No 2e integrals to process.
 Perform NBO analysis...executing G16NBO...

 *********************************** NBO 7.0 ***********************************
             N A T U R A L   A T O M I C   O R B I T A L   A N D
          N A T U R A L   B O N D   O R B I T A L   A N A L Y S I S
 **************************** Anita Orendt (S101720) ***************************
  (c) Copyright 1996-2021 Board of Regents of the University of Wisconsin System
      on behalf of the Theoretical Chemistry Institute.  All rights reserved.

          Cite this program [NBO 7.0.10 (8-Feb-2021)] as:

          NBO 7.0.  E. D. Glendening, J. K. Badenhoop, A. E. Reed,
          J. E. Carpenter, J. A. Bohmann, C. M. Morales, P. Karafiloglou,
          C. R. Landis, and F. Weinhold, Theoretical Chemistry Institute,
          University of Wisconsin, Madison, WI (2018)

 Filename set to /scratch/general/vast/u6067110/5269538-notchpeak.pea

 Job title: A12_crest_conformers_censo-1


 NATURAL POPULATIONS:  Natural atomic orbital occupancies

  NAO Atom No lang   Type(AO)    Occupancy      Energy
 -------------------------------------------------------
   1    O  1  s      Cor( 1s)     2.00000     -19.56010
   2    O  1  s      Val( 2s)     1.69875      -0.71540
   3    O  1  s      Ryd( 3s)     0.00034       1.28915
   4    O  1  s      Ryd( 4s)     0.00003       6.91408
   5    O  1  s      Ryd( 5s)     0.00000      39.86012
   6    O  1  px     Val( 2p)     1.85054      -0.29346
   7    O  1  px     Ryd( 3p)     0.00203       0.84276
   8    O  1  px     Ryd( 4p)     0.00002       3.29833
   9    O  1  py     Val( 2p)     1.56275      -0.27931
  10    O  1  py     Ryd( 3p)     0.00087       0.67887
  11    O  1  py     Ryd( 4p)     0.00015       4.01565
  12    O  1  pz     Val( 2p)     1.57712      -0.26213
  13    O  1  pz     Ryd( 3p)     0.00211       0.69463
  14    O  1  pz     Ryd( 4p)     0.00001       2.97539
  15    O  1  dxy    Ryd( 3d)     0.00407       2.12463
  16    O  1  dxy    Ryd( 4d)     0.00003       6.79323
  17    O  1  dxz    Ryd( 3d)     0.00014       1.69908
  18    O  1  dxz    Ryd( 4d)     0.00000       6.34729
  19    O  1  dyz    Ryd( 3d)     0.00510       1.94569
  20    O  1  dyz    Ryd( 4d)     0.00003       6.57810
  21    O  1  dx2y2  Ryd( 3d)     0.00693       2.19370
  22    O  1  dx2y2  Ryd( 4d)     0.00000       6.76665
  23    O  1  dz2    Ryd( 3d)     0.00237       1.91103
  24    O  1  dz2    Ryd( 4d)     0.00000       6.59300
  25    O  1  f(0)   Ryd( 4f)     0.00005       5.52791
  26    O  1  f(c1)  Ryd( 4f)     0.00000       5.31509
  27    O  1  f(s1)  Ryd( 4f)     0.00006       5.85534
  28    O  1  f(c2)  Ryd( 4f)     0.00014       5.72221
  29    O  1  f(s2)  Ryd( 4f)     0.00000       5.52503
  30    O  1  f(c3)  Ryd( 4f)     0.00020       6.19885
  31    O  1  f(s3)  Ryd( 4f)     0.00013       6.02842

  32    C  2  s      Cor( 1s)     1.99999     -10.61471
  33    C  2  s      Val( 2s)     0.82472      -0.06659
  34    C  2  s      Ryd( 3s)     0.00451       1.48383
  35    C  2  s      Ryd( 4s)     0.00020       2.23244
  36    C  2  s      Ryd( 5s)     0.00000      22.17262
  37    C  2  px     Val( 2p)     0.82732       0.02421
  38    C  2  px     Ryd( 3p)     0.00562       1.37660
  39    C  2  px     Ryd( 4p)     0.00020       1.51949
  40    C  2  py     Val( 2p)     0.80085       0.08859
  41    C  2  py     Ryd( 3p)     0.01659       1.29036
  42    C  2  py     Ryd( 4p)     0.00022       1.35886
  43    C  2  pz     Val( 2p)     0.80536      -0.07447
  44    C  2  pz     Ryd( 3p)     0.00243       0.89109
  45    C  2  pz     Ryd( 4p)     0.00040       1.03746
  46    C  2  dxy    Ryd( 4d)     0.00220       3.69578
  47    C  2  dxy    Ryd( 3d)     0.00028       3.28375
  48    C  2  dxz    Ryd( 4d)     0.00152       2.38542
  49    C  2  dxz    Ryd( 3d)     0.00018       2.26600
  50    C  2  dyz    Ryd( 4d)     0.00244       2.67511
  51    C  2  dyz    Ryd( 3d)     0.00011       2.33572
  52    C  2  dx2y2  Ryd( 4d)     0.00052       3.33110
  53    C  2  dx2y2  Ryd( 3d)     0.00047       3.38802
  54    C  2  dz2    Ryd( 4d)     0.00019       2.98665
  55    C  2  dz2    Ryd( 3d)     0.00021       2.69998
  56    C  2  f(0)   Ryd( 4f)     0.00022       3.36064
  57    C  2  f(c1)  Ryd( 4f)     0.00016       3.41137
  58    C  2  f(s1)  Ryd( 4f)     0.00019       3.50824
  59    C  2  f(c2)  Ryd( 4f)     0.00002       3.39662
  60    C  2  f(s2)  Ryd( 4f)     0.00002       3.38981
  61    C  2  f(c3)  Ryd( 4f)     0.00012       4.15516
  62    C  2  f(s3)  Ryd( 4f)     0.00031       3.93386

  63    C  3  s      Cor( 1s)     1.99999     -10.50125
  64    C  3  s      Val( 2s)     0.95482      -0.09823
  65    C  3  s      Ryd( 3s)     0.00489       1.18900
  66    C  3  s      Ryd( 4s)     0.00018       2.84718
  67    C  3  s      Ryd( 5s)     0.00000      19.37371
  68    C  3  px     Val( 2p)     0.92854       0.03179
  69    C  3  px     Ryd( 3p)     0.00561       0.96638
  70    C  3  px     Ryd( 4p)     0.00049       1.76934
  71    C  3  py     Val( 2p)     1.11305      -0.01655
  72    C  3  py     Ryd( 3p)     0.00335       0.97006
  73    C  3  py     Ryd( 4p)     0.00093       1.80612
  74    C  3  pz     Val( 2p)     1.27354      -0.10064
  75    C  3  pz     Ryd( 3p)     0.00910       0.52784
  76    C  3  pz     Ryd( 4p)     0.00020       1.44086
  77    C  3  dxy    Ryd( 3d)     0.00167       3.54775
  78    C  3  dxy    Ryd( 4d)     0.00025       3.75760
  79    C  3  dxz    Ryd( 3d)     0.00058       2.14889
  80    C  3  dxz    Ryd( 4d)     0.00016       2.72437
  81    C  3  dyz    Ryd( 3d)     0.00033       1.96573
  82    C  3  dyz    Ryd( 4d)     0.00005       2.73187
  83    C  3  dx2y2  Ryd( 3d)     0.00059       2.86325
  84    C  3  dx2y2  Ryd( 4d)     0.00034       3.89892
  85    C  3  dz2    Ryd( 3d)     0.00083       2.72416
  86    C  3  dz2    Ryd( 4d)     0.00004       3.32715
  87    C  3  f(0)   Ryd( 4f)     0.00054       3.28421
  88    C  3  f(c1)  Ryd( 4f)     0.00027       3.49545
  89    C  3  f(s1)  Ryd( 4f)     0.00039       3.39493
  90    C  3  f(c2)  Ryd( 4f)     0.00004       3.30897
  91    C  3  f(s2)  Ryd( 4f)     0.00002       3.36720
  92    C  3  f(c3)  Ryd( 4f)     0.00018       4.00432
  93    C  3  f(s3)  Ryd( 4f)     0.00039       3.96484

  94    N  4  s      Cor( 1s)     1.99999     -14.71866
  95    N  4  s      Val( 2s)     1.32682      -0.37954
  96    N  4  s      Ryd( 3s)     0.00340       1.10184
  97    N  4  s      Ryd( 4s)     0.00008       4.19290
  98    N  4  s      Ryd( 5s)     0.00000      29.07740
  99    N  4  px     Val( 2p)     1.22328      -0.09772
 100    N  4  px     Ryd( 3p)     0.00249       1.17577
 101    N  4  px     Ryd( 4p)     0.00008       3.57968
 102    N  4  py     Val( 2p)     1.68556      -0.21834
 103    N  4  py     Ryd( 3p)     0.00770       0.77538
 104    N  4  py     Ryd( 4p)     0.00014       3.28423
 105    N  4  pz     Val( 2p)     1.12165      -0.15572
 106    N  4  pz     Ryd( 3p)     0.00074       0.62985
 107    N  4  pz     Ryd( 4p)     0.00001       2.42004
 108    N  4  dxy    Ryd( 3d)     0.00563       2.17408
 109    N  4  dxy    Ryd( 4d)     0.00013       5.38859
 110    N  4  dxz    Ryd( 3d)     0.00057       1.64264
 111    N  4  dxz    Ryd( 4d)     0.00021       4.86772
 112    N  4  dyz    Ryd( 3d)     0.00276       1.46283
 113    N  4  dyz    Ryd( 4d)     0.00001       4.70945
 114    N  4  dx2y2  Ryd( 3d)     0.00323       2.28174
 115    N  4  dx2y2  Ryd( 4d)     0.00020       5.34007
 116    N  4  dz2    Ryd( 3d)     0.00434       1.85211
 117    N  4  dz2    Ryd( 4d)     0.00002       5.05165
 118    N  4  f(0)   Ryd( 4f)     0.00018       4.35535
 119    N  4  f(c1)  Ryd( 4f)     0.00023       4.59182
 120    N  4  f(s1)  Ryd( 4f)     0.00011       4.28999
 121    N  4  f(c2)  Ryd( 4f)     0.00011       4.44069
 122    N  4  f(s2)  Ryd( 4f)     0.00002       4.52520
 123    N  4  f(c3)  Ryd( 4f)     0.00024       5.08201
 124    N  4  f(s3)  Ryd( 4f)     0.00035       5.02615

 125    C  5  s      Cor( 1s)     1.99999     -10.51718
 126    C  5  s      Val( 2s)     0.91994      -0.08443
 127    C  5  s      Ryd( 3s)     0.00548       1.23767
 128    C  5  s      Ryd( 4s)     0.00015       2.22814
 129    C  5  s      Ryd( 5s)     0.00000      20.59731
 130    C  5  px     Val( 2p)     0.94156       0.02683
 131    C  5  px     Ryd( 3p)     0.00531       1.05902
 132    C  5  px     Ryd( 4p)     0.00023       1.85875
 133    C  5  py     Val( 2p)     1.08560      -0.00792
 134    C  5  py     Ryd( 3p)     0.00407       1.11689
 135    C  5  py     Ryd( 4p)     0.00105       1.61857
 136    C  5  pz     Val( 2p)     1.14743      -0.09282
 137    C  5  pz     Ryd( 3p)     0.00604       0.60671
 138    C  5  pz     Ryd( 4p)     0.00037       1.35290
 139    C  5  dxy    Ryd( 4d)     0.00067       3.65052
 140    C  5  dxy    Ryd( 3d)     0.00036       3.37367
 141    C  5  dxz    Ryd( 4d)     0.00046       2.59070
 142    C  5  dxz    Ryd( 3d)     0.00002       2.29682
 143    C  5  dyz    Ryd( 4d)     0.00027       2.47811
 144    C  5  dyz    Ryd( 3d)     0.00003       2.29639
 145    C  5  dx2y2  Ryd( 4d)     0.00097       3.20983
 146    C  5  dx2y2  Ryd( 3d)     0.00044       3.66120
 147    C  5  dz2    Ryd( 4d)     0.00069       3.24990
 148    C  5  dz2    Ryd( 3d)     0.00008       2.89917
 149    C  5  f(0)   Ryd( 4f)     0.00041       3.30437
 150    C  5  f(c1)  Ryd( 4f)     0.00027       3.47094
 151    C  5  f(s1)  Ryd( 4f)     0.00036       3.40176
 152    C  5  f(c2)  Ryd( 4f)     0.00001       3.32876
 153    C  5  f(s2)  Ryd( 4f)     0.00002       3.40315
 154    C  5  f(c3)  Ryd( 4f)     0.00015       4.04325
 155    C  5  f(s3)  Ryd( 4f)     0.00036       3.95289

 156    C  6  s      Cor( 1s)     1.99999     -10.53009
 157    C  6  s      Val( 2s)     0.94689      -0.10309
 158    C  6  s      Ryd( 3s)     0.00078       1.15267
 159    C  6  s      Ryd( 4s)     0.00006       1.81657
 160    C  6  s      Ryd( 5s)     0.00000      20.09096
 161    C  6  px     Val( 2p)     1.07398      -0.00299
 162    C  6  px     Ryd( 3p)     0.00670       1.26270
 163    C  6  px     Ryd( 4p)     0.00014       2.44679
 164    C  6  py     Val( 2p)     1.06841      -0.00394
 165    C  6  py     Ryd( 3p)     0.00274       1.19237
 166    C  6  py     Ryd( 4p)     0.00016       2.14976
 167    C  6  pz     Val( 2p)     0.98925      -0.09085
 168    C  6  pz     Ryd( 3p)     0.00144       0.69696
 169    C  6  pz     Ryd( 4p)     0.00010       1.45220
 170    C  6  dxy    Ryd( 3d)     0.00098       3.38012
 171    C  6  dxy    Ryd( 4d)     0.00039       4.29181
 172    C  6  dxz    Ryd( 3d)     0.00081       2.09425
 173    C  6  dxz    Ryd( 4d)     0.00004       2.88627
 174    C  6  dyz    Ryd( 3d)     0.00018       2.09842
 175    C  6  dyz    Ryd( 4d)     0.00011       2.84672
 176    C  6  dx2y2  Ryd( 3d)     0.00074       3.19440
 177    C  6  dx2y2  Ryd( 4d)     0.00041       4.29757
 178    C  6  dz2    Ryd( 3d)     0.00063       3.30212
 179    C  6  dz2    Ryd( 4d)     0.00003       3.52147
 180    C  6  f(0)   Ryd( 4f)     0.00040       3.26745
 181    C  6  f(c1)  Ryd( 4f)     0.00055       3.39021
 182    C  6  f(s1)  Ryd( 4f)     0.00049       3.35775
 183    C  6  f(c2)  Ryd( 4f)     0.00001       3.30432
 184    C  6  f(s2)  Ryd( 4f)     0.00003       3.30807
 185    C  6  f(c3)  Ryd( 4f)     0.00020       3.92635
 186    C  6  f(s3)  Ryd( 4f)     0.00057       3.91116

 187    C  7  s      Cor( 1s)     1.99999     -10.52637
 188    C  7  s      Val( 2s)     0.98630      -0.12612
 189    C  7  s      Ryd( 3s)     0.00126       1.32426
 190    C  7  s      Ryd( 4s)     0.00016       1.49600
 191    C  7  s      Ryd( 5s)     0.00000      21.09825
 192    C  7  px     Val( 2p)     1.12547      -0.02020
 193    C  7  px     Ryd( 3p)     0.00408       1.24277
 194    C  7  px     Ryd( 4p)     0.00016       2.13379
 195    C  7  py     Val( 2p)     1.08926      -0.01458
 196    C  7  py     Ryd( 3p)     0.00390       1.05992
 197    C  7  py     Ryd( 4p)     0.00008       2.10291
 198    C  7  pz     Val( 2p)     0.97615      -0.09689
 199    C  7  pz     Ryd( 3p)     0.00128       0.70206
 200    C  7  pz     Ryd( 4p)     0.00020       1.33562
 201    C  7  dxy    Ryd( 3d)     0.00083       2.66644
 202    C  7  dxy    Ryd( 4d)     0.00054       4.24713
 203    C  7  dxz    Ryd( 3d)     0.00056       1.64270
 204    C  7  dxz    Ryd( 4d)     0.00011       3.12934
 205    C  7  dyz    Ryd( 3d)     0.00024       1.66618
 206    C  7  dyz    Ryd( 4d)     0.00008       3.08794
 207    C  7  dx2y2  Ryd( 3d)     0.00164       2.54213
 208    C  7  dx2y2  Ryd( 4d)     0.00022       4.06089
 209    C  7  dz2    Ryd( 3d)     0.00118       2.11971
 210    C  7  dz2    Ryd( 4d)     0.00001       3.67821
 211    C  7  f(0)   Ryd( 4f)     0.00032       3.22640
 212    C  7  f(c1)  Ryd( 4f)     0.00050       3.40354
 213    C  7  f(s1)  Ryd( 4f)     0.00045       3.37285
 214    C  7  f(c2)  Ryd( 4f)     0.00001       3.33934
 215    C  7  f(s2)  Ryd( 4f)     0.00001       3.26762
 216    C  7  f(c3)  Ryd( 4f)     0.00023       3.91222
 217    C  7  f(s3)  Ryd( 4f)     0.00046       3.97753

 218    C  8  s      Cor( 1s)     1.99999     -10.52784
 219    C  8  s      Val( 2s)     0.99707      -0.14047
 220    C  8  s      Ryd( 4s)     0.00087       1.40700
 221    C  8  s      Ryd( 3s)     0.00004       1.28675
 222    C  8  s      Ryd( 5s)     0.00000      21.34880
 223    C  8  px     Val( 2p)     1.05783      -0.01172
 224    C  8  px     Ryd( 3p)     0.00300       1.00130
 225    C  8  px     Ryd( 4p)     0.00013       2.24035
 226    C  8  py     Val( 2p)     1.17159      -0.04116
 227    C  8  py     Ryd( 3p)     0.00398       1.19881
 228    C  8  py     Ryd( 4p)     0.00014       1.93109
 229    C  8  pz     Val( 2p)     1.01370      -0.10532
 230    C  8  pz     Ryd( 3p)     0.00137       0.70596
 231    C  8  pz     Ryd( 4p)     0.00020       1.31176
 232    C  8  dxy    Ryd( 3d)     0.00163       2.67939
 233    C  8  dxy    Ryd( 4d)     0.00020       3.94770
 234    C  8  dxz    Ryd( 3d)     0.00029       1.82511
 235    C  8  dxz    Ryd( 4d)     0.00007       2.93787
 236    C  8  dyz    Ryd( 3d)     0.00040       1.71529
 237    C  8  dyz    Ryd( 4d)     0.00004       3.03430
 238    C  8  dx2y2  Ryd( 3d)     0.00104       2.55888
 239    C  8  dx2y2  Ryd( 4d)     0.00032       4.28350
 240    C  8  dz2    Ryd( 3d)     0.00113       2.08847
 241    C  8  dz2    Ryd( 4d)     0.00001       3.56400
 242    C  8  f(0)   Ryd( 4f)     0.00035       3.20509
 243    C  8  f(c1)  Ryd( 4f)     0.00043       3.41989
 244    C  8  f(s1)  Ryd( 4f)     0.00057       3.33553
 245    C  8  f(c2)  Ryd( 4f)     0.00003       3.24051
 246    C  8  f(s2)  Ryd( 4f)     0.00001       3.30576
 247    C  8  f(c3)  Ryd( 4f)     0.00025       3.90082
 248    C  8  f(s3)  Ryd( 4f)     0.00048       3.91664

 249    C  9  s      Cor( 1s)     1.99999     -10.54751
 250    C  9  s      Val( 2s)     0.95161      -0.12771
 251    C  9  s      Ryd( 4s)     0.00222       1.50438
 252    C  9  s      Ryd( 3s)     0.00002       1.20017
 253    C  9  s      Ryd( 5s)     0.00000      21.53222
 254    C  9  px     Val( 2p)     1.13849      -0.04301
 255    C  9  px     Ryd( 3p)     0.00512       1.13112
 256    C  9  px     Ryd( 4p)     0.00032       1.73116
 257    C  9  py     Val( 2p)     0.92079       0.02325
 258    C  9  py     Ryd( 3p)     0.00831       1.04137
 259    C  9  py     Ryd( 4p)     0.00018       1.53161
 260    C  9  pz     Val( 2p)     0.99749      -0.10320
 261    C  9  pz     Ryd( 3p)     0.00345       0.67340
 262    C  9  pz     Ryd( 4p)     0.00034       1.23835
 263    C  9  dxy    Ryd( 3d)     0.00111       2.90737
 264    C  9  dxy    Ryd( 4d)     0.00032       3.51504
 265    C  9  dxz    Ryd( 3d)     0.00036       2.15398
 266    C  9  dxz    Ryd( 4d)     0.00010       2.50074
 267    C  9  dyz    Ryd( 3d)     0.00053       2.31425
 268    C  9  dyz    Ryd( 4d)     0.00003       2.48019
 269    C  9  dx2y2  Ryd( 3d)     0.00083       3.17171
 270    C  9  dx2y2  Ryd( 4d)     0.00049       3.60527
 271    C  9  dz2    Ryd( 3d)     0.00070       2.64193
 272    C  9  dz2    Ryd( 4d)     0.00005       3.03601
 273    C  9  f(0)   Ryd( 4f)     0.00029       3.26410
 274    C  9  f(c1)  Ryd( 4f)     0.00042       3.37389
 275    C  9  f(s1)  Ryd( 4f)     0.00028       3.45610
 276    C  9  f(c2)  Ryd( 4f)     0.00002       3.36836
 277    C  9  f(s2)  Ryd( 4f)     0.00002       3.31174
 278    C  9  f(c3)  Ryd( 4f)     0.00020       3.98577
 279    C  9  f(s3)  Ryd( 4f)     0.00029       3.91569

 280    N 10  s      Cor( 1s)     1.99999     -14.72976
 281    N 10  s      Val( 2s)     1.36753      -0.41808
 282    N 10  s      Ryd( 3s)     0.00098       1.49417
 283    N 10  s      Ryd( 4s)     0.00004       3.92476
 284    N 10  s      Ryd( 5s)     0.00000      28.77459
 285    N 10  px     Val( 2p)     1.48136      -0.18429
 286    N 10  px     Ryd( 3p)     0.00539       0.81136
 287    N 10  px     Ryd( 4p)     0.00020       3.42991
 288    N 10  py     Val( 2p)     1.39515      -0.16231
 289    N 10  py     Ryd( 3p)     0.00480       0.87542
 290    N 10  py     Ryd( 4p)     0.00015       3.38750
 291    N 10  pz     Val( 2p)     1.17809      -0.17702
 292    N 10  pz     Ryd( 3p)     0.00080       0.66639
 293    N 10  pz     Ryd( 4p)     0.00001       2.36009
 294    N 10  dxy    Ryd( 3d)     0.00291       2.11743
 295    N 10  dxy    Ryd( 4d)     0.00022       5.23355
 296    N 10  dxz    Ryd( 3d)     0.00223       1.50704
 297    N 10  dxz    Ryd( 4d)     0.00006       4.77780
 298    N 10  dyz    Ryd( 3d)     0.00146       1.52727
 299    N 10  dyz    Ryd( 4d)     0.00010       4.79268
 300    N 10  dx2y2  Ryd( 3d)     0.00681       2.03979
 301    N 10  dx2y2  Ryd( 4d)     0.00011       5.31836
 302    N 10  dz2    Ryd( 3d)     0.00534       1.79520
 303    N 10  dz2    Ryd( 4d)     0.00001       5.04203
 304    N 10  f(0)   Ryd( 4f)     0.00018       4.39351
 305    N 10  f(c1)  Ryd( 4f)     0.00014       4.41431
 306    N 10  f(s1)  Ryd( 4f)     0.00016       4.44424
 307    N 10  f(c2)  Ryd( 4f)     0.00001       4.59498
 308    N 10  f(s2)  Ryd( 4f)     0.00008       4.41277
 309    N 10  f(c3)  Ryd( 4f)     0.00014       5.12651
 310    N 10  f(s3)  Ryd( 4f)     0.00022       5.04893

 311    C 11  s      Cor( 1s)     1.99999     -10.54840
 312    C 11  s      Val( 2s)     0.94444      -0.12166
 313    C 11  s      Ryd( 4s)     0.00245       1.74210
 314    C 11  s      Ryd( 3s)     0.00005       1.70109
 315    C 11  s      Ryd( 5s)     0.00000      20.79851
 316    C 11  px     Val( 2p)     0.92122       0.03239
 317    C 11  px     Ryd( 3p)     0.00752       1.07575
 318    C 11  px     Ryd( 4p)     0.00021       1.57565
 319    C 11  py     Val( 2p)     1.12916      -0.04350
 320    C 11  py     Ryd( 3p)     0.00495       1.17890
 321    C 11  py     Ryd( 4p)     0.00026       1.70338
 322    C 11  pz     Val( 2p)     0.97702      -0.10027
 323    C 11  pz     Ryd( 3p)     0.00253       0.68968
 324    C 11  pz     Ryd( 4p)     0.00026       1.23309
 325    C 11  dxy    Ryd( 3d)     0.00093       3.05054
 326    C 11  dxy    Ryd( 4d)     0.00037       3.46679
 327    C 11  dxz    Ryd( 3d)     0.00051       2.32424
 328    C 11  dxz    Ryd( 4d)     0.00003       2.53575
 329    C 11  dyz    Ryd( 3d)     0.00043       2.12232
 330    C 11  dyz    Ryd( 4d)     0.00012       2.53676
 331    C 11  dx2y2  Ryd( 3d)     0.00095       3.14765
 332    C 11  dx2y2  Ryd( 4d)     0.00045       3.80028
 333    C 11  dz2    Ryd( 3d)     0.00073       2.70420
 334    C 11  dz2    Ryd( 4d)     0.00006       3.12569
 335    C 11  f(0)   Ryd( 4f)     0.00029       3.25534
 336    C 11  f(c1)  Ryd( 4f)     0.00030       3.48176
 337    C 11  f(s1)  Ryd( 4f)     0.00040       3.33437
 338    C 11  f(c2)  Ryd( 4f)     0.00003       3.32807
 339    C 11  f(s2)  Ryd( 4f)     0.00002       3.35623
 340    C 11  f(c3)  Ryd( 4f)     0.00012       4.00614
 341    C 11  f(s3)  Ryd( 4f)     0.00040       3.91751

 342    O 12  s      Cor( 1s)     2.00000     -19.62140
 343    O 12  s      Val( 2s)     1.62014      -0.77006
 344    O 12  s      Ryd( 3s)     0.00099       1.86535
 345    O 12  s      Ryd( 4s)     0.00009       7.42123
 346    O 12  s      Ryd( 5s)     0.00000      39.41819
 347    O 12  px     Val( 2p)     1.33968      -0.26767
 348    O 12  px     Ryd( 3p)     0.00174       1.12491
 349    O 12  px     Ryd( 4p)     0.00011       4.14393
 350    O 12  py     Val( 2p)     1.71813      -0.34780
 351    O 12  py     Ryd( 3p)     0.00278       0.76982
 352    O 12  py     Ryd( 4p)     0.00019       3.56905
 353    O 12  pz     Val( 2p)     1.84289      -0.35850
 354    O 12  pz     Ryd( 3p)     0.00311       0.70537
 355    O 12  pz     Ryd( 4p)     0.00005       3.00428
 356    O 12  dxy    Ryd( 3d)     0.00501       2.47409
 357    O 12  dxy    Ryd( 4d)     0.00003       6.73183
 358    O 12  dxz    Ryd( 3d)     0.00021       2.04826
 359    O 12  dxz    Ryd( 4d)     0.00005       6.58371
 360    O 12  dyz    Ryd( 3d)     0.00233       1.91621
 361    O 12  dyz    Ryd( 4d)     0.00002       6.53417
 362    O 12  dx2y2  Ryd( 3d)     0.00172       2.40321
 363    O 12  dx2y2  Ryd( 4d)     0.00005       6.77178
 364    O 12  dz2    Ryd( 3d)     0.00275       2.07072
 365    O 12  dz2    Ryd( 4d)     0.00001       6.63415
 366    O 12  f(0)   Ryd( 4f)     0.00011       5.58891
 367    O 12  f(c1)  Ryd( 4f)     0.00010       5.62655
 368    O 12  f(s1)  Ryd( 4f)     0.00006       5.44448
 369    O 12  f(c2)  Ryd( 4f)     0.00003       5.52687
 370    O 12  f(s2)  Ryd( 4f)     0.00000       5.78397
 371    O 12  f(c3)  Ryd( 4f)     0.00003       6.20776
 372    O 12  f(s3)  Ryd( 4f)     0.00012       6.01718

 373    C 13  s      Cor( 1s)     1.99999     -10.56434
 374    C 13  s      Val( 2s)     1.02712      -0.20601
 375    C 13  s      Ryd( 3s)     0.00499       1.28797
 376    C 13  s      Ryd( 4s)     0.00006       1.97382
 377    C 13  s      Ryd( 5s)     0.00000      21.59580
 378    C 13  px     Val( 2p)     0.82926      -0.03295
 379    C 13  px     Ryd( 3p)     0.00244       1.21011
 380    C 13  px     Ryd( 4p)     0.00013       1.23122
 381    C 13  py     Val( 2p)     1.00943      -0.06240
 382    C 13  py     Ryd( 3p)     0.00246       1.04382
 383    C 13  py     Ryd( 4p)     0.00021       1.26559
 384    C 13  pz     Val( 2p)     1.18326      -0.09661
 385    C 13  pz     Ryd( 3p)     0.00136       1.04890
 386    C 13  pz     Ryd( 4p)     0.00010       1.29450
 387    C 13  dxy    Ryd( 3d)     0.00086       2.65218
 388    C 13  dxy    Ryd( 4d)     0.00023       3.57981
 389    C 13  dxz    Ryd( 3d)     0.00077       1.94764
 390    C 13  dxz    Ryd( 4d)     0.00019       3.03499
 391    C 13  dyz    Ryd( 3d)     0.00222       2.08805
 392    C 13  dyz    Ryd( 4d)     0.00012       3.51977
 393    C 13  dx2y2  Ryd( 3d)     0.00049       2.15565
 394    C 13  dx2y2  Ryd( 4d)     0.00029       3.24778
 395    C 13  dz2    Ryd( 3d)     0.00118       2.49115
 396    C 13  dz2    Ryd( 4d)     0.00005       3.46757
 397    C 13  f(0)   Ryd( 4f)     0.00003       3.51922
 398    C 13  f(c1)  Ryd( 4f)     0.00002       3.47415
 399    C 13  f(s1)  Ryd( 4f)     0.00036       3.82062
 400    C 13  f(c2)  Ryd( 4f)     0.00002       3.60298
 401    C 13  f(s2)  Ryd( 4f)     0.00001       3.61839
 402    C 13  f(c3)  Ryd( 4f)     0.00002       3.78739
 403    C 13  f(s3)  Ryd( 4f)     0.00019       3.73068

 404    C 14  s      Cor( 1s)     1.99999     -10.51435
 405    C 14  s      Val( 2s)     1.12184      -0.23258
 406    C 14  s      Ryd( 3s)     0.00079       1.20255
 407    C 14  s      Ryd( 4s)     0.00001       2.01861
 408    C 14  s      Ryd( 5s)     0.00000      22.19286
 409    C 14  px     Val( 2p)     1.11736      -0.08083
 410    C 14  px     Ryd( 3p)     0.00126       0.88709
 411    C 14  px     Ryd( 4p)     0.00006       2.20580
 412    C 14  py     Val( 2p)     1.15687      -0.08687
 413    C 14  py     Ryd( 3p)     0.00055       0.84899
 414    C 14  py     Ryd( 4p)     0.00002       2.04192
 415    C 14  pz     Val( 2p)     1.21172      -0.10002
 416    C 14  pz     Ryd( 3p)     0.00056       0.84286
 417    C 14  pz     Ryd( 4p)     0.00001       1.78968
 418    C 14  dxy    Ryd( 3d)     0.00237       2.07678
 419    C 14  dxy    Ryd( 4d)     0.00001       3.64367
 420    C 14  dxz    Ryd( 3d)     0.00004       1.67159
 421    C 14  dxz    Ryd( 4d)     0.00005       3.32288
 422    C 14  dyz    Ryd( 3d)     0.00229       1.79447
 423    C 14  dyz    Ryd( 4d)     0.00002       3.74589
 424    C 14  dx2y2  Ryd( 3d)     0.00044       1.76468
 425    C 14  dx2y2  Ryd( 4d)     0.00004       3.43450
 426    C 14  dz2    Ryd( 3d)     0.00182       1.85439
 427    C 14  dz2    Ryd( 4d)     0.00000       3.63532
 428    C 14  f(0)   Ryd( 4f)     0.00001       3.32392
 429    C 14  f(c1)  Ryd( 4f)     0.00006       3.39835
 430    C 14  f(s1)  Ryd( 4f)     0.00052       3.63383
 431    C 14  f(c2)  Ryd( 4f)     0.00004       3.48838
 432    C 14  f(s2)  Ryd( 4f)     0.00001       3.40139
 433    C 14  f(c3)  Ryd( 4f)     0.00003       3.50501
 434    C 14  f(s3)  Ryd( 4f)     0.00033       3.54843

 435    H 15  s      Val( 1s)     0.83997       0.05948
 436    H 15  s      Ryd( 2s)     0.00243       0.57281
 437    H 15  s      Ryd( 3s)     0.00013       2.23702
 438    H 15  px     Ryd( 2p)     0.00010       2.37390
 439    H 15  px     Ryd( 3p)     0.00014       3.50349
 440    H 15  py     Ryd( 2p)     0.00018       2.86651
 441    H 15  py     Ryd( 3p)     0.00007       4.23870
 442    H 15  pz     Ryd( 2p)     0.00020       2.11378
 443    H 15  pz     Ryd( 3p)     0.00001       3.07863
 444    H 15  dxy    Ryd( 3d)     0.00003       4.45896
 445    H 15  dxz    Ryd( 3d)     0.00000       3.53467
 446    H 15  dyz    Ryd( 3d)     0.00002       4.14079
 447    H 15  dx2y2  Ryd( 3d)     0.00006       4.40748
 448    H 15  dz2    Ryd( 3d)     0.00001       3.96566

 449    H 16  s      Val( 1s)     0.85044       0.04688
 450    H 16  s      Ryd( 2s)     0.00335       0.51426
 451    H 16  s      Ryd( 3s)     0.00013       2.32958
 452    H 16  px     Ryd( 2p)     0.00010       2.57486
 453    H 16  px     Ryd( 3p)     0.00008       3.28399
 454    H 16  py     Ryd( 2p)     0.00022       2.83855
 455    H 16  py     Ryd( 3p)     0.00006       4.16816
 456    H 16  pz     Ryd( 2p)     0.00018       2.30082
 457    H 16  pz     Ryd( 3p)     0.00001       2.87068
 458    H 16  dxy    Ryd( 3d)     0.00003       4.46053
 459    H 16  dxz    Ryd( 3d)     0.00001       3.50904
 460    H 16  dyz    Ryd( 3d)     0.00002       4.16198
 461    H 16  dx2y2  Ryd( 3d)     0.00004       4.41382
 462    H 16  dz2    Ryd( 3d)     0.00001       3.97242

 463    H 17  s      Val( 1s)     0.76556       0.09632
 464    H 17  s      Ryd( 2s)     0.00116       0.79116
 465    H 17  s      Ryd( 3s)     0.00011       2.09983
 466    H 17  px     Ryd( 3p)     0.00017       4.35479
 467    H 17  px     Ryd( 2p)     0.00010       2.16227
 468    H 17  py     Ryd( 3p)     0.00015       4.32451
 469    H 17  py     Ryd( 2p)     0.00010       2.01017
 470    H 17  pz     Ryd( 3p)     0.00004       3.90926
 471    H 17  pz     Ryd( 2p)     0.00002       1.23846
 472    H 17  dxy    Ryd( 3d)     0.00005       4.50233
 473    H 17  dxz    Ryd( 3d)     0.00001       3.96149
 474    H 17  dyz    Ryd( 3d)     0.00001       3.80944
 475    H 17  dx2y2  Ryd( 3d)     0.00003       4.54626
 476    H 17  dz2    Ryd( 3d)     0.00001       4.05058

 477    H 18  s      Val( 1s)     0.77922       0.07736
 478    H 18  s      Ryd( 2s)     0.00033       0.81444
 479    H 18  s      Ryd( 3s)     0.00009       1.99989
 480    H 18  px     Ryd( 3p)     0.00009       4.24393
 481    H 18  px     Ryd( 2p)     0.00005       1.60111
 482    H 18  py     Ryd( 3p)     0.00024       4.30572
 483    H 18  py     Ryd( 2p)     0.00003       2.37619
 484    H 18  pz     Ryd( 3p)     0.00003       3.86948
 485    H 18  pz     Ryd( 2p)     0.00007       1.25091
 486    H 18  dxy    Ryd( 3d)     0.00004       4.49391
 487    H 18  dxz    Ryd( 3d)     0.00000       3.55828
 488    H 18  dyz    Ryd( 3d)     0.00002       4.19218
 489    H 18  dx2y2  Ryd( 3d)     0.00005       4.47829
 490    H 18  dz2    Ryd( 3d)     0.00001       4.00504

 491    H 19  s      Val( 1s)     0.80908       0.05668
 492    H 19  s      Ryd( 2s)     0.00046       0.67823
 493    H 19  s      Ryd( 3s)     0.00012       2.10725
 494    H 19  px     Ryd( 3p)     0.00025       4.19176
 495    H 19  px     Ryd( 2p)     0.00006       2.53074
 496    H 19  py     Ryd( 3p)     0.00007       4.16949
 497    H 19  py     Ryd( 2p)     0.00005       1.53556
 498    H 19  pz     Ryd( 3p)     0.00004       3.95895
 499    H 19  pz     Ryd( 2p)     0.00012       1.12277
 500    H 19  dxy    Ryd( 3d)     0.00003       4.46556
 501    H 19  dxz    Ryd( 3d)     0.00002       4.12769
 502    H 19  dyz    Ryd( 3d)     0.00000       3.56985
 503    H 19  dx2y2  Ryd( 3d)     0.00005       4.44877
 504    H 19  dz2    Ryd( 3d)     0.00001       3.99591

 505    H 20  s      Val( 1s)     0.81521       0.05499
 506    H 20  s      Ryd( 2s)     0.00069       0.84333
 507    H 20  s      Ryd( 3s)     0.00013       1.98876
 508    H 20  px     Ryd( 3p)     0.00004       4.08967
 509    H 20  px     Ryd( 2p)     0.00008       1.57562
 510    H 20  py     Ryd( 3p)     0.00027       4.07001
 511    H 20  py     Ryd( 2p)     0.00005       2.88335
 512    H 20  pz     Ryd( 3p)     0.00006       3.86190
 513    H 20  pz     Ryd( 2p)     0.00005       1.23341
 514    H 20  dxy    Ryd( 3d)     0.00002       4.48627
 515    H 20  dxz    Ryd( 3d)     0.00000       3.52113
 516    H 20  dyz    Ryd( 3d)     0.00001       4.17903
 517    H 20  dx2y2  Ryd( 3d)     0.00006       4.45118
 518    H 20  dz2    Ryd( 3d)     0.00001       4.00601

 519    H 21  s      Val( 1s)     0.82731       0.04022
 520    H 21  s      Ryd( 2s)     0.00137       0.63497
 521    H 21  s      Ryd( 3s)     0.00004       2.21134
 522    H 21  px     Ryd( 3p)     0.00005       3.89322
 523    H 21  px     Ryd( 2p)     0.00023       1.59843
 524    H 21  py     Ryd( 3p)     0.00017       3.90902
 525    H 21  py     Ryd( 2p)     0.00005       2.09237
 526    H 21  pz     Ryd( 3p)     0.00021       3.92997
 527    H 21  pz     Ryd( 2p)     0.00003       2.40566
 528    H 21  dxy    Ryd( 3d)     0.00002       3.89694
 529    H 21  dxz    Ryd( 3d)     0.00002       3.97062
 530    H 21  dyz    Ryd( 3d)     0.00008       4.37737
 531    H 21  dx2y2  Ryd( 3d)     0.00002       3.81034
 532    H 21  dz2    Ryd( 3d)     0.00006       4.30109

 533    H 22  s      Val( 1s)     0.82729       0.04023
 534    H 22  s      Ryd( 2s)     0.00137       0.63501
 535    H 22  s      Ryd( 3s)     0.00004       2.21128
 536    H 22  px     Ryd( 3p)     0.00005       3.89275
 537    H 22  px     Ryd( 2p)     0.00023       1.59889
 538    H 22  py     Ryd( 3p)     0.00017       3.90846
 539    H 22  py     Ryd( 2p)     0.00005       2.09364
 540    H 22  pz     Ryd( 3p)     0.00021       3.92938
 541    H 22  pz     Ryd( 2p)     0.00003       2.40553
 542    H 22  dxy    Ryd( 3d)     0.00002       3.89732
 543    H 22  dxz    Ryd( 3d)     0.00002       3.97019
 544    H 22  dyz    Ryd( 3d)     0.00008       4.37736
 545    H 22  dx2y2  Ryd( 3d)     0.00002       3.81074
 546    H 22  dz2    Ryd( 3d)     0.00006       4.30070

 547    H 23  s      Val( 1s)     0.79265       0.05878
 548    H 23  s      Ryd( 2s)     0.00065       0.77433
 549    H 23  s      Ryd( 3s)     0.00002       2.00836
 550    H 23  px     Ryd( 3p)     0.00007       3.59581
 551    H 23  px     Ryd( 2p)     0.00002       1.82098
 552    H 23  py     Ryd( 3p)     0.00017       3.81988
 553    H 23  py     Ryd( 2p)     0.00001       1.97977
 554    H 23  pz     Ryd( 3p)     0.00025       3.99081
 555    H 23  pz     Ryd( 2p)     0.00001       2.14366
 556    H 23  dxy    Ryd( 3d)     0.00001       3.89150
 557    H 23  dxz    Ryd( 3d)     0.00002       4.00936
 558    H 23  dyz    Ryd( 3d)     0.00007       4.38670
 559    H 23  dx2y2  Ryd( 3d)     0.00002       3.81589
 560    H 23  dz2    Ryd( 3d)     0.00005       4.35492

 561    H 24  s      Val( 1s)     0.78800       0.05721
 562    H 24  s      Ryd( 2s)     0.00019       0.72944
 563    H 24  s      Ryd( 3s)     0.00003       2.05572
 564    H 24  px     Ryd( 3p)     0.00029       4.07274
 565    H 24  px     Ryd( 2p)     0.00003       2.20680
 566    H 24  py     Ryd( 3p)     0.00015       3.74230
 567    H 24  py     Ryd( 2p)     0.00001       1.94936
 568    H 24  pz     Ryd( 3p)     0.00006       3.56522
 569    H 24  pz     Ryd( 2p)     0.00000       1.82361
 570    H 24  dxy    Ryd( 3d)     0.00007       4.39379
 571    H 24  dxz    Ryd( 3d)     0.00003       4.06922
 572    H 24  dyz    Ryd( 3d)     0.00001       3.85039
 573    H 24  dx2y2  Ryd( 3d)     0.00004       4.30487
 574    H 24  dz2    Ryd( 3d)     0.00003       3.82402

 575    H 25  s      Val( 1s)     0.79265       0.05878
 576    H 25  s      Ryd( 2s)     0.00065       0.77432
 577    H 25  s      Ryd( 3s)     0.00002       2.00836
 578    H 25  px     Ryd( 3p)     0.00007       3.59575
 579    H 25  px     Ryd( 2p)     0.00002       1.82106
 580    H 25  py     Ryd( 3p)     0.00017       3.81936
 581    H 25  py     Ryd( 2p)     0.00001       1.97951
 582    H 25  pz     Ryd( 3p)     0.00025       3.99122
 583    H 25  pz     Ryd( 2p)     0.00001       2.14406
 584    H 25  dxy    Ryd( 3d)     0.00001       3.89097
 585    H 25  dxz    Ryd( 3d)     0.00002       4.00990
 586    H 25  dyz    Ryd( 3d)     0.00007       4.38671
 587    H 25  dx2y2  Ryd( 3d)     0.00002       3.81538
 588    H 25  dz2    Ryd( 3d)     0.00005       4.35542


 Summary of Natural Population Analysis:

                                     Natural Population
             Natural    ---------------------------------------------
  Atom No    Charge        Core      Valence    Rydberg      Total
 --------------------------------------------------------------------
    O  1   -0.71398      2.00000     6.68917    0.02482     8.71398
    C  2    0.70241      1.99999     3.25826    0.03935     5.29759
    C  3   -0.30138      1.99999     4.26995    0.03144     6.30138
    N  4   -0.39025      1.99999     5.35731    0.03295     7.39025
    C  5   -0.12280      1.99999     4.09453    0.02828     6.12280
    C  6   -0.09721      1.99999     4.07852    0.01870     6.09721
    C  7   -0.19569      1.99999     4.17717    0.01853     6.19569
    C  8   -0.25716      1.99999     4.24020    0.01697     6.25716
    C  9   -0.03438      1.99999     4.00838    0.02600     6.03438
    N 10   -0.45468      1.99999     5.42213    0.03255     7.45468
    C 11    0.00378      1.99999     3.97184    0.02439     5.99622
    O 12   -0.54253      2.00000     6.52084    0.02170     8.54253
    C 13   -0.06786      1.99999     4.04907    0.01880     6.06786
    C 14   -0.61915      1.99999     4.60779    0.01137     6.61915
    H 15    0.15664      0.00000     0.83997    0.00339     0.84336
    H 16    0.14531      0.00000     0.85044    0.00424     0.85469
    H 17    0.23247      0.00000     0.76556    0.00197     0.76753
    H 18    0.21975      0.00000     0.77922    0.00103     0.78025
    H 19    0.18966      0.00000     0.80908    0.00127     0.81034
    H 20    0.18332      0.00000     0.81521    0.00146     0.81668
    H 21    0.17034      0.00000     0.82731    0.00234     0.82966
    H 22    0.17037      0.00000     0.82729    0.00234     0.82963
    H 23    0.20598      0.00000     0.79265    0.00137     0.79402
    H 24    0.21106      0.00000     0.78800    0.00094     0.78894
    H 25    0.20598      0.00000     0.79265    0.00137     0.79402
 ====================================================================
 * Total * -1.00000     27.99988    73.63255    0.36757   102.00000

                                 Natural Population
 ---------------------------------------------------------
   Core                      27.99988 ( 99.9996% of   28)
   Valence                   73.63255 ( 99.5034% of   74)
   Natural Minimal Basis    101.63243 ( 99.6396% of  102)
   Natural Rydberg Basis      0.36757 (  0.3604% of  102)
 ---------------------------------------------------------

    Atom No         Natural Electron Configuration
 ----------------------------------------------------------------------------
      O  1      [core]2s( 1.70)2p( 4.99)3p( 0.01)3d( 0.02)
      C  2      [core]2s( 0.82)2p( 2.43)3p( 0.02)4d( 0.01)
      C  3      [core]2s( 0.95)2p( 3.32)3p( 0.02)
      N  4      [core]2s( 1.33)2p( 4.03)3p( 0.01)3d( 0.02)
      C  5      [core]2s( 0.92)2p( 3.17)3s( 0.01)3p( 0.02)
      C  6      [core]2s( 0.95)2p( 3.13)3p( 0.01)
      C  7      [core]2s( 0.99)2p( 3.19)3p( 0.01)
      C  8      [core]2s( 1.00)2p( 3.24)3p( 0.01)
      C  9      [core]2s( 0.95)2p( 3.06)3p( 0.02)
      N 10      [core]2s( 1.37)2p( 4.05)3p( 0.01)3d( 0.02)
      C 11      [core]2s( 0.94)2p( 3.03)3p( 0.02)
      O 12      [core]2s( 1.62)2p( 4.90)3p( 0.01)3d( 0.01)
      C 13      [core]2s( 1.03)2p( 3.02)3p( 0.01)3d( 0.01)
      C 14      [core]2s( 1.12)2p( 3.49)3d( 0.01)
      H 15            1s( 0.84)
      H 16            1s( 0.85)
      H 17            1s( 0.77)
      H 18            1s( 0.78)
      H 19            1s( 0.81)
      H 20            1s( 0.82)
      H 21            1s( 0.83)
      H 22            1s( 0.83)
      H 23            1s( 0.79)
      H 24            1s( 0.79)
      H 25            1s( 0.79)


 NATURAL BOND ORBITAL ANALYSIS:

                            Occupancies       Lewis Structure    Low   High
         Max    Occ     -------------------  -----------------   occ   occ
  Cycle  Ctr   Thresh    Lewis   non-Lewis     CR  BD  nC  LP    (L)   (NL)
 ============================================================================
    1     2     1.90    95.80842   6.19158     14  26   0  11     8      7
    2     2     1.89    95.80842   6.19158     14  26   0  11     8      7
    3     2     1.88    95.91768   6.08232     14  26   0  11     7      7
    4     2     1.86    96.50656   5.49344     14  27   0  10     6      7
    5     2     1.85    97.43421   4.56579     14  27   0  10     5      6
    6     2     1.84    97.43421   4.56579     14  27   0  10     4      6
    7     2     1.81    97.43421   4.56579     14  27   0  10     4      6
    8     2     1.76    98.01323   3.98677     14  28   0   9     3      6
    9     2     1.74    98.01323   3.98677     14  28   0   9     3      6
   10     2     1.69    98.69210   3.30790     14  29   0   8     2      6
   11     2     1.64    98.69210   3.30790     14  29   0   8     2      6
   12     2     1.60    98.69210   3.30790     14  29   0   8     2      6
   13     2     1.58    98.60915   3.39085     14  29   0   8     1      6
   14     2     1.57    99.17027   2.82973     14  30   0   7     0      6
   15     2     1.50    99.17027   2.82973     14  30   0   7     0      6
   16     2     1.57    99.17027   2.82973     14  30   0   7     0      6
 ----------------------------------------------------------------------------

 Structure accepted: No low occupancy Lewis orbitals

 -------------------------------------------------------
   Core                     27.99988 (100.000% of  28)
   Valence Lewis            71.17039 ( 96.176% of  74)
  ==================      =============================
   Total Lewis              99.17027 ( 97.226% of 102)
  -----------------------------------------------------
   Valence non-Lewis         2.63913 (  2.587% of 102)
   Rydberg non-Lewis         0.19059 (  0.187% of 102)
  ==================      =============================
   Total non-Lewis           2.82973 (  2.774% of 102)
 -------------------------------------------------------


     (Occupancy)   Bond orbital / Coefficients / Hybrids
 ------------------ Lewis ------------------------------------------------------
   1. (2.00000) CR ( 1) O  1            s(100.00%)
                                         1.0000  0.0000  0.0000  0.0000  0.0000
                                         0.0000  0.0000  0.0000  0.0000  0.0000
                                         0.0000  0.0000  0.0000  0.0000  0.0000
                                         0.0000  0.0000  0.0000  0.0000  0.0000
                                         0.0000  0.0000  0.0000  0.0000  0.0000
                                         0.0000  0.0000  0.0000  0.0000  0.0000
                                         0.0000
   2. (1.99999) CR ( 1) C  2            s(100.00%)
                                         1.0000  0.0000  0.0000  0.0000  0.0000
                                         0.0000  0.0000  0.0000  0.0000  0.0000
                                         0.0000  0.0000  0.0000  0.0000  0.0000
                                         0.0000  0.0000  0.0000  0.0000  0.0000
                                         0.0000  0.0000  0.0000  0.0000  0.0000
                                         0.0000  0.0000  0.0000  0.0000  0.0000
                                         0.0000
   3. (1.99999) CR ( 1) C  3            s(100.00%)
                                         1.0000  0.0000  0.0000  0.0000  0.0000
                                         0.0000  0.0000  0.0000  0.0000  0.0000
                                         0.0000  0.0000  0.0000  0.0000  0.0000
                                         0.0000  0.0000  0.0000  0.0000  0.0000
                                         0.0000  0.0000  0.0000  0.0000  0.0000
                                         0.0000  0.0000  0.0000  0.0000  0.0000
                                         0.0000
   4. (1.99999) CR ( 1) N  4            s(100.00%)
                                         1.0000  0.0000  0.0000  0.0000  0.0000
                                         0.0000  0.0000  0.0000  0.0000  0.0000
                                         0.0000  0.0000  0.0000  0.0000  0.0000
                                         0.0000  0.0000  0.0000  0.0000  0.0000
                                         0.0000  0.0000  0.0000  0.0000  0.0000
                                         0.0000  0.0000  0.0000  0.0000  0.0000
                                         0.0000
   5. (1.99999) CR ( 1) C  5            s(100.00%)
                                         1.0000  0.0000  0.0000  0.0000  0.0000
                                         0.0000  0.0000  0.0000  0.0000  0.0000
                                         0.0000  0.0000  0.0000  0.0000  0.0000
                                         0.0000  0.0000  0.0000  0.0000  0.0000
                                         0.0000  0.0000  0.0000  0.0000  0.0000
                                         0.0000  0.0000  0.0000  0.0000  0.0000
                                         0.0000
   6. (1.99999) CR ( 1) C  6            s(100.00%)
                                         1.0000  0.0000  0.0000  0.0000  0.0000
                                         0.0000  0.0000  0.0000  0.0000  0.0000
                                         0.0000  0.0000  0.0000  0.0000  0.0000
                                         0.0000  0.0000  0.0000  0.0000  0.0000
                                         0.0000  0.0000  0.0000  0.0000  0.0000
                                         0.0000  0.0000  0.0000  0.0000  0.0000
                                         0.0000
   7. (1.99999) CR ( 1) C  7            s(100.00%)
                                         1.0000  0.0000  0.0000  0.0000  0.0000
                                         0.0000  0.0000  0.0000  0.0000  0.0000
                                         0.0000  0.0000  0.0000  0.0000  0.0000
                                         0.0000  0.0000  0.0000  0.0000  0.0000
                                         0.0000  0.0000  0.0000  0.0000  0.0000
                                         0.0000  0.0000  0.0000  0.0000  0.0000
                                         0.0000
   8. (1.99999) CR ( 1) C  8            s(100.00%)
                                         1.0000  0.0000  0.0000  0.0000  0.0000
                                         0.0000  0.0000  0.0000  0.0000  0.0000
                                         0.0000  0.0000  0.0000  0.0000  0.0000
                                         0.0000  0.0000  0.0000  0.0000  0.0000
                                         0.0000  0.0000  0.0000  0.0000  0.0000
                                         0.0000  0.0000  0.0000  0.0000  0.0000
                                         0.0000
   9. (1.99999) CR ( 1) C  9            s(100.00%)
                                         1.0000  0.0000  0.0000  0.0000  0.0000
                                         0.0000  0.0000  0.0000  0.0000  0.0000
                                         0.0000  0.0000  0.0000  0.0000  0.0000
                                         0.0000  0.0000  0.0000  0.0000  0.0000
                                         0.0000  0.0000  0.0000  0.0000  0.0000
                                         0.0000  0.0000  0.0000  0.0000  0.0000
                                         0.0000
  10. (1.99999) CR ( 1) N 10            s(100.00%)
                                         1.0000  0.0000  0.0000  0.0000  0.0000
                                         0.0000  0.0000  0.0000  0.0000  0.0000
                                         0.0000  0.0000  0.0000  0.0000  0.0000
                                         0.0000  0.0000  0.0000  0.0000  0.0000
                                         0.0000  0.0000  0.0000  0.0000  0.0000
                                         0.0000  0.0000  0.0000  0.0000  0.0000
                                         0.0000
  11. (1.99999) CR ( 1) C 11            s(100.00%)
                                         1.0000  0.0000  0.0000  0.0000  0.0000
                                         0.0000  0.0000  0.0000  0.0000  0.0000
                                         0.0000  0.0000  0.0000  0.0000  0.0000
                                         0.0000  0.0000  0.0000  0.0000  0.0000
                                         0.0000  0.0000  0.0000  0.0000  0.0000
                                         0.0000  0.0000  0.0000  0.0000  0.0000
                                         0.0000
  12. (2.00000) CR ( 1) O 12            s(100.00%)
                                         1.0000  0.0000  0.0000  0.0000  0.0000
                                         0.0000  0.0000  0.0000  0.0000  0.0000
                                         0.0000  0.0000  0.0000  0.0000  0.0000
                                         0.0000  0.0000  0.0000  0.0000  0.0000
                                         0.0000  0.0000  0.0000  0.0000  0.0000
                                         0.0000  0.0000  0.0000  0.0000  0.0000
                                         0.0000
  13. (1.99999) CR ( 1) C 13            s(100.00%)
                                         1.0000  0.0000  0.0000  0.0000  0.0000
                                         0.0000  0.0000  0.0000  0.0000  0.0000
                                         0.0000  0.0000  0.0000  0.0000  0.0000
                                         0.0000  0.0000  0.0000  0.0000  0.0000
                                         0.0000  0.0000  0.0000  0.0000  0.0000
                                         0.0000  0.0000  0.0000  0.0000  0.0000
                                         0.0000
  14. (1.99999) CR ( 1) C 14            s(100.00%)
                                         1.0000  0.0000  0.0000  0.0000  0.0000
                                         0.0000  0.0000  0.0000  0.0000  0.0000
                                         0.0000  0.0000  0.0000  0.0000  0.0000
                                         0.0000  0.0000  0.0000  0.0000  0.0000
                                         0.0000  0.0000  0.0000  0.0000  0.0000
                                         0.0000  0.0000  0.0000  0.0000  0.0000
                                         0.0000
  15. (1.97780) LP ( 1) O  1            s( 59.38%)p 0.68( 40.54%)d 0.00(  0.08%)
                                                  f 0.00(  0.00%)
                                         0.0000  0.7706 -0.0005  0.0005 -0.0002
                                         0.0020 -0.0005 -0.0004  0.6367 -0.0027
                                        -0.0048  0.0000  0.0000  0.0000 -0.0005
                                         0.0000  0.0000  0.0000  0.0000  0.0000
                                         0.0239  0.0003  0.0155  0.0001  0.0000
                                         0.0000 -0.0017  0.0000  0.0000 -0.0002
                                        -0.0029
  16. (1.85502) LP ( 2) O  1            s(  0.02%)p99.99( 99.76%)d12.20(  0.21%)
                                                  f 0.63(  0.01%)
                                         0.0000  0.0126 -0.0035  0.0002  0.0001
                                        -0.9987 -0.0099  0.0008 -0.0121 -0.0022
                                         0.0003 -0.0001  0.0000  0.0000  0.0458
                                        -0.0004  0.0000  0.0000  0.0000  0.0000
                                         0.0011 -0.0002 -0.0010  0.0002  0.0000
                                         0.0015  0.0000  0.0000  0.0000  0.0103
                                         0.0001
  17. (1.58249) LP ( 3) O  1            s(  0.00%)p 1.00( 99.66%)d 0.00(  0.32%)
                                                  f 0.00(  0.01%)
                                         0.0000  0.0000  0.0000  0.0000  0.0000
                                        -0.0001  0.0000  0.0000  0.0000  0.0000
                                         0.0000  0.9983  0.0061 -0.0001  0.0000
                                         0.0000 -0.0040  0.0006 -0.0567 -0.0001
                                         0.0000  0.0000  0.0000  0.0000 -0.0057
                                         0.0000  0.0000 -0.0095  0.0001  0.0000
                                         0.0000
  18. (1.88743) LP ( 1) N  4            s( 24.80%)p 3.02( 75.02%)d 0.01(  0.18%)
                                                  f 0.00(  0.00%)
                                         0.0000  0.4972 -0.0284 -0.0021  0.0000
                                         0.1273  0.0051  0.0002  0.8562  0.0281
                                         0.0053  0.0000  0.0000  0.0000 -0.0081
                                         0.0004  0.0000  0.0000  0.0000  0.0000
                                         0.0343 -0.0028  0.0237 -0.0008  0.0000
                                        -0.0008 -0.0044  0.0000  0.0000  0.0023
                                         0.0045
  19. (1.91662) LP ( 1) N 10            s( 28.92%)p 2.45( 70.87%)d 0.01(  0.21%)
                                                  f 0.00(  0.00%)
                                         0.0000  0.5376 -0.0137 -0.0018  0.0000
                                         0.6451  0.0259 -0.0045 -0.5398 -0.0215
                                         0.0032  0.0000  0.0000  0.0000  0.0357
                                        -0.0019  0.0000  0.0000  0.0000  0.0000
                                        -0.0066  0.0003  0.0283 -0.0010  0.0000
                                        -0.0033  0.0028  0.0000  0.0000  0.0011
                                         0.0016
  20. (1.96647) LP ( 1) O 12            s( 41.24%)p 1.42( 58.67%)d 0.00(  0.09%)
                                                  f 0.00(  0.00%)
                                         0.0000  0.6422 -0.0024 -0.0033  0.0001
                                        -0.0407 -0.0039  0.0000 -0.7648 -0.0078
                                         0.0051  0.0000  0.0000  0.0000 -0.0041
                                         0.0005  0.0000  0.0000  0.0000  0.0000
                                         0.0267 -0.0017  0.0125  0.0002  0.0000
                                         0.0001  0.0027  0.0000  0.0000 -0.0002
                                        -0.0008
  21. (1.84555) LP ( 2) O 12            s(  0.00%)p 1.00( 99.87%)d 0.00(  0.13%)
                                                  f 0.00(  0.01%)
                                         0.0000  0.0000  0.0000  0.0000  0.0000
                                         0.0000  0.0000  0.0000  0.0000  0.0000
                                         0.0000  0.9993  0.0086 -0.0051  0.0000
                                         0.0000  0.0069 -0.0005  0.0348 -0.0013
                                         0.0000  0.0000  0.0000  0.0000 -0.0077
                                         0.0000  0.0000  0.0041  0.0000  0.0000
                                         0.0000
  22. (1.99695) BD ( 1) O  1- C  2
               ( 64.44%)   0.8028* O  1 s( 40.50%)p 1.45( 58.89%)d 0.01(  0.59%)
                                                  f 0.00(  0.01%)
                                         0.0000  0.6364  0.0016 -0.0012  0.0004
                                         0.0172 -0.0002  0.0000 -0.7668  0.0251
                                        -0.0075  0.0000  0.0000  0.0000 -0.0003
                                         0.0001  0.0000  0.0000  0.0000  0.0000
                                        -0.0669 -0.0004 -0.0381  0.0002  0.0000
                                         0.0000  0.0063  0.0000  0.0000 -0.0002
                                         0.0091
               ( 35.56%)   0.5963* C  2 s( 34.83%)p 1.87( 65.07%)d 0.00(  0.08%)
                                                  f 0.00(  0.03%)
                                         0.0000  0.5890 -0.0367  0.0056 -0.0007
                                         0.0082 -0.0107  0.0011  0.8046 -0.0549
                                        -0.0035  0.0000  0.0000  0.0000 -0.0014
                                         0.0004  0.0000  0.0000  0.0000  0.0000
                                        -0.0152 -0.0193 -0.0084 -0.0095  0.0000
                                         0.0012 -0.0100  0.0000  0.0000  0.0002
                                        -0.0127
  23. (1.98181) BD ( 1) C  2- C  3
               ( 50.37%)   0.7097* C  2 s( 39.70%)p 1.52( 60.18%)d 0.00(  0.08%)
                                                  f 0.00(  0.04%)
                                         0.0000  0.6294  0.0295 -0.0063 -0.0002
                                         0.6205  0.0064  0.0031 -0.4656  0.0028
                                        -0.0077  0.0000  0.0000  0.0000 -0.0257
                                         0.0032  0.0000  0.0000  0.0000  0.0000
                                         0.0019  0.0012 -0.0032 -0.0093  0.0000
                                        -0.0095  0.0092  0.0000  0.0000 -0.0068
                                        -0.0118
               ( 49.63%)   0.7045* C  3 s( 33.20%)p 2.01( 66.62%)d 0.00(  0.14%)
                                                  f 0.00(  0.04%)
                                         0.0000  0.5760 -0.0122 -0.0091 -0.0002
                                        -0.6221  0.0163  0.0024  0.5281 -0.0046
                                         0.0006  0.0000  0.0000  0.0000 -0.0332
                                         0.0047  0.0000  0.0000  0.0000  0.0000
                                         0.0005  0.0006 -0.0171 -0.0007  0.0000
                                         0.0103 -0.0091  0.0000  0.0000  0.0005
                                         0.0133
  24. (1.60546) BD ( 2) C  2- C  3
               ( 28.99%)   0.5384* C  2 s(  0.00%)p 1.00( 99.85%)d 0.00(  0.13%)
                                                  f 0.00(  0.02%)
                                         0.0000  0.0000  0.0000  0.0000  0.0000
                                         0.0000  0.0000  0.0000  0.0000  0.0000
                                         0.0000  0.9976  0.0539 -0.0200  0.0000
                                         0.0000  0.0257 -0.0102 -0.0205  0.0082
                                         0.0000  0.0000  0.0000  0.0000 -0.0145
                                         0.0000  0.0000 -0.0046 -0.0005  0.0000
                                         0.0000
               ( 71.01%)   0.8427* C  3 s(  0.00%)p 1.00( 99.93%)d 0.00(  0.03%)
                                                  f 0.00(  0.04%)
                                         0.0000  0.0000  0.0000  0.0000  0.0000
                                         0.0000  0.0000  0.0000  0.0000  0.0000
                                         0.0000  0.9983  0.0504 -0.0113  0.0000
                                         0.0000 -0.0055  0.0055  0.0155 -0.0014
                                         0.0000  0.0000  0.0000  0.0000 -0.0194
                                         0.0000  0.0000  0.0028  0.0009  0.0000
                                         0.0000
  25. (1.98945) BD ( 1) C  2- O 12
               ( 31.89%)   0.5647* C  2 s( 25.58%)p 2.91( 74.34%)d 0.00(  0.07%)
                                                  f 0.00(  0.01%)
                                         0.0000  0.5056 -0.0054  0.0069  0.0007
                                        -0.7828  0.0111 -0.0055 -0.3605  0.0237
                                        -0.0056  0.0000  0.0000  0.0000  0.0185
                                         0.0106  0.0000  0.0000  0.0000  0.0000
                                         0.0112  0.0056 -0.0114 -0.0017  0.0000
                                         0.0065  0.0014  0.0000  0.0000  0.0012
                                        -0.0028
               ( 68.11%)   0.8253* O 12 s( 29.00%)p 2.44( 70.72%)d 0.01(  0.27%)
                                                  f 0.00(  0.01%)
                                         0.0000  0.5385  0.0013  0.0019 -0.0001
                                         0.7325 -0.0154  0.0043  0.4128  0.0011
                                         0.0061  0.0000  0.0000  0.0000  0.0431
                                         0.0018  0.0000  0.0000  0.0000  0.0000
                                         0.0049  0.0004 -0.0285  0.0009  0.0000
                                        -0.0059 -0.0035  0.0000  0.0000  0.0031
                                         0.0052
  26. (1.98594) BD ( 1) C  3- N  4
               ( 40.48%)   0.6363* C  3 s( 35.10%)p 1.85( 64.81%)d 0.00(  0.06%)
                                                  f 0.00(  0.03%)
                                         0.0000  0.5904  0.0487  0.0016 -0.0003
                                         0.7610 -0.0566 -0.0090  0.2550 -0.0238
                                        -0.0038  0.0000  0.0000  0.0000  0.0084
                                         0.0108  0.0000  0.0000  0.0000  0.0000
                                         0.0077  0.0106 -0.0151 -0.0046  0.0000
                                        -0.0122 -0.0037  0.0000  0.0000  0.0094
                                         0.0089
               ( 59.52%)   0.7715* N  4 s( 37.12%)p 1.68( 62.45%)d 0.01(  0.40%)
                                                  f 0.00(  0.03%)
                                         0.0000  0.6087  0.0255  0.0018 -0.0001
                                        -0.7526  0.0174  0.0038 -0.2401 -0.0082
                                         0.0056  0.0000  0.0000  0.0000  0.0431
                                         0.0016  0.0000  0.0000  0.0000  0.0000
                                         0.0266  0.0014 -0.0374  0.0026  0.0000
                                         0.0106  0.0038  0.0000  0.0000 -0.0129
                                        -0.0069
  27. (1.98555) BD ( 1) C  3- H 15
               ( 58.81%)   0.7669* C  3 s( 31.80%)p 2.14( 68.09%)d 0.00(  0.08%)
                                                  f 0.00(  0.04%)
                                         0.0000  0.5634 -0.0215  0.0069  0.0002
                                        -0.1641  0.0107 -0.0063 -0.8082  0.0137
                                        -0.0188  0.0000  0.0000  0.0000  0.0105
                                         0.0002  0.0000  0.0000  0.0000  0.0000
                                        -0.0192 -0.0032 -0.0175  0.0022  0.0000
                                         0.0040  0.0155  0.0000  0.0000  0.0072
                                         0.0071
               ( 41.19%)   0.6418* H 15 s( 99.97%)p 0.00(  0.03%)d 0.00(  0.01%)
                                         0.9998 -0.0080  0.0007  0.0043  0.0018
                                         0.0139  0.0086  0.0000  0.0000  0.0028
                                         0.0000  0.0000 -0.0060 -0.0030
  28. (1.98806) BD ( 1) N  4- C  5
               ( 59.21%)   0.7695* N  4 s( 37.96%)p 1.62( 61.60%)d 0.01(  0.40%)
                                                  f 0.00(  0.03%)
                                         0.0000  0.6160  0.0137  0.0007  0.0000
                                         0.6414 -0.0148 -0.0018 -0.4521  0.0065
                                         0.0054  0.0000  0.0000  0.0000 -0.0509
                                        -0.0023  0.0000  0.0000  0.0000  0.0000
                                        -0.0013  0.0002 -0.0376  0.0024  0.0000
                                        -0.0089  0.0066  0.0000  0.0000  0.0025
                                        -0.0143
               ( 40.79%)   0.6387* C  5 s( 35.16%)p 1.84( 64.75%)d 0.00(  0.06%)
                                                  f 0.00(  0.03%)
                                         0.0000  0.5915  0.0412  0.0001 -0.0007
                                        -0.6539  0.0411  0.0071  0.4662 -0.0297
                                        -0.0039  0.0000  0.0000  0.0000 -0.0136
                                        -0.0143  0.0000  0.0000  0.0000  0.0000
                                         0.0026  0.0022 -0.0138 -0.0034  0.0000
                                         0.0107 -0.0070  0.0000  0.0000  0.0014
                                         0.0131
  29. (1.86520) BD ( 2) N  4- C  5
               ( 49.12%)   0.7009* N  4 s(  0.00%)p 1.00( 99.70%)d 0.00(  0.27%)
                                                  f 0.00(  0.03%)
                                         0.0000  0.0000  0.0000  0.0000  0.0000
                                         0.0000  0.0000  0.0000  0.0000  0.0000
                                         0.0000  0.9984 -0.0154  0.0013  0.0000
                                         0.0000  0.0070  0.0067 -0.0510 -0.0020
                                         0.0000  0.0000  0.0000  0.0000 -0.0126
                                         0.0000  0.0000  0.0096 -0.0043  0.0000
                                         0.0000
               ( 50.88%)   0.7133* C  5 s(  0.00%)p 1.00( 99.92%)d 0.00(  0.04%)
                                                  f 0.00(  0.03%)
                                         0.0000  0.0000  0.0000  0.0000  0.0000
                                         0.0000  0.0000  0.0000  0.0000  0.0000
                                         0.0000  0.9992  0.0278 -0.0126  0.0000
                                         0.0000 -0.0123 -0.0012  0.0163 -0.0017
                                         0.0000  0.0000  0.0000  0.0000 -0.0184
                                         0.0000  0.0000  0.0024 -0.0005  0.0000
                                         0.0000
  30. (1.98012) BD ( 1) C  5- C  6
               ( 47.92%)   0.6922* C  5 s( 35.15%)p 1.84( 64.73%)d 0.00(  0.08%)
                                                  f 0.00(  0.04%)
                                         0.0000  0.5928  0.0009 -0.0062  0.0002
                                         0.7474 -0.0176  0.0024  0.2974  0.0007
                                         0.0007  0.0000  0.0000  0.0000  0.0189
                                        -0.0039  0.0000  0.0000  0.0000  0.0000
                                         0.0140 -0.0015 -0.0158  0.0030  0.0000
                                        -0.0124 -0.0054  0.0000  0.0000  0.0095
                                         0.0094
               ( 52.08%)   0.7217* C  6 s( 34.35%)p 1.91( 65.54%)d 0.00(  0.06%)
                                                  f 0.00(  0.06%)
                                         0.0000  0.5860  0.0022  0.0004  0.0002
                                        -0.7484 -0.0028 -0.0068 -0.3086  0.0059
                                        -0.0015  0.0000  0.0000  0.0000  0.0144
                                         0.0015  0.0000  0.0000  0.0000  0.0000
                                         0.0156  0.0002 -0.0115 -0.0012  0.0000
                                         0.0164  0.0067  0.0000  0.0000 -0.0067
                                        -0.0143
  31. (1.98504) BD ( 1) C  5- H 16
               ( 58.43%)   0.7644* C  5 s( 29.78%)p 2.35( 70.11%)d 0.00(  0.08%)
                                                  f 0.00(  0.03%)
                                         0.0000  0.5447 -0.0316  0.0055  0.0003
                                        -0.1015 -0.0043  0.0012 -0.8309 -0.0001
                                        -0.0203  0.0000  0.0000  0.0000  0.0016
                                         0.0031  0.0000  0.0000  0.0000  0.0000
                                        -0.0221  0.0008 -0.0163  0.0062  0.0000
                                         0.0013  0.0157  0.0000  0.0000  0.0010
                                         0.0099
               ( 41.57%)   0.6448* H 16 s( 99.96%)p 0.00(  0.03%)d 0.00(  0.00%)
                                         0.9998 -0.0100  0.0008  0.0024 -0.0012
                                         0.0157  0.0076  0.0000  0.0000  0.0012
                                         0.0000  0.0000 -0.0061 -0.0025
  32. (1.97688) BD ( 1) C  6- C  7
               ( 50.89%)   0.7134* C  6 s( 33.28%)p 2.00( 66.61%)d 0.00(  0.07%)
                                                  f 0.00(  0.05%)
                                         0.0000  0.5769  0.0027  0.0003 -0.0002
                                         0.1188  0.0127  0.0026  0.8072 -0.0125
                                         0.0000  0.0000  0.0000  0.0000  0.0093
                                        -0.0008  0.0000  0.0000  0.0000  0.0000
                                        -0.0172 -0.0040 -0.0159  0.0013  0.0000
                                        -0.0042 -0.0173  0.0000  0.0000 -0.0067
                                        -0.0117
               ( 49.11%)   0.7008* C  7 s( 34.44%)p 1.90( 65.38%)d 0.00(  0.13%)
                                                  f 0.00(  0.05%)
                                         0.0000  0.5868 -0.0017 -0.0019  0.0003
                                        -0.1642  0.0187  0.0012 -0.7914  0.0124
                                        -0.0028  0.0000  0.0000  0.0000  0.0044
                                         0.0033  0.0000  0.0000  0.0000  0.0000
                                        -0.0278 -0.0033 -0.0230  0.0004  0.0000
                                         0.0017  0.0164  0.0000  0.0000  0.0113
                                         0.0092
  33. (1.98469) BD ( 1) C  6- C 11
               ( 51.24%)   0.7158* C  6 s( 32.24%)p 2.10( 67.63%)d 0.00(  0.08%)
                                                  f 0.00(  0.05%)
                                         0.0000  0.5678 -0.0021  0.0001 -0.0002
                                         0.6515  0.0086  0.0027 -0.5015  0.0150
                                         0.0018  0.0000  0.0000  0.0000 -0.0218
                                        -0.0016  0.0000  0.0000  0.0000  0.0000
                                         0.0080  0.0003 -0.0164  0.0018  0.0000
                                        -0.0150  0.0099  0.0000  0.0000 -0.0040
                                        -0.0120
               ( 48.76%)   0.6983* C 11 s( 37.66%)p 1.65( 62.20%)d 0.00(  0.09%)
                                                  f 0.00(  0.04%)
                                         0.0000  0.6136 -0.0079 -0.0034  0.0004
                                        -0.6383  0.0276 -0.0062  0.4624  0.0044
                                         0.0020  0.0000  0.0000  0.0000 -0.0247
                                         0.0011  0.0000  0.0000  0.0000  0.0000
                                         0.0057  0.0006 -0.0164  0.0020  0.0000
                                         0.0116 -0.0089  0.0000  0.0000  0.0002
                                         0.0148
  34. (1.57683) BD ( 2) C  6- C 11
               ( 50.48%)   0.7105* C  6 s(  0.00%)p 1.00( 99.94%)d 0.00(  0.03%)
                                                  f 0.00(  0.04%)
                                         0.0000  0.0000  0.0000  0.0000  0.0000
                                         0.0000  0.0000  0.0000  0.0000  0.0000
                                         0.0000  0.9996  0.0134 -0.0085  0.0000
                                         0.0000  0.0157  0.0000 -0.0015 -0.0017
                                         0.0000  0.0000  0.0000  0.0000 -0.0196
                                         0.0000  0.0000  0.0010  0.0032  0.0000
                                         0.0000
               ( 49.52%)   0.7037* C 11 s(  0.00%)p 1.00( 99.94%)d 0.00(  0.03%)
                                                  f 0.00(  0.03%)
                                         0.0000  0.0000  0.0000  0.0000  0.0000
                                         0.0000  0.0000  0.0000  0.0000  0.0000
                                         0.0000  0.9993  0.0262 -0.0126  0.0000
                                         0.0000 -0.0032 -0.0011  0.0176 -0.0030
                                         0.0000  0.0000  0.0000  0.0000 -0.0168
                                         0.0000  0.0000  0.0036 -0.0006  0.0000
                                         0.0000
  35. (1.98452) BD ( 1) C  7- C  8
               ( 49.87%)   0.7062* C  7 s( 36.36%)p 1.75( 63.46%)d 0.00(  0.14%)
                                                  f 0.00(  0.05%)
                                         0.0000  0.6027  0.0152 -0.0053 -0.0001
                                         0.7401 -0.0084  0.0017  0.2926 -0.0323
                                        -0.0042  0.0000  0.0000  0.0000  0.0111
                                         0.0050  0.0000  0.0000  0.0000  0.0000
                                         0.0259  0.0015 -0.0229  0.0011  0.0000
                                        -0.0162 -0.0048  0.0000  0.0000  0.0044
                                         0.0143
               ( 50.13%)   0.7081* C  8 s( 36.55%)p 1.73( 63.27%)d 0.00(  0.12%)
                                                  f 0.00(  0.05%)
                                         0.0000  0.6045  0.0097 -0.0008  0.0000
                                        -0.7596  0.0332 -0.0030 -0.2333 -0.0159
                                        -0.0047  0.0000  0.0000  0.0000  0.0207
                                        -0.0003  0.0000  0.0000  0.0000  0.0000
                                         0.0165  0.0041 -0.0227  0.0014  0.0000
                                         0.0153  0.0066  0.0000  0.0000 -0.0104
                                        -0.0105
  36. (1.69403) BD ( 2) C  7- C  8
               ( 48.65%)   0.6975* C  7 s(  0.00%)p 1.00( 99.91%)d 0.00(  0.06%)
                                                  f 0.00(  0.03%)
                                         0.0000  0.0000  0.0000  0.0000  0.0000
                                         0.0000  0.0000  0.0000  0.0000  0.0000
                                         0.0000  0.9994  0.0141 -0.0114  0.0000
                                         0.0000  0.0216  0.0028 -0.0091  0.0041
                                         0.0000  0.0000  0.0000  0.0000 -0.0176
                                         0.0000  0.0000 -0.0013  0.0014  0.0000
                                         0.0000
               ( 51.35%)   0.7166* C  8 s(  0.00%)p 1.00( 99.92%)d 0.00(  0.04%)
                                                  f 0.00(  0.04%)
                                         0.0000  0.0000  0.0000  0.0000  0.0000
                                         0.0000  0.0000  0.0000  0.0000  0.0000
                                         0.0000  0.9993  0.0215 -0.0112  0.0000
                                         0.0000 -0.0096 -0.0040 -0.0178  0.0015
                                         0.0000  0.0000  0.0000  0.0000 -0.0187
                                         0.0000  0.0000  0.0022 -0.0013  0.0000
                                         0.0000
  37. (1.98033) BD ( 1) C  7- H 17
               ( 61.80%)   0.7861* C  7 s( 29.06%)p 2.44( 70.83%)d 0.00(  0.06%)
                                                  f 0.00(  0.04%)
                                         0.0000  0.5390 -0.0102  0.0066 -0.0002
                                        -0.6499 -0.0108 -0.0095  0.5344  0.0087
                                         0.0027  0.0000  0.0000  0.0000 -0.0194
                                        -0.0064  0.0000  0.0000  0.0000  0.0000
                                         0.0052  0.0012 -0.0132 -0.0011  0.0000
                                         0.0133 -0.0110  0.0000  0.0000  0.0047
                                         0.0108
               ( 38.20%)   0.6180* H 17 s( 99.96%)p 0.00(  0.03%)d 0.00(  0.01%)
                                         0.9998 -0.0030 -0.0007 -0.0133  0.0063
                                         0.0107  0.0015  0.0000  0.0000 -0.0072
                                         0.0000  0.0000  0.0014 -0.0022
  38. (1.98884) BD ( 1) C  8- C  9
               ( 50.59%)   0.7113* C  8 s( 34.82%)p 1.87( 64.98%)d 0.00(  0.15%)
                                                  f 0.00(  0.05%)
                                         0.0000  0.5901  0.0037 -0.0027  0.0000
                                         0.6245 -0.0324 -0.0018 -0.5086 -0.0057
                                        -0.0041  0.0000  0.0000  0.0000 -0.0312
                                        -0.0006  0.0000  0.0000  0.0000  0.0000
                                        -0.0034  0.0029 -0.0221  0.0015  0.0000
                                        -0.0122  0.0119  0.0000  0.0000 -0.0038
                                        -0.0142
               ( 49.41%)   0.7029* C  9 s( 37.74%)p 1.65( 62.13%)d 0.00(  0.09%)
                                                  f 0.00(  0.04%)
                                         0.0000  0.6143 -0.0002 -0.0019  0.0003
                                        -0.5803  0.0004 -0.0046  0.5321 -0.0384
                                         0.0018  0.0000  0.0000  0.0000 -0.0236
                                         0.0002  0.0000  0.0000  0.0000  0.0000
                                         0.0074 -0.0030 -0.0171  0.0029  0.0000
                                         0.0114 -0.0092  0.0000  0.0000  0.0099
                                         0.0095
  39. (1.98031) BD ( 1) C  8- H 18
               ( 61.04%)   0.7813* C  8 s( 28.48%)p 2.51( 71.41%)d 0.00(  0.07%)
                                                  f 0.00(  0.04%)
                                         0.0000  0.5335 -0.0105  0.0033 -0.0001
                                         0.1701  0.0034  0.0008  0.8275  0.0161
                                         0.0069  0.0000  0.0000  0.0000  0.0085
                                         0.0014  0.0000  0.0000  0.0000  0.0000
                                        -0.0212 -0.0030 -0.0123 -0.0005  0.0000
                                        -0.0037 -0.0175  0.0000  0.0000 -0.0071
                                        -0.0090
               ( 38.96%)   0.6242* H 18 s( 99.96%)p 0.00(  0.03%)d 0.00(  0.01%)
                                         0.9998 -0.0014 -0.0007  0.0036  0.0002
                                         0.0168  0.0015  0.0000  0.0000  0.0029
                                         0.0000  0.0000 -0.0062 -0.0030
  40. (1.98744) BD ( 1) C  9- N 10
               ( 41.17%)   0.6416* C  9 s( 33.28%)p 2.00( 66.61%)d 0.00(  0.07%)
                                                  f 0.00(  0.03%)
                                         0.0000  0.5761  0.0307  0.0007 -0.0007
                                        -0.1301 -0.0306 -0.0065 -0.8033  0.0539
                                         0.0028  0.0000  0.0000  0.0000  0.0099
                                        -0.0009  0.0000  0.0000  0.0000  0.0000
                                        -0.0134 -0.0139 -0.0165 -0.0005  0.0000
                                         0.0029  0.0134  0.0000  0.0000  0.0040
                                         0.0116
               ( 58.83%)   0.7670* N 10 s( 35.23%)p 1.82( 64.29%)d 0.01(  0.46%)
                                                  f 0.00(  0.03%)
                                         0.0000  0.5934  0.0112  0.0012  0.0000
                                         0.1637 -0.0276 -0.0066  0.7841 -0.0189
                                         0.0067  0.0000  0.0000  0.0000 -0.0043
                                         0.0012  0.0000  0.0000  0.0000  0.0000
                                        -0.0540 -0.0026 -0.0407  0.0021  0.0000
                                        -0.0013 -0.0106  0.0000  0.0000 -0.0101
                                        -0.0063
  41. (1.74451) BD ( 2) C  9- N 10
               ( 43.01%)   0.6558* C  9 s(  0.00%)p 1.00( 99.91%)d 0.00(  0.06%)
                                                  f 0.00(  0.03%)
                                         0.0000  0.0000  0.0000  0.0000  0.0000
                                         0.0000  0.0000  0.0000  0.0000  0.0000
                                         0.0000  0.9994  0.0175 -0.0093  0.0000
                                         0.0000 -0.0134  0.0034 -0.0192 -0.0024
                                         0.0000  0.0000  0.0000  0.0000 -0.0169
                                         0.0000  0.0000 -0.0026 -0.0033  0.0000
                                         0.0000
               ( 56.99%)   0.7549* N 10 s(  0.00%)p 1.00( 99.68%)d 0.00(  0.30%)
                                                  f 0.00(  0.02%)
                                         0.0000  0.0000  0.0000  0.0000  0.0000
                                         0.0000  0.0000  0.0000  0.0000  0.0000
                                         0.0000  0.9983 -0.0097 -0.0011  0.0000
                                         0.0000 -0.0396  0.0016  0.0377  0.0048
                                         0.0000  0.0000  0.0000  0.0000 -0.0123
                                         0.0000  0.0000 -0.0019  0.0074  0.0000
                                         0.0000
  42. (1.98244) BD ( 1) C  9- H 19
               ( 59.88%)   0.7738* C  9 s( 28.96%)p 2.45( 70.92%)d 0.00(  0.08%)
                                                  f 0.00(  0.03%)
                                         0.0000  0.5377 -0.0214  0.0014  0.0002
                                         0.8023  0.0183  0.0081  0.2550  0.0111
                                         0.0025  0.0000  0.0000  0.0000  0.0172
                                        -0.0032  0.0000  0.0000  0.0000  0.0000
                                         0.0189  0.0004 -0.0117  0.0008  0.0000
                                        -0.0153 -0.0048  0.0000  0.0000  0.0049
                                         0.0082
               ( 40.12%)   0.6334* H 19 s( 99.96%)p 0.00(  0.03%)d 0.00(  0.01%)
                                         0.9998 -0.0022 -0.0011  0.0167  0.0002
                                         0.0063  0.0027  0.0000  0.0000  0.0041
                                         0.0000  0.0000  0.0057 -0.0023
  43. (1.98794) BD ( 1) N 10- C 11
               ( 58.75%)   0.7665* N 10 s( 35.67%)p 1.79( 63.84%)d 0.01(  0.46%)
                                                  f 0.00(  0.02%)
                                         0.0000  0.5972  0.0105  0.0013  0.0000
                                        -0.7420  0.0145 -0.0081 -0.2945  0.0298
                                         0.0054  0.0000  0.0000  0.0000  0.0147
                                         0.0020  0.0000  0.0000  0.0000  0.0000
                                         0.0520  0.0022 -0.0406  0.0020  0.0000
                                         0.0100  0.0030  0.0000  0.0000 -0.0005
                                        -0.0117
               ( 41.25%)   0.6423* C 11 s( 34.12%)p 1.93( 65.77%)d 0.00(  0.07%)
                                                  f 0.00(  0.04%)
                                         0.0000  0.5831  0.0354  0.0003 -0.0006
                                         0.7594 -0.0560 -0.0045  0.2781  0.0204
                                         0.0048  0.0000  0.0000  0.0000  0.0141
                                         0.0042  0.0000  0.0000  0.0000  0.0000
                                         0.0081  0.0145 -0.0155 -0.0011  0.0000
                                        -0.0128 -0.0053  0.0000  0.0000  0.0085
                                         0.0101
  44. (1.98075) BD ( 1) C 11- H 20
               ( 59.61%)   0.7721* C 11 s( 28.21%)p 2.54( 71.68%)d 0.00(  0.08%)
                                                  f 0.00(  0.03%)
                                         0.0000  0.5308 -0.0184  0.0032  0.0001
                                        -0.0992 -0.0098 -0.0029 -0.8405 -0.0190
                                        -0.0079  0.0000  0.0000  0.0000  0.0089
                                        -0.0028  0.0000  0.0000  0.0000  0.0000
                                        -0.0222 -0.0017 -0.0142  0.0030  0.0000
                                         0.0018  0.0158  0.0000  0.0000  0.0042
                                         0.0079
               ( 40.39%)   0.6355* H 20 s( 99.96%)p 0.00(  0.03%)d 0.00(  0.01%)
                                         0.9998 -0.0031 -0.0009 -0.0031 -0.0028
                                        -0.0177  0.0004  0.0000  0.0000  0.0018
                                         0.0000  0.0000 -0.0067 -0.0020
  45. (1.99204) BD ( 1) O 12- C 13
               ( 66.51%)   0.8155* O 12 s( 29.66%)p 2.36( 70.05%)d 0.01(  0.28%)
                                                  f 0.00(  0.01%)
                                         0.0000  0.5446  0.0072  0.0029  0.0000
                                        -0.6764  0.0171 -0.0036  0.4926  0.0024
                                         0.0076  0.0000  0.0000  0.0000 -0.0423
                                        -0.0020  0.0000  0.0000  0.0000  0.0000
                                        -0.0047  0.0003 -0.0308  0.0012  0.0000
                                         0.0061 -0.0045  0.0000  0.0000 -0.0010
                                         0.0067
               ( 33.49%)   0.5787* C 13 s( 22.86%)p 3.37( 77.06%)d 0.00(  0.07%)
                                                  f 0.00(  0.00%)
                                         0.0000  0.4765  0.0394  0.0028 -0.0004
                                         0.7315 -0.0263  0.0028 -0.4837  0.0301
                                         0.0017  0.0000  0.0000  0.0000 -0.0099
                                        -0.0172  0.0000  0.0000  0.0000  0.0000
                                         0.0093  0.0009 -0.0141 -0.0047  0.0000
                                        -0.0012  0.0053  0.0000  0.0000  0.0011
                                        -0.0021
  46. (1.99232) BD ( 1) C 13- C 14
               ( 49.94%)   0.7067* C 13 s( 29.37%)p 2.40( 70.54%)d 0.00(  0.08%)
                                                  f 0.00(  0.02%)
                                         0.0000  0.5411  0.0295 -0.0025 -0.0002
                                        -0.6798  0.0053  0.0007 -0.4931 -0.0027
                                         0.0041  0.0002  0.0000  0.0000  0.0250
                                        -0.0016  0.0000  0.0000  0.0000  0.0000
                                         0.0019  0.0007 -0.0124 -0.0009  0.0000
                                         0.0038  0.0089  0.0000  0.0000  0.0011
                                        -0.0080
               ( 50.06%)   0.7075* C 14 s( 28.66%)p 2.48( 71.16%)d 0.01(  0.16%)
                                                  f 0.00(  0.03%)
                                         0.0000  0.5350  0.0205  0.0008 -0.0001
                                         0.6697 -0.0109  0.0043  0.5127 -0.0080
                                        -0.0002 -0.0002  0.0000  0.0000  0.0324
                                        -0.0003  0.0000  0.0000  0.0000  0.0000
                                         0.0107 -0.0003 -0.0196  0.0000  0.0000
                                        -0.0045 -0.0096  0.0000  0.0000 -0.0022
                                         0.0121
  47. (1.98685) BD ( 1) C 13- H 21
               ( 59.20%)   0.7694* C 13 s( 24.02%)p 3.16( 75.84%)d 0.01(  0.13%)
                                                  f 0.00(  0.01%)
                                         0.0000  0.4894 -0.0248  0.0003  0.0002
                                         0.0192  0.0014  0.0009  0.5086  0.0012
                                         0.0021 -0.7065 -0.0153  0.0012 -0.0009
                                         0.0010  0.0021 -0.0028 -0.0292  0.0018
                                        -0.0081 -0.0009  0.0187 -0.0024  0.0012
                                        -0.0001  0.0101  0.0026  0.0004  0.0006
                                        -0.0062
               ( 40.80%)   0.6387* H 21 s( 99.95%)p 0.00(  0.04%)d 0.00(  0.01%)
                                         0.9997 -0.0051  0.0000  0.0004 -0.0030
                                         0.0126  0.0006 -0.0148  0.0033 -0.0008
                                         0.0001 -0.0091 -0.0037  0.0046
  48. (1.98685) BD ( 1) C 13- H 22
               ( 59.20%)   0.7694* C 13 s( 24.02%)p 3.16( 75.84%)d 0.01(  0.13%)
                                                  f 0.00(  0.01%)
                                         0.0000  0.4895 -0.0248  0.0003  0.0002
                                         0.0193  0.0014  0.0009  0.5090  0.0012
                                         0.0021  0.7062  0.0153 -0.0012 -0.0009
                                         0.0011 -0.0021  0.0028  0.0292 -0.0018
                                        -0.0081 -0.0009  0.0187 -0.0024 -0.0012
                                        -0.0001  0.0101 -0.0026 -0.0004  0.0006
                                        -0.0062
               ( 40.80%)   0.6387* H 22 s( 99.95%)p 0.00(  0.04%)d 0.00(  0.01%)
                                         0.9997 -0.0051  0.0000  0.0004 -0.0030
                                         0.0126  0.0006  0.0148 -0.0033 -0.0008
                                        -0.0001  0.0091 -0.0037  0.0046
  49. (1.99034) BD ( 1) C 14- H 23
               ( 60.41%)   0.7773* C 14 s( 23.81%)p 3.19( 76.03%)d 0.01(  0.14%)
                                                  f 0.00(  0.02%)
                                         0.0000  0.4879 -0.0072  0.0001  0.0001
                                         0.0023  0.0063  0.0025 -0.5113  0.0007
                                         0.0013 -0.7062 -0.0046 -0.0005 -0.0010
                                        -0.0002 -0.0040  0.0016  0.0301  0.0004
                                        -0.0091 -0.0009  0.0196 -0.0005  0.0004
                                         0.0007 -0.0117  0.0034 -0.0012  0.0005
                                         0.0057
               ( 39.59%)   0.6292* H 23 s( 99.95%)p 0.00(  0.04%)d 0.00(  0.01%)
                                         0.9997 -0.0019 -0.0001  0.0000 -0.0003
                                        -0.0122  0.0006 -0.0169 -0.0003  0.0003
                                         0.0002  0.0087 -0.0033  0.0049
  50. (1.98720) BD ( 1) C 14- H 24
               ( 60.44%)   0.7774* C 14 s( 23.69%)p 3.21( 76.14%)d 0.01(  0.15%)
                                                  f 0.00(  0.02%)
                                         0.0000  0.4867 -0.0043 -0.0009 -0.0003
                                        -0.7409 -0.0011  0.0033  0.4609  0.0082
                                         0.0011 -0.0002  0.0000  0.0000 -0.0320
                                         0.0006  0.0000  0.0000  0.0000  0.0000
                                         0.0077  0.0023 -0.0196  0.0007  0.0000
                                         0.0051 -0.0088  0.0000  0.0000 -0.0010
                                         0.0091
               ( 39.56%)   0.6290* H 24 s( 99.94%)p 0.00(  0.05%)d 0.00(  0.01%)
                                         0.9997 -0.0004 -0.0001 -0.0183  0.0002
                                         0.0123  0.0016  0.0000  0.0000 -0.0082
                                         0.0000  0.0000  0.0045 -0.0055
  51. (1.99034) BD ( 1) C 14- H 25
               ( 60.41%)   0.7773* C 14 s( 23.81%)p 3.19( 76.03%)d 0.01(  0.14%)
                                                  f 0.00(  0.02%)
                                         0.0000  0.4879 -0.0072  0.0001  0.0001
                                         0.0023  0.0063  0.0025 -0.5108  0.0007
                                         0.0013  0.7066  0.0046  0.0005 -0.0010
                                        -0.0002  0.0040 -0.0016 -0.0301 -0.0004
                                        -0.0091 -0.0009  0.0197 -0.0005 -0.0004
                                         0.0007 -0.0117 -0.0034  0.0012  0.0005
                                         0.0057
               ( 39.59%)   0.6292* H 25 s( 99.95%)p 0.00(  0.04%)d 0.00(  0.01%)
                                         0.9997 -0.0019 -0.0001  0.0000 -0.0003
                                        -0.0122  0.0006  0.0170  0.0003  0.0003
                                        -0.0002 -0.0087 -0.0033  0.0049
 ---------------- non-Lewis ----------------------------------------------------
  52. (0.01962) BD*( 1) O  1- C  2
               ( 35.56%)   0.5963* O  1 s( 40.50%)p 1.45( 58.89%)d 0.01(  0.59%)
                                                  f 0.00(  0.01%)
                                         0.0000 -0.6364 -0.0016  0.0012 -0.0004
                                        -0.0172  0.0002  0.0000  0.7668 -0.0251
                                         0.0075  0.0000  0.0000  0.0000  0.0003
                                        -0.0001  0.0000  0.0000  0.0000  0.0000
                                         0.0669  0.0004  0.0381 -0.0002  0.0000
                                         0.0000 -0.0063  0.0000  0.0000  0.0002
                                        -0.0091
               ( 64.44%)  -0.8028* C  2 s( 34.83%)p 1.87( 65.07%)d 0.00(  0.08%)
                                                  f 0.00(  0.03%)
                                         0.0000 -0.5890  0.0367 -0.0056  0.0007
                                        -0.0082  0.0107 -0.0011 -0.8046  0.0549
                                         0.0035  0.0000  0.0000  0.0000  0.0014
                                        -0.0004  0.0000  0.0000  0.0000  0.0000
                                         0.0152  0.0193  0.0084  0.0095  0.0000
                                        -0.0012  0.0100  0.0000  0.0000 -0.0002
                                         0.0127
  53. (0.06041) BD*( 1) C  2- C  3
               ( 49.63%)   0.7045* C  2 s( 39.70%)p 1.52( 60.18%)d 0.00(  0.08%)
                                                  f 0.00(  0.04%)
                                         0.0000  0.6294  0.0295 -0.0063 -0.0002
                                         0.6205  0.0064  0.0031 -0.4656  0.0028
                                        -0.0077  0.0000  0.0000  0.0000 -0.0257
                                         0.0032  0.0000  0.0000  0.0000  0.0000
                                         0.0019  0.0012 -0.0032 -0.0093  0.0000
                                        -0.0095  0.0092  0.0000  0.0000 -0.0068
                                        -0.0118
               ( 50.37%)  -0.7097* C  3 s( 33.20%)p 2.01( 66.62%)d 0.00(  0.14%)
                                                  f 0.00(  0.04%)
                                         0.0000  0.5760 -0.0122 -0.0091 -0.0002
                                        -0.6221  0.0163  0.0024  0.5281 -0.0046
                                         0.0006  0.0000  0.0000  0.0000 -0.0332
                                         0.0047  0.0000  0.0000  0.0000  0.0000
                                         0.0005  0.0006 -0.0171 -0.0007  0.0000
                                         0.0103 -0.0091  0.0000  0.0000  0.0005
                                         0.0133
  54. (0.47821) BD*( 2) C  2- C  3
               ( 71.01%)   0.8427* C  2 s(  0.00%)p 1.00( 99.85%)d 0.00(  0.13%)
                                                  f 0.00(  0.02%)
                                         0.0000  0.0000  0.0000  0.0000  0.0000
                                         0.0000  0.0000  0.0000  0.0000  0.0000
                                         0.0000 -0.9976 -0.0539  0.0200  0.0000
                                         0.0000 -0.0257  0.0102  0.0205 -0.0082
                                         0.0000  0.0000  0.0000  0.0000  0.0145
                                         0.0000  0.0000  0.0046  0.0005  0.0000
                                         0.0000
               ( 28.99%)  -0.5384* C  3 s(  0.00%)p 1.00( 99.93%)d 0.00(  0.03%)
                                                  f 0.00(  0.04%)
                                         0.0000  0.0000  0.0000  0.0000  0.0000
                                         0.0000  0.0000  0.0000  0.0000  0.0000
                                         0.0000 -0.9983 -0.0504  0.0113  0.0000
                                         0.0000  0.0055 -0.0055 -0.0155  0.0014
                                         0.0000  0.0000  0.0000  0.0000  0.0194
                                         0.0000  0.0000 -0.0028 -0.0009  0.0000
                                         0.0000
  55. (0.10763) BD*( 1) C  2- O 12
               ( 68.11%)   0.8253* C  2 s( 25.58%)p 2.91( 74.34%)d 0.00(  0.07%)
                                                  f 0.00(  0.01%)
                                         0.0000  0.5056 -0.0054  0.0069  0.0007
                                        -0.7828  0.0111 -0.0055 -0.3605  0.0237
                                        -0.0056  0.0000  0.0000  0.0000  0.0185
                                         0.0106  0.0000  0.0000  0.0000  0.0000
                                         0.0112  0.0056 -0.0114 -0.0017  0.0000
                                         0.0065  0.0014  0.0000  0.0000  0.0012
                                        -0.0028
               ( 31.89%)  -0.5647* O 12 s( 29.00%)p 2.44( 70.72%)d 0.01(  0.27%)
                                                  f 0.00(  0.01%)
                                         0.0000  0.5385  0.0013  0.0019 -0.0001
                                         0.7325 -0.0154  0.0043  0.4128  0.0011
                                         0.0061  0.0000  0.0000  0.0000  0.0431
                                         0.0018  0.0000  0.0000  0.0000  0.0000
                                         0.0049  0.0004 -0.0285  0.0009  0.0000
                                        -0.0059 -0.0035  0.0000  0.0000  0.0031
                                         0.0052
  56. (0.00970) BD*( 1) C  3- N  4
               ( 59.52%)   0.7715* C  3 s( 35.10%)p 1.85( 64.81%)d 0.00(  0.06%)
                                                  f 0.00(  0.03%)
                                         0.0000  0.5904  0.0487  0.0016 -0.0003
                                         0.7610 -0.0566 -0.0090  0.2550 -0.0238
                                        -0.0038  0.0000  0.0000  0.0000  0.0084
                                         0.0108  0.0000  0.0000  0.0000  0.0000
                                         0.0077  0.0106 -0.0151 -0.0046  0.0000
                                        -0.0122 -0.0037  0.0000  0.0000  0.0094
                                         0.0089
               ( 40.48%)  -0.6363* N  4 s( 37.12%)p 1.68( 62.45%)d 0.01(  0.40%)
                                                  f 0.00(  0.03%)
                                         0.0000  0.6087  0.0255  0.0018 -0.0001
                                        -0.7526  0.0174  0.0038 -0.2401 -0.0082
                                         0.0056  0.0000  0.0000  0.0000  0.0431
                                         0.0016  0.0000  0.0000  0.0000  0.0000
                                         0.0266  0.0014 -0.0374  0.0026  0.0000
                                         0.0106  0.0038  0.0000  0.0000 -0.0129
                                        -0.0069
  57. (0.03809) BD*( 1) C  3- H 15
               ( 41.19%)   0.6418* C  3 s( 31.80%)p 2.14( 68.09%)d 0.00(  0.08%)
                                                  f 0.00(  0.04%)
                                         0.0000 -0.5634  0.0215 -0.0069 -0.0002
                                         0.1641 -0.0107  0.0063  0.8082 -0.0137
                                         0.0188  0.0000  0.0000  0.0000 -0.0105
                                        -0.0002  0.0000  0.0000  0.0000  0.0000
                                         0.0192  0.0032  0.0175 -0.0022  0.0000
                                        -0.0040 -0.0155  0.0000  0.0000 -0.0072
                                        -0.0071
               ( 58.81%)  -0.7669* H 15 s( 99.97%)p 0.00(  0.03%)d 0.00(  0.01%)
                                        -0.9998  0.0080 -0.0007 -0.0043 -0.0018
                                        -0.0139 -0.0086  0.0000  0.0000 -0.0028
                                         0.0000  0.0000  0.0060  0.0030
  58. (0.00919) BD*( 1) N  4- C  5
               ( 40.79%)   0.6387* N  4 s( 37.96%)p 1.62( 61.60%)d 0.01(  0.40%)
                                                  f 0.00(  0.03%)
                                         0.0000 -0.6160 -0.0137 -0.0007  0.0000
                                        -0.6414  0.0148  0.0018  0.4521 -0.0065
                                        -0.0054  0.0000  0.0000  0.0000  0.0509
                                         0.0023  0.0000  0.0000  0.0000  0.0000
                                         0.0013 -0.0002  0.0376 -0.0024  0.0000
                                         0.0089 -0.0066  0.0000  0.0000 -0.0025
                                         0.0143
               ( 59.21%)  -0.7695* C  5 s( 35.16%)p 1.84( 64.75%)d 0.00(  0.06%)
                                                  f 0.00(  0.03%)
                                         0.0000 -0.5915 -0.0412 -0.0001  0.0007
                                         0.6539 -0.0411 -0.0071 -0.4662  0.0297
                                         0.0039  0.0000  0.0000  0.0000  0.0136
                                         0.0143  0.0000  0.0000  0.0000  0.0000
                                        -0.0026 -0.0022  0.0138  0.0034  0.0000
                                        -0.0107  0.0070  0.0000  0.0000 -0.0014
                                        -0.0131
  59. (0.40984) BD*( 2) N  4- C  5
               ( 50.88%)   0.7133* N  4 s(  0.00%)p 1.00( 99.70%)d 0.00(  0.27%)
                                                  f 0.00(  0.03%)
                                         0.0000  0.0000  0.0000  0.0000  0.0000
                                         0.0000  0.0000  0.0000  0.0000  0.0000
                                         0.0000  0.9984 -0.0154  0.0013  0.0000
                                         0.0000  0.0070  0.0067 -0.0510 -0.0020
                                         0.0000  0.0000  0.0000  0.0000 -0.0126
                                         0.0000  0.0000  0.0096 -0.0043  0.0000
                                         0.0000
               ( 49.12%)  -0.7009* C  5 s(  0.00%)p 1.00( 99.92%)d 0.00(  0.04%)
                                                  f 0.00(  0.03%)
                                         0.0000  0.0000  0.0000  0.0000  0.0000
                                         0.0000  0.0000  0.0000  0.0000  0.0000
                                         0.0000  0.9992  0.0278 -0.0126  0.0000
                                         0.0000 -0.0123 -0.0012  0.0163 -0.0017
                                         0.0000  0.0000  0.0000  0.0000 -0.0184
                                         0.0000  0.0000  0.0024 -0.0005  0.0000
                                         0.0000
  60. (0.02382) BD*( 1) C  5- C  6
               ( 52.08%)   0.7217* C  5 s( 35.15%)p 1.84( 64.73%)d 0.00(  0.08%)
                                                  f 0.00(  0.04%)
                                         0.0000  0.5928  0.0009 -0.0062  0.0002
                                         0.7474 -0.0176  0.0024  0.2974  0.0007
                                         0.0007  0.0000  0.0000  0.0000  0.0189
                                        -0.0039  0.0000  0.0000  0.0000  0.0000
                                         0.0140 -0.0015 -0.0158  0.0030  0.0000
                                        -0.0124 -0.0054  0.0000  0.0000  0.0095
                                         0.0094
               ( 47.92%)  -0.6922* C  6 s( 34.35%)p 1.91( 65.54%)d 0.00(  0.06%)
                                                  f 0.00(  0.06%)
                                         0.0000  0.5860  0.0022  0.0004  0.0002
                                        -0.7484 -0.0028 -0.0068 -0.3086  0.0059
                                        -0.0015  0.0000  0.0000  0.0000  0.0144
                                         0.0015  0.0000  0.0000  0.0000  0.0000
                                         0.0156  0.0002 -0.0115 -0.0012  0.0000
                                         0.0164  0.0067  0.0000  0.0000 -0.0067
                                        -0.0143
  61. (0.04355) BD*( 1) C  5- H 16
               ( 41.57%)   0.6448* C  5 s( 29.78%)p 2.35( 70.11%)d 0.00(  0.08%)
                                                  f 0.00(  0.03%)
                                         0.0000 -0.5447  0.0316 -0.0055 -0.0003
                                         0.1015  0.0043 -0.0012  0.8309  0.0001
                                         0.0203  0.0000  0.0000  0.0000 -0.0016
                                        -0.0031  0.0000  0.0000  0.0000  0.0000
                                         0.0221 -0.0008  0.0163 -0.0062  0.0000
                                        -0.0013 -0.0157  0.0000  0.0000 -0.0010
                                        -0.0099
               ( 58.43%)  -0.7644* H 16 s( 99.96%)p 0.00(  0.03%)d 0.00(  0.00%)
                                        -0.9998  0.0100 -0.0008 -0.0024  0.0012
                                        -0.0157 -0.0076  0.0000  0.0000 -0.0012
                                         0.0000  0.0000  0.0061  0.0025
  62. (0.02356) BD*( 1) C  6- C  7
               ( 49.11%)   0.7008* C  6 s( 33.28%)p 2.00( 66.61%)d 0.00(  0.07%)
                                                  f 0.00(  0.05%)
                                         0.0000 -0.5769 -0.0027 -0.0003  0.0002
                                        -0.1188 -0.0127 -0.0026 -0.8072  0.0125
                                         0.0000  0.0000  0.0000  0.0000 -0.0093
                                         0.0008  0.0000  0.0000  0.0000  0.0000
                                         0.0172  0.0040  0.0159 -0.0013  0.0000
                                         0.0042  0.0173  0.0000  0.0000  0.0067
                                         0.0117
               ( 50.89%)  -0.7134* C  7 s( 34.44%)p 1.90( 65.38%)d 0.00(  0.13%)
                                                  f 0.00(  0.05%)
                                         0.0000 -0.5868  0.0017  0.0019 -0.0003
                                         0.1642 -0.0187 -0.0012  0.7914 -0.0124
                                         0.0028  0.0000  0.0000  0.0000 -0.0044
                                        -0.0033  0.0000  0.0000  0.0000  0.0000
                                         0.0278  0.0033  0.0230 -0.0004  0.0000
                                        -0.0017 -0.0164  0.0000  0.0000 -0.0113
                                        -0.0092
  63. (0.03374) BD*( 1) C  6- C 11
               ( 48.76%)   0.6983* C  6 s( 32.24%)p 2.10( 67.63%)d 0.00(  0.08%)
                                                  f 0.00(  0.05%)
                                         0.0000 -0.5678  0.0021 -0.0001  0.0002
                                        -0.6515 -0.0086 -0.0027  0.5015 -0.0150
                                        -0.0018  0.0000  0.0000  0.0000  0.0218
                                         0.0016  0.0000  0.0000  0.0000  0.0000
                                        -0.0080 -0.0003  0.0164 -0.0018  0.0000
                                         0.0150 -0.0099  0.0000  0.0000  0.0040
                                         0.0120
               ( 51.24%)  -0.7158* C 11 s( 37.66%)p 1.65( 62.20%)d 0.00(  0.09%)
                                                  f 0.00(  0.04%)
                                         0.0000 -0.6136  0.0079  0.0034 -0.0004
                                         0.6383 -0.0276  0.0062 -0.4624 -0.0044
                                        -0.0020  0.0000  0.0000  0.0000  0.0247
                                        -0.0011  0.0000  0.0000  0.0000  0.0000
                                        -0.0057 -0.0006  0.0164 -0.0020  0.0000
                                        -0.0116  0.0089  0.0000  0.0000 -0.0002
                                        -0.0148
  64. (0.39165) BD*( 2) C  6- C 11
               ( 49.52%)   0.7037* C  6 s(  0.00%)p 1.00( 99.94%)d 0.00(  0.03%)
                                                  f 0.00(  0.04%)
                                         0.0000  0.0000  0.0000  0.0000  0.0000
                                         0.0000  0.0000  0.0000  0.0000  0.0000
                                         0.0000 -0.9996 -0.0134  0.0085  0.0000
                                         0.0000 -0.0157  0.0000  0.0015  0.0017
                                         0.0000  0.0000  0.0000  0.0000  0.0196
                                         0.0000  0.0000 -0.0010 -0.0032  0.0000
                                         0.0000
               ( 50.48%)  -0.7105* C 11 s(  0.00%)p 1.00( 99.94%)d 0.00(  0.03%)
                                                  f 0.00(  0.03%)
                                         0.0000  0.0000  0.0000  0.0000  0.0000
                                         0.0000  0.0000  0.0000  0.0000  0.0000
                                         0.0000 -0.9993 -0.0262  0.0126  0.0000
                                         0.0000  0.0032  0.0011 -0.0176  0.0030
                                         0.0000  0.0000  0.0000  0.0000  0.0168
                                         0.0000  0.0000 -0.0036  0.0006  0.0000
                                         0.0000
  65. (0.01198) BD*( 1) C  7- C  8
               ( 50.13%)   0.7081* C  7 s( 36.36%)p 1.75( 63.46%)d 0.00(  0.14%)
                                                  f 0.00(  0.05%)
                                         0.0000 -0.6027 -0.0152  0.0053  0.0001
                                        -0.7401  0.0084 -0.0017 -0.2926  0.0323
                                         0.0042  0.0000  0.0000  0.0000 -0.0111
                                        -0.0050  0.0000  0.0000  0.0000  0.0000
                                        -0.0259 -0.0015  0.0229 -0.0011  0.0000
                                         0.0162  0.0048  0.0000  0.0000 -0.0044
                                        -0.0143
               ( 49.87%)  -0.7062* C  8 s( 36.55%)p 1.73( 63.27%)d 0.00(  0.12%)
                                                  f 0.00(  0.05%)
                                         0.0000 -0.6045 -0.0097  0.0008  0.0000
                                         0.7596 -0.0332  0.0030  0.2333  0.0159
                                         0.0047  0.0000  0.0000  0.0000 -0.0207
                                         0.0003  0.0000  0.0000  0.0000  0.0000
                                        -0.0165 -0.0041  0.0227 -0.0014  0.0000
                                        -0.0153 -0.0066  0.0000  0.0000  0.0104
                                         0.0105
  66. (0.29844) BD*( 2) C  7- C  8
               ( 51.35%)   0.7166* C  7 s(  0.00%)p 1.00( 99.91%)d 0.00(  0.06%)
                                                  f 0.00(  0.03%)
                                         0.0000  0.0000  0.0000  0.0000  0.0000
                                         0.0000  0.0000  0.0000  0.0000  0.0000
                                         0.0000  0.9994  0.0141 -0.0114  0.0000
                                         0.0000  0.0216  0.0028 -0.0091  0.0041
                                         0.0000  0.0000  0.0000  0.0000 -0.0176
                                         0.0000  0.0000 -0.0013  0.0014  0.0000
                                         0.0000
               ( 48.65%)  -0.6975* C  8 s(  0.00%)p 1.00( 99.92%)d 0.00(  0.04%)
                                                  f 0.00(  0.04%)
                                         0.0000  0.0000  0.0000  0.0000  0.0000
                                         0.0000  0.0000  0.0000  0.0000  0.0000
                                         0.0000  0.9993  0.0215 -0.0112  0.0000
                                         0.0000 -0.0096 -0.0040 -0.0178  0.0015
                                         0.0000  0.0000  0.0000  0.0000 -0.0187
                                         0.0000  0.0000  0.0022 -0.0013  0.0000
                                         0.0000
  67. (0.01526) BD*( 1) C  7- H 17
               ( 38.20%)   0.6180* C  7 s( 29.06%)p 2.44( 70.83%)d 0.00(  0.06%)
                                                  f 0.00(  0.04%)
                                         0.0000 -0.5390  0.0102 -0.0066  0.0002
                                         0.6499  0.0108  0.0095 -0.5344 -0.0087
                                        -0.0027  0.0000  0.0000  0.0000  0.0194
                                         0.0064  0.0000  0.0000  0.0000  0.0000
                                        -0.0052 -0.0012  0.0132  0.0011  0.0000
                                        -0.0133  0.0110  0.0000  0.0000 -0.0047
                                        -0.0108
               ( 61.80%)  -0.7861* H 17 s( 99.96%)p 0.00(  0.03%)d 0.00(  0.01%)
                                        -0.9998  0.0030  0.0007  0.0133 -0.0063
                                        -0.0107 -0.0015  0.0000  0.0000  0.0072
                                         0.0000  0.0000 -0.0014  0.0022
  68. (0.02724) BD*( 1) C  8- C  9
               ( 49.41%)   0.7029* C  8 s( 34.82%)p 1.87( 64.98%)d 0.00(  0.15%)
                                                  f 0.00(  0.05%)
                                         0.0000 -0.5901 -0.0037  0.0027  0.0000
                                        -0.6245  0.0324  0.0018  0.5086  0.0057
                                         0.0041  0.0000  0.0000  0.0000  0.0312
                                         0.0006  0.0000  0.0000  0.0000  0.0000
                                         0.0034 -0.0029  0.0221 -0.0015  0.0000
                                         0.0122 -0.0119  0.0000  0.0000  0.0038
                                         0.0142
               ( 50.59%)  -0.7113* C  9 s( 37.74%)p 1.65( 62.13%)d 0.00(  0.09%)
                                                  f 0.00(  0.04%)
                                         0.0000 -0.6143  0.0002  0.0019 -0.0003
                                         0.5803 -0.0004  0.0046 -0.5321  0.0384
                                        -0.0018  0.0000  0.0000  0.0000  0.0236
                                        -0.0002  0.0000  0.0000  0.0000  0.0000
                                        -0.0074  0.0030  0.0171 -0.0029  0.0000
                                        -0.0114  0.0092  0.0000  0.0000 -0.0099
                                        -0.0095
  69. (0.01310) BD*( 1) C  8- H 18
               ( 38.96%)   0.6242* C  8 s( 28.48%)p 2.51( 71.41%)d 0.00(  0.07%)
                                                  f 0.00(  0.04%)
                                         0.0000 -0.5335  0.0105 -0.0033  0.0001
                                        -0.1701 -0.0034 -0.0008 -0.8275 -0.0161
                                        -0.0069  0.0000  0.0000  0.0000 -0.0085
                                        -0.0014  0.0000  0.0000  0.0000  0.0000
                                         0.0212  0.0030  0.0123  0.0005  0.0000
                                         0.0037  0.0175  0.0000  0.0000  0.0071
                                         0.0090
               ( 61.04%)  -0.7813* H 18 s( 99.96%)p 0.00(  0.03%)d 0.00(  0.01%)
                                        -0.9998  0.0014  0.0007 -0.0036 -0.0002
                                        -0.0168 -0.0015  0.0000  0.0000 -0.0029
                                         0.0000  0.0000  0.0062  0.0030
  70. (0.01515) BD*( 1) C  9- N 10
               ( 58.83%)   0.7670* C  9 s( 33.28%)p 2.00( 66.61%)d 0.00(  0.07%)
                                                  f 0.00(  0.03%)
                                         0.0000  0.5761  0.0307  0.0007 -0.0007
                                        -0.1301 -0.0306 -0.0065 -0.8033  0.0539
                                         0.0028  0.0000  0.0000  0.0000  0.0099
                                        -0.0009  0.0000  0.0000  0.0000  0.0000
                                        -0.0134 -0.0139 -0.0165 -0.0005  0.0000
                                         0.0029  0.0134  0.0000  0.0000  0.0040
                                         0.0116
               ( 41.17%)  -0.6416* N 10 s( 35.23%)p 1.82( 64.29%)d 0.01(  0.46%)
                                                  f 0.00(  0.03%)
                                         0.0000  0.5934  0.0112  0.0012  0.0000
                                         0.1637 -0.0276 -0.0066  0.7841 -0.0189
                                         0.0067  0.0000  0.0000  0.0000 -0.0043
                                         0.0012  0.0000  0.0000  0.0000  0.0000
                                        -0.0540 -0.0026 -0.0407  0.0021  0.0000
                                        -0.0013 -0.0106  0.0000  0.0000 -0.0101
                                        -0.0063
  71. (0.43614) BD*( 2) C  9- N 10
               ( 56.99%)   0.7549* C  9 s(  0.00%)p 1.00( 99.91%)d 0.00(  0.06%)
                                                  f 0.00(  0.03%)
                                         0.0000  0.0000  0.0000  0.0000  0.0000
                                         0.0000  0.0000  0.0000  0.0000  0.0000
                                         0.0000  0.9994  0.0175 -0.0093  0.0000
                                         0.0000 -0.0134  0.0034 -0.0192 -0.0024
                                         0.0000  0.0000  0.0000  0.0000 -0.0169
                                         0.0000  0.0000 -0.0026 -0.0033  0.0000
                                         0.0000
               ( 43.01%)  -0.6558* N 10 s(  0.00%)p 1.00( 99.68%)d 0.00(  0.30%)
                                                  f 0.00(  0.02%)
                                         0.0000  0.0000  0.0000  0.0000  0.0000
                                         0.0000  0.0000  0.0000  0.0000  0.0000
                                         0.0000  0.9983 -0.0097 -0.0011  0.0000
                                         0.0000 -0.0396  0.0016  0.0377  0.0048
                                         0.0000  0.0000  0.0000  0.0000 -0.0123
                                         0.0000  0.0000 -0.0019  0.0074  0.0000
                                         0.0000
  72. (0.02358) BD*( 1) C  9- H 19
               ( 40.12%)   0.6334* C  9 s( 28.96%)p 2.45( 70.92%)d 0.00(  0.08%)
                                                  f 0.00(  0.03%)
                                         0.0000 -0.5377  0.0214 -0.0014 -0.0002
                                        -0.8023 -0.0183 -0.0081 -0.2550 -0.0111
                                        -0.0025  0.0000  0.0000  0.0000 -0.0172
                                         0.0032  0.0000  0.0000  0.0000  0.0000
                                        -0.0189 -0.0004  0.0117 -0.0008  0.0000
                                         0.0153  0.0048  0.0000  0.0000 -0.0049
                                        -0.0082
               ( 59.88%)  -0.7738* H 19 s( 99.96%)p 0.00(  0.03%)d 0.00(  0.01%)
                                        -0.9998  0.0022  0.0011 -0.0167 -0.0002
                                        -0.0063 -0.0027  0.0000  0.0000 -0.0041
                                         0.0000  0.0000 -0.0057  0.0023
  73. (0.01216) BD*( 1) N 10- C 11
               ( 41.25%)   0.6423* N 10 s( 35.67%)p 1.79( 63.84%)d 0.01(  0.46%)
                                                  f 0.00(  0.02%)
                                         0.0000 -0.5972 -0.0105 -0.0013  0.0000
                                         0.7420 -0.0145  0.0081  0.2945 -0.0298
                                        -0.0054  0.0000  0.0000  0.0000 -0.0147
                                        -0.0020  0.0000  0.0000  0.0000  0.0000
                                        -0.0520 -0.0022  0.0406 -0.0020  0.0000
                                        -0.0100 -0.0030  0.0000  0.0000  0.0005
                                         0.0117
               ( 58.75%)  -0.7665* C 11 s( 34.12%)p 1.93( 65.77%)d 0.00(  0.07%)
                                                  f 0.00(  0.04%)
                                         0.0000 -0.5831 -0.0354 -0.0003  0.0006
                                        -0.7594  0.0560  0.0045 -0.2781 -0.0204
                                        -0.0048  0.0000  0.0000  0.0000 -0.0141
                                        -0.0042  0.0000  0.0000  0.0000  0.0000
                                        -0.0081 -0.0145  0.0155  0.0011  0.0000
                                         0.0128  0.0053  0.0000  0.0000 -0.0085
                                        -0.0101
  74. (0.02597) BD*( 1) C 11- H 20
               ( 40.39%)   0.6355* C 11 s( 28.21%)p 2.54( 71.68%)d 0.00(  0.08%)
                                                  f 0.00(  0.03%)
                                         0.0000 -0.5308  0.0184 -0.0032 -0.0001
                                         0.0992  0.0098  0.0029  0.8405  0.0190
                                         0.0079  0.0000  0.0000  0.0000 -0.0089
                                         0.0028  0.0000  0.0000  0.0000  0.0000
                                         0.0222  0.0017  0.0142 -0.0030  0.0000
                                        -0.0018 -0.0158  0.0000  0.0000 -0.0042
                                        -0.0079
               ( 59.61%)  -0.7721* H 20 s( 99.96%)p 0.00(  0.03%)d 0.00(  0.01%)
                                        -0.9998  0.0031  0.0009  0.0031  0.0028
                                         0.0177 -0.0004  0.0000  0.0000 -0.0018
                                         0.0000  0.0000  0.0067  0.0020
  75. (0.02292) BD*( 1) O 12- C 13
               ( 33.49%)   0.5787* O 12 s( 29.66%)p 2.36( 70.05%)d 0.01(  0.28%)
                                                  f 0.00(  0.01%)
                                         0.0000 -0.5446 -0.0072 -0.0029  0.0000
                                         0.6764 -0.0171  0.0036 -0.4926 -0.0024
                                        -0.0076  0.0000  0.0000  0.0000  0.0423
                                         0.0020  0.0000  0.0000  0.0000  0.0000
                                         0.0047 -0.0003  0.0308 -0.0012  0.0000
                                        -0.0061  0.0045  0.0000  0.0000  0.0010
                                        -0.0067
               ( 66.51%)  -0.8155* C 13 s( 22.86%)p 3.37( 77.06%)d 0.00(  0.07%)
                                                  f 0.00(  0.00%)
                                         0.0000 -0.4765 -0.0394 -0.0028  0.0004
                                        -0.7315  0.0263 -0.0028  0.4837 -0.0301
                                        -0.0017  0.0000  0.0000  0.0000  0.0099
                                         0.0172  0.0000  0.0000  0.0000  0.0000
                                        -0.0093 -0.0009  0.0141  0.0047  0.0000
                                         0.0012 -0.0053  0.0000  0.0000 -0.0011
                                         0.0021
  76. (0.00920) BD*( 1) C 13- C 14
               ( 50.06%)   0.7075* C 13 s( 29.37%)p 2.40( 70.54%)d 0.00(  0.08%)
                                                  f 0.00(  0.02%)
                                         0.0000  0.5411  0.0295 -0.0025 -0.0002
                                        -0.6798  0.0053  0.0007 -0.4931 -0.0027
                                         0.0041  0.0002  0.0000  0.0000  0.0250
                                        -0.0016  0.0000  0.0000  0.0000  0.0000
                                         0.0019  0.0007 -0.0124 -0.0009  0.0000
                                         0.0038  0.0089  0.0000  0.0000  0.0011
                                        -0.0080
               ( 49.94%)  -0.7067* C 14 s( 28.66%)p 2.48( 71.16%)d 0.01(  0.16%)
                                                  f 0.00(  0.03%)
                                         0.0000  0.5350  0.0205  0.0008 -0.0001
                                         0.6697 -0.0109  0.0043  0.5127 -0.0080
                                        -0.0002 -0.0002  0.0000  0.0000  0.0324
                                        -0.0003  0.0000  0.0000  0.0000  0.0000
                                         0.0107 -0.0003 -0.0196  0.0000  0.0000
                                        -0.0045 -0.0096  0.0000  0.0000 -0.0022
                                         0.0121
  77. (0.02893) BD*( 1) C 13- H 21
               ( 40.80%)   0.6387* C 13 s( 24.02%)p 3.16( 75.84%)d 0.01(  0.13%)
                                                  f 0.00(  0.01%)
                                         0.0000 -0.4894  0.0248 -0.0003 -0.0002
                                        -0.0192 -0.0014 -0.0009 -0.5086 -0.0012
                                        -0.0021  0.7065  0.0153 -0.0012  0.0009
                                        -0.0010 -0.0021  0.0028  0.0292 -0.0018
                                         0.0081  0.0009 -0.0187  0.0024 -0.0012
                                         0.0001 -0.0101 -0.0026 -0.0004 -0.0006
                                         0.0062
               ( 59.20%)  -0.7694* H 21 s( 99.95%)p 0.00(  0.04%)d 0.00(  0.01%)
                                        -0.9997  0.0051  0.0000 -0.0004  0.0030
                                        -0.0126 -0.0006  0.0148 -0.0033  0.0008
                                        -0.0001  0.0091  0.0037 -0.0046
  78. (0.02893) BD*( 1) C 13- H 22
               ( 40.80%)   0.6387* C 13 s( 24.02%)p 3.16( 75.84%)d 0.01(  0.13%)
                                                  f 0.00(  0.01%)
                                         0.0000 -0.4895  0.0248 -0.0003 -0.0002
                                        -0.0193 -0.0014 -0.0009 -0.5090 -0.0012
                                        -0.0021 -0.7062 -0.0153  0.0012  0.0009
                                        -0.0011  0.0021 -0.0028 -0.0292  0.0018
                                         0.0081  0.0009 -0.0187  0.0024  0.0012
                                         0.0001 -0.0101  0.0026  0.0004 -0.0006
                                         0.0062
               ( 59.20%)  -0.7694* H 22 s( 99.95%)p 0.00(  0.04%)d 0.00(  0.01%)
                                        -0.9997  0.0051  0.0000 -0.0004  0.0030
                                        -0.0126 -0.0006 -0.0148  0.0033  0.0008
                                         0.0001 -0.0091  0.0037 -0.0046
  79. (0.00859) BD*( 1) C 14- H 23
               ( 39.59%)   0.6292* C 14 s( 23.81%)p 3.19( 76.03%)d 0.01(  0.14%)
                                                  f 0.00(  0.02%)
                                         0.0000 -0.4879  0.0072 -0.0001 -0.0001
                                        -0.0023 -0.0063 -0.0025  0.5113 -0.0007
                                        -0.0013  0.7062  0.0046  0.0005  0.0010
                                         0.0002  0.0040 -0.0016 -0.0301 -0.0004
                                         0.0091  0.0009 -0.0196  0.0005 -0.0004
                                        -0.0007  0.0117 -0.0034  0.0012 -0.0005
                                        -0.0057
               ( 60.41%)  -0.7773* H 23 s( 99.95%)p 0.00(  0.04%)d 0.00(  0.01%)
                                        -0.9997  0.0019  0.0001  0.0000  0.0003
                                         0.0122 -0.0006  0.0169  0.0003 -0.0003
                                        -0.0002 -0.0087  0.0033 -0.0049
  80. (0.00394) BD*( 1) C 14- H 24
               ( 39.56%)   0.6290* C 14 s( 23.69%)p 3.21( 76.14%)d 0.01(  0.15%)
                                                  f 0.00(  0.02%)
                                         0.0000 -0.4867  0.0043  0.0009  0.0003
                                         0.7409  0.0011 -0.0033 -0.4609 -0.0082
                                        -0.0011  0.0002  0.0000  0.0000  0.0320
                                        -0.0006  0.0000  0.0000  0.0000  0.0000
                                        -0.0077 -0.0023  0.0196 -0.0007  0.0000
                                        -0.0051  0.0088  0.0000  0.0000  0.0010
                                        -0.0091
               ( 60.44%)  -0.7774* H 24 s( 99.94%)p 0.00(  0.05%)d 0.00(  0.01%)
                                        -0.9997  0.0004  0.0001  0.0183 -0.0002
                                        -0.0123 -0.0016  0.0000  0.0000  0.0082
                                         0.0000  0.0000 -0.0045  0.0055
  81. (0.00859) BD*( 1) C 14- H 25
               ( 39.59%)   0.6292* C 14 s( 23.81%)p 3.19( 76.03%)d 0.01(  0.14%)
                                                  f 0.00(  0.02%)
                                         0.0000 -0.4879  0.0072 -0.0001 -0.0001
                                        -0.0023 -0.0063 -0.0025  0.5108 -0.0007
                                        -0.0013 -0.7066 -0.0046 -0.0005  0.0010
                                         0.0002 -0.0040  0.0016  0.0301  0.0004
                                         0.0091  0.0009 -0.0197  0.0005  0.0004
                                        -0.0007  0.0117  0.0034 -0.0012 -0.0005
                                        -0.0057
               ( 60.41%)  -0.7773* H 25 s( 99.95%)p 0.00(  0.04%)d 0.00(  0.01%)
                                        -0.9997  0.0019  0.0001  0.0000  0.0003
                                         0.0122 -0.0006 -0.0170 -0.0003 -0.0003
                                         0.0002  0.0087  0.0033 -0.0049
  82. (0.00211) RY ( 1) O  1            s(  8.05%)p10.89( 87.66%)d 0.53(  4.25%)
                                                  f 0.01(  0.04%)
                                         0.0000 -0.0004  0.2826 -0.0247 -0.0011
                                        -0.0036  0.9328  0.0539  0.0045  0.0139
                                         0.0579  0.0000  0.0058  0.0003  0.1406
                                         0.0976 -0.0006  0.0001  0.0001  0.0006
                                         0.0117 -0.0101 -0.1132  0.0133  0.0000
                                         0.0034  0.0110  0.0000  0.0000  0.0164
                                        -0.0029
  83. (0.00210) RY ( 2) O  1            s(  0.00%)p 1.00( 97.64%)d 0.02(  2.36%)
                                                  f 0.00(  0.00%)
                                         0.0000  0.0000  0.0017 -0.0002  0.0000
                                         0.0000  0.0055  0.0003  0.0000  0.0001
                                         0.0003  0.0054 -0.9864 -0.0586  0.0008
                                         0.0006  0.1056 -0.0141 -0.0182 -0.1089
                                         0.0001 -0.0001 -0.0007  0.0001  0.0001
                                         0.0000  0.0001  0.0010 -0.0055  0.0001
                                         0.0000
  84. (0.00023) RY ( 3) O  1            s( 47.37%)p 0.12(  5.70%)d 0.94( 44.53%)
                                                  f 0.05(  2.40%)
                                         0.0000 -0.0019  0.6653  0.1758  0.0106
                                        -0.0311 -0.1405  0.1052  0.0091 -0.0434
                                         0.1525  0.0000  0.0000  0.0000 -0.6410
                                         0.1119  0.0000  0.0000  0.0000  0.0000
                                        -0.0584 -0.0336 -0.1318  0.0043  0.0000
                                        -0.0388 -0.0081  0.0000  0.0000 -0.0919
                                         0.1181
  85. (0.00014) RY ( 4) O  1            s( 33.25%)p 0.77( 25.71%)d 1.19( 39.48%)
                                                  f 0.05(  1.57%)
                                         0.0000 -0.0109  0.5443 -0.1896 -0.0097
                                         0.0265 -0.2709 -0.1134  0.0274  0.3773
                                         0.1644  0.0000  0.0000  0.0000  0.5679
                                        -0.1110  0.0000  0.0000  0.0000  0.0000
                                        -0.1942  0.0007 -0.1484 -0.0171  0.0000
                                         0.0449  0.0118  0.0000  0.0000  0.1049
                                        -0.0500
  86. (0.00010) RY ( 5) O  1            s(  0.00%)p 1.00(  1.17%)d81.89( 96.09%)
                                                  f 2.33(  2.73%)
                                         0.0000  0.0000  0.0000  0.0000  0.0000
                                         0.0000  0.0000  0.0001  0.0000  0.0002
                                         0.0000 -0.0086  0.1050 -0.0252 -0.0001
                                         0.0000  0.9520 -0.1176 -0.1976  0.0412
                                        -0.0001  0.0000  0.0000  0.0000 -0.0121
                                         0.0000  0.0000 -0.0595 -0.1537  0.0000
                                         0.0000
  87. (0.00005) RY ( 6) O  1            s( 22.71%)p 2.36( 53.49%)d 0.98( 22.26%)
                                                  f 0.07(  1.54%)
  88. (0.00004) RY ( 7) O  1            s(  6.66%)p 2.79( 18.61%)d10.56( 70.35%)
                                                  f 0.66(  4.38%)
  89. (0.00001) RY ( 8) O  1            s( 19.95%)p 2.26( 45.12%)d 1.65( 32.87%)
                                                  f 0.10(  2.06%)
  90. (0.00001) RY ( 9) O  1            s( 22.61%)p 2.33( 52.59%)d 0.95( 21.47%)
                                                  f 0.15(  3.34%)
  91. (0.00000) RY (10) O  1            s(  1.33%)p57.96( 76.92%)d15.85( 21.03%)
                                                  f 0.55(  0.72%)
  92. (0.00000) RY (11) O  1            s(  6.33%)p 0.39(  2.44%)d 8.14( 51.52%)
                                                  f 6.28( 39.72%)
  93. (0.00000) RY (12) O  1            s( 27.55%)p 0.15(  4.14%)d 0.67( 18.52%)
                                                  f 1.81( 49.78%)
  94. (0.00000) RY (13) O  1            s(  0.00%)p 1.00(  1.52%)d45.50( 69.05%)
                                                  f19.40( 29.43%)
  95. (0.00000) RY (14) O  1            s( 20.19%)p 0.21(  4.27%)d 1.64( 33.10%)
                                                  f 2.10( 42.45%)
  96. (0.00000) RY (15) O  1            s(  0.00%)p 1.00( 60.54%)d 0.17( 10.50%)
                                                  f 0.48( 28.96%)
  97. (0.00000) RY (16) O  1            s(  0.54%)p16.16(  8.67%)d99.99( 57.75%)
                                                  f61.63( 33.05%)
  98. (0.00000) RY (17) O  1            s(  0.00%)p 1.00( 20.47%)d 1.21( 24.75%)
                                                  f 2.68( 54.78%)
  99. (0.00000) RY (18) O  1            s( 11.78%)p 0.69(  8.17%)d 3.46( 40.72%)
                                                  f 3.34( 39.33%)
 100. (0.00000) RY (19) O  1            s(  0.00%)p 1.00( 15.88%)d 4.28( 67.91%)
                                                  f 1.02( 16.20%)
 101. (0.00000) RY (20) O  1            s(  0.00%)p 1.00(  1.10%)d22.92( 25.09%)
                                                  f67.41( 73.81%)
 102. (0.00000) RY (21) O  1            s(  0.00%)p 1.00(  0.77%)d58.91( 45.31%)
                                                  f70.11( 53.92%)
 103. (0.00000) RY (22) O  1            s( 33.59%)p 0.02(  0.52%)d 0.86( 28.81%)
                                                  f 1.10( 37.08%)
 104. (0.00000) RY (23) O  1            s(  0.00%)p 1.00(  1.25%)d46.89( 58.61%)
                                                  f32.11( 40.14%)
 105. (0.00000) RY (24) O  1            s( 26.27%)p 0.06(  1.54%)d 1.39( 36.57%)
                                                  f 1.36( 35.62%)
 106. (0.00000) RY (25) O  1            s(  0.67%)p 3.56(  2.39%)d47.19( 31.73%)
                                                  f96.97( 65.20%)
 107. (0.00000) RY (26) O  1            s( 11.26%)p 0.26(  2.90%)d 3.92( 44.14%)
                                                  f 3.71( 41.70%)
 108. (0.01671) RY ( 1) C  2            s(  8.68%)p10.48( 90.90%)d 0.03(  0.27%)
                                                  f 0.02(  0.15%)
                                         0.0000  0.0195  0.2932  0.0208  0.0000
                                         0.0107  0.2004 -0.0294  0.0666  0.9274
                                         0.0574  0.0000  0.0000  0.0000 -0.0114
                                         0.0054  0.0000  0.0000  0.0000  0.0000
                                        -0.0192  0.0422 -0.0127  0.0164  0.0000
                                         0.0027  0.0271  0.0000  0.0000 -0.0090
                                         0.0265
 109. (0.00599) RY ( 2) C  2            s(  9.89%)p 8.15( 80.57%)d 0.94(  9.25%)
                                                  f 0.03(  0.29%)
                                         0.0000  0.0056  0.3124  0.0351  0.0027
                                        -0.0188 -0.8913 -0.0269  0.0025  0.0836
                                         0.0563  0.0000 -0.0001  0.0000 -0.2492
                                        -0.1221 -0.0001  0.0000  0.0000  0.0000
                                        -0.1120  0.0216  0.0388 -0.0319  0.0000
                                         0.0134  0.0424  0.0000  0.0000  0.0227
                                        -0.0200
 110. (0.00497) RY ( 3) C  2            s(  0.00%)p 1.00( 34.08%)d 1.93( 65.68%)
                                                  f 0.01(  0.24%)
                                         0.0000  0.0000  0.0000  0.0000  0.0000
                                         0.0000  0.0001  0.0000  0.0000  0.0000
                                         0.0000  0.0612 -0.5508  0.1834  0.0000
                                         0.0000 -0.4988  0.1862  0.6012 -0.1091
                                         0.0000  0.0000  0.0000  0.0000 -0.0249
                                         0.0000  0.0000  0.0308 -0.0286  0.0000
                                         0.0000
 111. (0.00226) RY ( 4) C  2            s(  0.00%)p 1.00(  9.26%)d 9.73( 90.09%)
                                                  f 0.07(  0.65%)
                                         0.0000  0.0000 -0.0001  0.0000  0.0000
                                         0.0000  0.0000 -0.0001  0.0000  0.0000
                                         0.0001 -0.0150  0.2358 -0.1917 -0.0003
                                        -0.0001  0.5471 -0.1474  0.7500 -0.1316
                                         0.0000  0.0000  0.0001  0.0000  0.0469
                                         0.0000  0.0000  0.0138 -0.0644  0.0000
                                         0.0000
 112. (0.00223) RY ( 5) C  2            s(  9.18%)p 0.78(  7.15%)d 9.03( 82.90%)
                                                  f 0.08(  0.77%)
                                         0.0000  0.0044  0.2379  0.1872  0.0100
                                         0.0221 -0.2011  0.1416  0.0027 -0.0256
                                        -0.0995  0.0000  0.0001  0.0000  0.8479
                                         0.2647  0.0001  0.0000  0.0003  0.0000
                                        -0.0536  0.0315 -0.1565  0.1083  0.0000
                                        -0.0579  0.0205  0.0000  0.0000 -0.0493
                                         0.0382
 113. (0.00075) RY ( 6) C  2            s( 54.12%)p 0.40( 21.58%)d 0.40( 21.64%)
                                                  f 0.05(  2.66%)
                                         0.0000 -0.0061  0.7250  0.1172 -0.0420
                                        -0.0256  0.3220 -0.1352  0.0079 -0.3007
                                        -0.0527  0.0000  0.0000  0.0000 -0.1385
                                        -0.0582  0.0001  0.0000 -0.0001  0.0000
                                        -0.3760 -0.2248 -0.0295 -0.0312  0.0000
                                        -0.0377 -0.0087  0.0000  0.0000  0.1527
                                         0.0417
 114. (0.00043) RY ( 7) C  2            s(  0.00%)p 1.00( 55.27%)d 0.79( 43.46%)
                                                  f 0.02(  1.28%)
                                         0.0000  0.0000  0.0003  0.0000  0.0000
                                         0.0000  0.0001  0.0000  0.0000 -0.0001
                                         0.0000 -0.0243  0.6886 -0.2792 -0.0001
                                         0.0000 -0.5872  0.1766  0.1987  0.1381
                                         0.0004  0.0003 -0.0001  0.0000 -0.0687
                                         0.0000  0.0000 -0.0596 -0.0672  0.0000
                                         0.0001
 115. (0.00040) RY ( 8) C  2            s( 15.05%)p 0.24(  3.65%)d 5.23( 78.62%)
                                                  f 0.18(  2.68%)
                                         0.0000  0.0042  0.3829  0.0604 -0.0121
                                        -0.0072  0.0790 -0.0444  0.0317 -0.1651
                                        -0.0029  0.0000 -0.0004  0.0002 -0.1344
                                         0.0570  0.0004 -0.0001 -0.0001 -0.0001
                                         0.6205  0.6113 -0.0523  0.0593  0.0000
                                        -0.0818  0.0055  0.0000  0.0000 -0.1152
                                         0.0827
 116. (0.00013) RY ( 9) C  2            s( 16.69%)p 1.94( 32.31%)d 1.89( 31.48%)
                                                  f 1.17( 19.51%)
                                         0.0000  0.0032 -0.1384  0.3843 -0.0065
                                         0.0195 -0.0653 -0.5590 -0.0079  0.0357
                                         0.0683  0.0000  0.0000  0.0000  0.0024
                                        -0.0339  0.0000  0.0001  0.0000  0.0000
                                         0.2493 -0.2137 -0.2919  0.3473  0.0000
                                         0.1016 -0.1337  0.0000  0.0000  0.3824
                                         0.1439
 117. (0.00005) RY (10) C  2            s(  3.65%)p12.28( 44.78%)d 6.43( 23.44%)
                                                  f 7.71( 28.13%)
 118. (0.00004) RY (11) C  2            s(  1.04%)p38.86( 40.37%)d53.76( 55.85%)
                                                  f 2.64(  2.74%)
 119. (0.00002) RY (12) C  2            s(  0.00%)p 1.00(  7.29%)d10.11( 73.73%)
                                                  f 2.60( 18.98%)
 120. (0.00001) RY (13) C  2            s(  4.04%)p 9.10( 36.75%)d 3.40( 13.73%)
                                                  f11.27( 45.48%)
 121. (0.00001) RY (14) C  2            s( 21.81%)p 0.62( 13.44%)d 0.95( 20.81%)
                                                  f 2.01( 43.94%)
 122. (0.00000) RY (15) C  2            s(  0.00%)p 1.00( 30.11%)d 1.49( 44.76%)
                                                  f 0.84( 25.14%)
 123. (0.00000) RY (16) C  2            s( 56.74%)p 0.11(  6.03%)d 0.51( 29.18%)
                                                  f 0.14(  8.06%)
 124. (0.00000) RY (17) C  2            s(  0.00%)p 1.00(  1.50%)d 1.76(  2.64%)
                                                  f63.92( 95.86%)
 125. (0.00000) RY (18) C  2            s(  0.00%)p 1.00(  1.02%)d46.64( 47.70%)
                                                  f50.13( 51.27%)
 126. (0.00000) RY (19) C  2            s( 65.29%)p 0.00(  0.01%)d 0.44( 28.66%)
                                                  f 0.09(  6.03%)
 127. (0.00000) RY (20) C  2            s(  7.00%)p 0.13(  0.89%)d 3.07( 21.47%)
                                                  f10.09( 70.63%)
 128. (0.00000) RY (21) C  2            s(  3.91%)p 0.14(  0.56%)d18.76( 73.46%)
                                                  f 5.64( 22.07%)
 129. (0.00000) RY (22) C  2            s(  6.74%)p 1.22(  8.25%)d 7.24( 48.79%)
                                                  f 5.37( 36.22%)
 130. (0.00000) RY (23) C  2            s(  0.00%)p 1.00( 61.04%)d 0.32( 19.74%)
                                                  f 0.31( 19.22%)
 131. (0.00000) RY (24) C  2            s( 13.85%)p 0.17(  2.31%)d 1.51( 20.88%)
                                                  f 4.55( 62.96%)
 132. (0.00000) RY (25) C  2            s(  2.23%)p 4.86( 10.84%)d17.63( 39.31%)
                                                  f21.35( 47.62%)
 133. (0.00000) RY (26) C  2            s(  0.00%)p 1.00(  0.60%)d20.28( 12.07%)
                                                  f99.99( 87.33%)
 134. (0.00553) RY ( 1) C  3            s(  0.00%)p 1.00( 92.02%)d 0.08(  7.72%)
                                                  f 0.00(  0.26%)
                                         0.0000  0.0000  0.0005  0.0000  0.0000
                                        -0.0001 -0.0006 -0.0002  0.0000  0.0003
                                        -0.0001 -0.0517  0.9547 -0.0782 -0.0002
                                        -0.0001 -0.2671  0.0525 -0.0064 -0.0556
                                         0.0001  0.0002  0.0000  0.0000 -0.0407
                                         0.0000  0.0000  0.0291  0.0072  0.0000
                                         0.0000
 135. (0.00507) RY ( 2) C  3            s( 37.73%)p 1.37( 51.82%)d 0.28( 10.41%)
                                                  f 0.00(  0.04%)
                                         0.0000 -0.0219  0.6138 -0.0104  0.0049
                                        -0.0595 -0.6459 -0.1769 -0.0242  0.1874
                                        -0.1745  0.0000 -0.0009  0.0001 -0.2252
                                        -0.1000  0.0003  0.0000  0.0000  0.0001
                                         0.0851  0.1845 -0.0328  0.0325  0.0000
                                        -0.0121  0.0056  0.0000  0.0000 -0.0063
                                         0.0135
 136. (0.00288) RY ( 3) C  3            s(  0.90%)p99.99( 93.97%)d 4.07(  3.68%)
                                                  f 1.60(  1.45%)
                                         0.0000 -0.0182  0.0925 -0.0056  0.0115
                                        -0.0323 -0.1463 -0.1505 -0.0144 -0.9116
                                        -0.2518  0.0000  0.0001  0.0000  0.0888
                                         0.0855  0.0000  0.0000  0.0000  0.0000
                                        -0.0484 -0.1249 -0.0582  0.0171  0.0000
                                        -0.0419 -0.0105  0.0000  0.0000  0.1104
                                        -0.0207
 137. (0.00098) RY ( 4) C  3            s( 44.96%)p 1.13( 50.84%)d 0.03(  1.41%)
                                                  f 0.06(  2.80%)
                                         0.0000  0.0040  0.6598 -0.1189 -0.0012
                                         0.0047  0.6789  0.1097 -0.0048 -0.0052
                                        -0.1881  0.0000  0.0000  0.0000 -0.0164
                                         0.0288  0.0000  0.0000  0.0000  0.0000
                                        -0.0006  0.1051 -0.0441 -0.0012  0.0000
                                        -0.0617  0.0132  0.0000  0.0000  0.0575
                                        -0.1438
 138. (0.00027) RY ( 5) C  3            s( 12.99%)p 1.10( 14.23%)d 4.79( 62.24%)
                                                  f 0.81( 10.54%)
                                         0.0000  0.0127  0.2368  0.2691 -0.0360
                                        -0.0316 -0.1232  0.0861  0.0132 -0.0179
                                         0.3438  0.0000  0.0000  0.0000  0.6565
                                        -0.3228 -0.0001 -0.0001  0.0001  0.0000
                                        -0.2793 -0.0327 -0.0368  0.0824  0.0000
                                        -0.0069  0.0054  0.0000  0.0000 -0.1238
                                        -0.2999
 139. (0.00023) RY ( 6) C  3            s(  0.00%)p 1.00(  6.63%)d12.63( 83.67%)
                                                  f 1.46(  9.70%)
                                         0.0000  0.0000  0.0000  0.0001  0.0000
                                         0.0000  0.0000 -0.0003  0.0000  0.0000
                                         0.0001 -0.0089  0.2206  0.1324  0.0002
                                         0.0000  0.8541  0.2694 -0.0065 -0.1861
                                         0.0001  0.0000  0.0000  0.0001 -0.1381
                                         0.0000  0.0000 -0.0261 -0.2779 -0.0001
                                         0.0000
 140. (0.00020) RY ( 7) C  3            s(  4.90%)p11.32( 55.47%)d 7.67( 37.57%)
                                                  f 0.42(  2.06%)
                                         0.0000  0.0015  0.0654  0.2115 -0.0036
                                        -0.0099  0.1471 -0.6961 -0.0003  0.0562
                                         0.2126  0.0000 -0.0001 -0.0001  0.2111
                                         0.3258 -0.0003 -0.0001  0.0000  0.0001
                                         0.4632 -0.0252 -0.0638  0.0752  0.0001
                                         0.0200  0.0455  0.0000  0.0001 -0.1343
                                        -0.0099
 141. (0.00016) RY ( 8) C  3            s(  0.00%)p 1.00(  4.51%)d17.42( 78.56%)
                                                  f 3.76( 16.93%)
                                         0.0000  0.0000  0.0001  0.0001  0.0000
                                         0.0000  0.0000  0.0002  0.0000  0.0000
                                        -0.0001  0.0070 -0.0607  0.2034  0.0002
                                         0.0001 -0.1691  0.5808 -0.5419  0.3549
                                         0.0002 -0.0001 -0.0001  0.0000 -0.1121
                                         0.0001  0.0000  0.3795 -0.1129 -0.0001
                                         0.0000
 142. (0.00013) RY ( 9) C  3            s(  0.22%)p99.99( 38.48%)d99.99( 55.00%)
                                                  f28.97(  6.31%)
                                         0.0000  0.0042  0.0103  0.0217  0.0398
                                        -0.0116 -0.0970  0.3849  0.0085  0.1022
                                        -0.4654  0.0000  0.0000  0.0000  0.4092
                                         0.0082  0.0001 -0.0002  0.0002 -0.0001
                                         0.5408 -0.2911  0.0163 -0.0708  0.0001
                                         0.0997  0.1077 -0.0001  0.0001 -0.1768
                                         0.1013
 143. (0.00004) RY (10) C  3            s(  3.53%)p14.85( 52.43%)d 8.09( 28.56%)
                                                  f 4.39( 15.48%)
 144. (0.00003) RY (11) C  3            s(  1.06%)p 7.52(  7.94%)d47.29( 49.93%)
                                                  f38.90( 41.08%)
 145. (0.00002) RY (12) C  3            s(  0.00%)p 1.00(  3.83%)d23.81( 91.19%)
                                                  f 1.30(  4.98%)
 146. (0.00001) RY (13) C  3            s(  5.93%)p 0.79(  4.68%)d 9.78( 58.02%)
                                                  f 5.29( 31.37%)
 147. (0.00000) RY (14) C  3            s( 14.19%)p 0.55(  7.81%)d 4.91( 69.63%)
                                                  f 0.59(  8.37%)
 148. (0.00000) RY (15) C  3            s( 53.28%)p 0.02(  1.08%)d 0.59( 31.44%)
                                                  f 0.27( 14.20%)
 149. (0.00000) RY (16) C  3            s( 11.23%)p 1.44( 16.17%)d 5.83( 65.52%)
                                                  f 0.63(  7.08%)
 150. (0.00000) RY (17) C  3            s(  0.00%)p 1.00( 10.83%)d 4.69( 50.78%)
                                                  f 3.55( 38.39%)
 151. (0.00000) RY (18) C  3            s(  0.00%)p 1.00(  0.73%)d21.49( 15.71%)
                                                  f99.99( 83.56%)
 152. (0.00000) RY (19) C  3            s(  0.00%)p 1.00( 14.58%)d 1.60( 23.36%)
                                                  f 4.25( 62.06%)
 153. (0.00000) RY (20) C  3            s( 34.59%)p 0.01(  0.51%)d 0.46( 15.88%)
                                                  f 1.42( 49.03%)
 154. (0.00000) RY (21) C  3            s( 25.15%)p 0.01(  0.23%)d 1.14( 28.59%)
                                                  f 1.83( 46.03%)
 155. (0.00000) RY (22) C  3            s(  0.00%)p 1.00( 64.45%)d 0.47( 30.36%)
                                                  f 0.08(  5.19%)
 156. (0.00000) RY (23) C  3            s(  1.76%)p 0.28(  0.49%)d 2.97(  5.22%)
                                                  f52.62( 92.53%)
 157. (0.00000) RY (24) C  3            s(  0.00%)p 1.00(  2.49%)d 7.49( 18.61%)
                                                  f31.75( 78.90%)
 158. (0.00000) RY (25) C  3            s( 32.55%)p 0.08(  2.73%)d 1.72( 55.86%)
                                                  f 0.27(  8.86%)
 159. (0.00000) RY (26) C  3            s( 14.93%)p 0.11(  1.61%)d 1.39( 20.77%)
                                                  f 4.20( 62.68%)
 160. (0.00678) RY ( 1) N  4            s(  6.50%)p13.78( 89.54%)d 0.60(  3.87%)
                                                  f 0.01(  0.09%)
                                         0.0000  0.0095  0.2436 -0.0746 -0.0022
                                         0.0176 -0.0616 -0.0072  0.0373 -0.9430
                                         0.0254  0.0000  0.0000  0.0000  0.0447
                                        -0.0543  0.0000  0.0000  0.0000  0.0000
                                        -0.0730  0.1468 -0.0825  0.0100  0.0000
                                         0.0006  0.0202  0.0000  0.0000 -0.0027
                                        -0.0212
 161. (0.00191) RY ( 2) N  4            s(  1.22%)p78.52( 95.77%)d 2.36(  2.88%)
                                                  f 0.11(  0.13%)
                                         0.0000 -0.0014  0.1097 -0.0124 -0.0030
                                        -0.0224 -0.9646  0.1347  0.0106  0.0916
                                        -0.0047  0.0000 -0.0001  0.0000 -0.0521
                                         0.1420  0.0000  0.0000  0.0000  0.0000
                                         0.0215  0.0552 -0.0484  0.0062  0.0000
                                         0.0008  0.0031  0.0000  0.0000 -0.0334
                                         0.0143
 162. (0.00100) RY ( 3) N  4            s(  0.00%)p 1.00(  5.36%)d17.58( 94.17%)
                                                  f 0.09(  0.47%)
                                         0.0000  0.0000 -0.0001  0.0000  0.0000
                                         0.0000 -0.0001  0.0000  0.0000  0.0000
                                         0.0000 -0.0184  0.2279  0.0360  0.0000
                                         0.0000  0.7974  0.4948 -0.2458 -0.0248
                                         0.0000  0.0000  0.0000  0.0000 -0.0126
                                         0.0000  0.0000 -0.0123 -0.0666  0.0000
                                         0.0000
 163. (0.00064) RY ( 4) N  4            s( 86.40%)p 0.10(  8.73%)d 0.05(  4.23%)
                                                  f 0.01(  0.65%)
                                         0.0000 -0.0181  0.9240 -0.0984  0.0132
                                         0.0064  0.1524 -0.0358  0.0334  0.2277
                                        -0.0986  0.0000  0.0000  0.0000 -0.1327
                                         0.1022  0.0001  0.0000  0.0000  0.0000
                                         0.0199 -0.0277 -0.1141 -0.0059  0.0000
                                         0.0084 -0.0182  0.0000  0.0000 -0.0725
                                        -0.0288
 164. (0.00049) RY ( 5) N  4            s(  0.00%)p 1.00( 86.78%)d 0.15( 13.11%)
                                                  f 0.00(  0.11%)
                                         0.0000  0.0000  0.0000  0.0000  0.0000
                                         0.0000 -0.0001  0.0000  0.0000  0.0000
                                         0.0000  0.0072  0.9297  0.0592  0.0000
                                         0.0000 -0.2894 -0.0565 -0.1863  0.0973
                                         0.0000  0.0000  0.0000  0.0000 -0.0243
                                         0.0000  0.0000 -0.0173 -0.0138  0.0000
                                         0.0000
 165. (0.00019) RY ( 6) N  4            s(  5.13%)p 0.74(  3.81%)d16.38( 84.11%)
                                                  f 1.35(  6.95%)
                                         0.0000 -0.0161  0.0398  0.2215 -0.0211
                                         0.0113  0.0010 -0.0995 -0.0267 -0.1559
                                         0.0552  0.0000  0.0000  0.0000 -0.0561
                                         0.2350  0.0000  0.0000  0.0000  0.0000
                                         0.8089 -0.3073  0.1839 -0.0012  0.0000
                                         0.0175 -0.0757  0.0000  0.0000  0.0946
                                         0.2335
 166. (0.00010) RY ( 7) N  4            s(  2.04%)p 1.54(  3.14%)d42.87( 87.44%)
                                                  f 3.62(  7.39%)
 167. (0.00007) RY ( 8) N  4            s(  1.69%)p12.62( 21.33%)d37.40( 63.22%)
                                                  f 8.14( 13.76%)
 168. (0.00002) RY ( 9) N  4            s( 20.18%)p 1.42( 28.70%)d 2.46( 49.61%)
                                                  f 0.08(  1.52%)
 169. (0.00002) RY (10) N  4            s(  0.00%)p 1.00( 30.10%)d 2.27( 68.32%)
                                                  f 0.05(  1.58%)
 170. (0.00001) RY (11) N  4            s( 45.87%)p 0.19(  8.61%)d 0.64( 29.21%)
                                                  f 0.36( 16.31%)
 171. (0.00001) RY (12) N  4            s(  4.80%)p 5.70( 27.35%)d11.58( 55.56%)
                                                  f 2.56( 12.29%)
 172. (0.00001) RY (13) N  4            s(  0.00%)p 1.00(  6.93%)d12.40( 85.94%)
                                                  f 1.03(  7.13%)
 173. (0.00001) RY (14) N  4            s(  5.46%)p13.33( 72.78%)d 3.68( 20.09%)
                                                  f 0.31(  1.67%)
 174. (0.00000) RY (15) N  4            s(  0.51%)p11.35(  5.81%)d42.55( 21.79%)
                                                  f99.99( 71.88%)
 175. (0.00000) RY (16) N  4            s( 18.67%)p 1.40( 26.22%)d 2.73( 51.02%)
                                                  f 0.22(  4.08%)
 176. (0.00000) RY (17) N  4            s(  0.00%)p 1.00(  0.34%)d86.46( 29.37%)
                                                  f99.99( 70.29%)
 177. (0.00000) RY (18) N  4            s(  0.00%)p 1.00(  2.06%)d16.95( 34.89%)
                                                  f30.63( 63.05%)
 178. (0.00000) RY (19) N  4            s( 54.54%)p 0.01(  0.56%)d 0.69( 37.38%)
                                                  f 0.14(  7.53%)
 179. (0.00000) RY (20) N  4            s(  0.00%)p 1.00(  3.23%)d 6.84( 22.07%)
                                                  f23.15( 74.70%)
 180. (0.00000) RY (21) N  4            s(  0.91%)p 0.22(  0.20%)d 9.91(  8.98%)
                                                  f99.18( 89.91%)
 181. (0.00000) RY (22) N  4            s(  0.00%)p 1.00( 22.74%)d 1.30( 29.51%)
                                                  f 2.10( 47.74%)
 182. (0.00000) RY (23) N  4            s( 23.67%)p 0.04(  0.98%)d 1.72( 40.64%)
                                                  f 1.47( 34.72%)
 183. (0.00000) RY (24) N  4            s( 15.63%)p 0.32(  5.04%)d 1.18( 18.38%)
                                                  f 3.90( 60.95%)
 184. (0.00000) RY (25) N  4            s(  0.00%)p 1.00( 42.76%)d 0.52( 22.35%)
                                                  f 0.82( 34.89%)
 185. (0.00000) RY (26) N  4            s(  6.91%)p 0.34(  2.38%)d 2.98( 20.61%)
                                                  f10.15( 70.10%)
 186. (0.00668) RY ( 1) C  5            s( 44.10%)p 1.05( 46.53%)d 0.21(  9.33%)
                                                  f 0.00(  0.04%)
                                         0.0000 -0.0147  0.6630  0.0349  0.0034
                                         0.0372  0.6628  0.0358 -0.0445  0.0426
                                        -0.1394  0.0000 -0.0001  0.0000  0.1385
                                        -0.0558  0.0000  0.0000  0.0000  0.0000
                                         0.2066  0.1673  0.0075  0.0156  0.0000
                                         0.0106 -0.0009  0.0000  0.0000  0.0173
                                        -0.0047
 187. (0.00423) RY ( 2) C  5            s(  0.00%)p 1.00( 97.03%)d 0.03(  2.78%)
                                                  f 0.00(  0.19%)
                                         0.0000  0.0000  0.0001  0.0000  0.0000
                                         0.0000  0.0001  0.0000  0.0000 -0.0001
                                        -0.0001 -0.0268  0.9740 -0.1449  0.0000
                                         0.0000  0.1315 -0.0484 -0.0801 -0.0414
                                         0.0000  0.0000  0.0000  0.0000 -0.0402
                                         0.0000  0.0000 -0.0003 -0.0175  0.0000
                                         0.0000
 188. (0.00394) RY ( 3) C  5            s(  1.17%)p80.16( 93.54%)d 4.38(  5.11%)
                                                  f 0.16(  0.18%)
                                         0.0000 -0.0213  0.0904 -0.0541  0.0103
                                         0.0206 -0.0279  0.1485 -0.0110 -0.9166
                                        -0.2679  0.0000 -0.0002  0.0000 -0.0010
                                         0.0867  0.0000  0.0000  0.0000  0.0000
                                        -0.0298 -0.2030 -0.0378  0.0083  0.0000
                                         0.0299  0.0072  0.0000  0.0000  0.0112
                                         0.0276
 189. (0.00107) RY ( 4) C  5            s( 37.76%)p 1.44( 54.28%)d 0.14(  5.41%)
                                                  f 0.07(  2.55%)
                                         0.0000  0.0003  0.6135 -0.0268  0.0242
                                        -0.0117 -0.7063 -0.1138 -0.0159  0.0658
                                        -0.1619  0.0000  0.0000  0.0000 -0.0582
                                        -0.1338  0.0000  0.0000  0.0000  0.0000
                                         0.0803  0.1603 -0.0244  0.0017  0.0000
                                         0.0349 -0.0357  0.0000  0.0000 -0.1058
                                         0.1088
 190. (0.00049) RY ( 5) C  5            s(  0.00%)p 1.00(  2.74%)d33.72( 92.55%)
                                                  f 1.72(  4.71%)
                                         0.0000  0.0000  0.0000  0.0000  0.0000
                                         0.0000  0.0000  0.0000  0.0000  0.0000
                                         0.0000  0.0192 -0.1481 -0.0717  0.0000
                                         0.0000  0.9434 -0.0101 -0.1668  0.0865
                                         0.0000  0.0000  0.0000  0.0000  0.0784
                                         0.0000  0.0000 -0.0937 -0.1793  0.0000
                                         0.0000
 191. (0.00026) RY ( 6) C  5            s( 16.04%)p 1.31( 20.96%)d 3.29( 52.73%)
                                                  f 0.64( 10.28%)
                                         0.0000  0.0121  0.2067  0.3422  0.0208
                                         0.0029 -0.0307 -0.3663  0.0008 -0.0910
                                         0.2572  0.0000  0.0000  0.0000 -0.1158
                                         0.6674  0.0000  0.0000  0.0000  0.0000
                                        -0.1978  0.0900  0.1050 -0.1010  0.0000
                                        -0.0908  0.0911  0.0000  0.0000  0.2731
                                        -0.1079
 192. (0.00011) RY ( 7) C  5            s( 11.99%)p 4.58( 54.94%)d 2.42( 29.06%)
                                                  f 0.34(  4.02%)
                                         0.0000 -0.0049  0.1292  0.3211 -0.0045
                                         0.0171  0.0225  0.2898 -0.0154 -0.2096
                                         0.6484  0.0000  0.0000  0.0000 -0.1880
                                        -0.3092  0.0000  0.0000  0.0000  0.0000
                                        -0.2372  0.2088 -0.1597  0.1851  0.0000
                                         0.0110 -0.0825  0.0000  0.0000 -0.1791
                                         0.0347
 193. (0.00007) RY ( 8) C  5            s(  2.46%)p11.60( 28.57%)d20.31( 50.02%)
                                                  f 7.69( 18.95%)
 194. (0.00005) RY ( 9) C  5            s(  8.70%)p 1.87( 16.26%)d 8.20( 71.36%)
                                                  f 0.42(  3.69%)
 195. (0.00004) RY (10) C  5            s(  0.00%)p 1.00(  0.05%)d99.99( 87.65%)
                                                  f99.99( 12.30%)
 196. (0.00003) RY (11) C  5            s(  0.11%)p25.30(  2.79%)d99.99( 64.07%)
                                                  f99.99( 33.03%)
 197. (0.00001) RY (12) C  5            s(  2.22%)p 9.39( 20.81%)d10.29( 22.80%)
                                                  f24.43( 54.17%)
 198. (0.00001) RY (13) C  5            s( 62.16%)p 0.38( 23.91%)d 0.12(  7.64%)
                                                  f 0.10(  6.29%)
 199. (0.00001) RY (14) C  5            s(  6.04%)p 3.10( 18.73%)d12.01( 72.57%)
                                                  f 0.44(  2.66%)
 200. (0.00001) RY (15) C  5            s(  0.00%)p 1.00(  1.05%)d78.87( 82.99%)
                                                  f15.17( 15.96%)
 201. (0.00000) RY (16) C  5            s(  3.31%)p 2.23(  7.38%)d15.68( 51.99%)
                                                  f11.26( 37.32%)
 202. (0.00000) RY (17) C  5            s(  0.00%)p 1.00( 13.10%)d 3.80( 49.85%)
                                                  f 2.83( 37.05%)
 203. (0.00000) RY (18) C  5            s(  0.39%)p 3.05(  1.20%)d26.19( 10.34%)
                                                  f99.99( 88.06%)
 204. (0.00000) RY (19) C  5            s( 48.39%)p 0.00(  0.11%)d 0.67( 32.30%)
                                                  f 0.40( 19.20%)
 205. (0.00000) RY (20) C  5            s(  0.00%)p 1.00( 17.55%)d 0.87( 15.19%)
                                                  f 3.83( 67.26%)
 206. (0.00000) RY (21) C  5            s(  0.00%)p 1.00(  0.34%)d15.90(  5.37%)
                                                  f99.99( 94.29%)
 207. (0.00000) RY (22) C  5            s( 28.76%)p 0.01(  0.24%)d 0.22(  6.32%)
                                                  f 2.25( 64.68%)
 208. (0.00000) RY (23) C  5            s( 24.36%)p 0.07(  1.76%)d 2.43( 59.12%)
                                                  f 0.61( 14.76%)
 209. (0.00000) RY (24) C  5            s(  1.95%)p 4.31(  8.41%)d25.45( 49.62%)
                                                  f20.52( 40.01%)
 210. (0.00000) RY (25) C  5            s(  0.00%)p 1.00( 67.86%)d 0.18( 12.04%)
                                                  f 0.30( 20.10%)
 211. (0.00000) RY (26) C  5            s(  0.00%)p 1.00(  0.35%)d99.99( 51.55%)
                                                  f99.99( 48.10%)
 212. (0.00698) RY ( 1) C  6            s(  3.19%)p29.16( 93.10%)d 1.13(  3.59%)
                                                  f 0.03(  0.11%)
                                         0.0000  0.0099  0.1781 -0.0028 -0.0101
                                         0.0107 -0.9631 -0.0001  0.0074  0.0531
                                         0.0214  0.0000  0.0000  0.0000  0.0268
                                         0.1762  0.0000  0.0000  0.0000  0.0000
                                         0.0266  0.0549 -0.0144  0.0162  0.0000
                                         0.0193 -0.0119  0.0000  0.0000  0.0138
                                         0.0203
 213. (0.00253) RY ( 2) C  6            s(  7.01%)p12.57( 88.06%)d 0.69(  4.83%)
                                                  f 0.01(  0.10%)
                                         0.0000  0.0030  0.2644  0.0100  0.0061
                                         0.0048 -0.0026  0.0353 -0.0162 -0.9332
                                        -0.0905  0.0000  0.0000  0.0000  0.0069
                                        -0.0681  0.0000  0.0000  0.0000  0.0000
                                         0.0844  0.1734 -0.0600  0.0530  0.0000
                                         0.0038  0.0221  0.0000  0.0000  0.0196
                                         0.0120
 214. (0.00150) RY ( 3) C  6            s(  0.00%)p 1.00( 69.75%)d 0.41( 28.75%)
                                                  f 0.02(  1.49%)
                                         0.0000  0.0000  0.0000  0.0000  0.0000
                                         0.0000  0.0000  0.0000  0.0000  0.0000
                                         0.0000 -0.0054  0.8283 -0.1072  0.0000
                                         0.0000 -0.4733  0.0950 -0.2320  0.0261
                                         0.0000  0.0000  0.0000  0.0000 -0.0438
                                         0.0000  0.0000 -0.0869 -0.0739  0.0000
                                         0.0000
 215. (0.00071) RY ( 4) C  6            s( 41.08%)p 0.30( 12.21%)d 1.00( 41.05%)
                                                  f 0.14(  5.66%)
                                         0.0000 -0.0023  0.6311  0.1111  0.0146
                                         0.0038  0.0772  0.1965  0.0009  0.1514
                                         0.2337  0.0000 -0.0001  0.0000  0.2367
                                        -0.2840 -0.0002  0.0000  0.0000  0.0000
                                         0.3171 -0.4056 -0.0692  0.0630  0.0000
                                        -0.0607 -0.0884  0.0000  0.0000  0.1692
                                         0.1284
 216. (0.00069) RY ( 5) C  6            s(  0.00%)p 1.00( 23.48%)d 3.14( 73.79%)
                                                  f 0.12(  2.73%)
                                         0.0000  0.0000  0.0001  0.0000  0.0000
                                         0.0000  0.0000  0.0000  0.0000  0.0000
                                         0.0001 -0.0213  0.4606 -0.1489  0.0000
                                         0.0000  0.8361  0.1296  0.0255  0.1461
                                         0.0001 -0.0001  0.0000  0.0000 -0.0258
                                         0.0000  0.0000  0.0139  0.1625  0.0000
                                         0.0000
 217. (0.00035) RY ( 6) C  6            s( 18.77%)p 0.76( 14.18%)d 3.15( 59.21%)
                                                  f 0.42(  7.85%)
                                         0.0000 -0.0029  0.3559 -0.2466  0.0151
                                         0.0012  0.0724 -0.0528  0.0080  0.2047
                                         0.3029  0.0000  0.0000  0.0000  0.0549
                                        -0.2400  0.0000  0.0000  0.0000  0.0000
                                        -0.0709  0.7174  0.0571 -0.0920  0.0000
                                         0.0294  0.2290  0.0000  0.0000 -0.0717
                                        -0.1416
 218. (0.00023) RY ( 7) C  6            s( 16.88%)p 0.67( 11.31%)d 2.00( 33.76%)
                                                  f 2.25( 38.05%)
                                         0.0000 -0.0057  0.3274 -0.2480  0.0088
                                         0.0051  0.1603  0.1059 -0.0016  0.0661
                                        -0.2679  0.0000  0.0000  0.0000 -0.0010
                                         0.5668 -0.0001  0.0000  0.0001  0.0001
                                        -0.0001 -0.0167  0.0650 -0.1083  0.0000
                                         0.1954 -0.0922  0.0000 -0.0001  0.3843
                                        -0.4315
 219. (0.00023) RY ( 8) C  6            s(  0.00%)p 1.00(  1.36%)d71.37( 97.24%)
                                                  f 1.02(  1.39%)
                                         0.0000  0.0000 -0.0001  0.0001  0.0000
                                         0.0000  0.0000  0.0000  0.0000  0.0000
                                         0.0000  0.0026  0.1121  0.0325  0.0000
                                        -0.0001 -0.1463 -0.2130  0.6786  0.6672
                                         0.0000  0.0000  0.0000  0.0001 -0.0401
                                         0.0000  0.0000  0.0724 -0.0842 -0.0001
                                         0.0001
 220. (0.00013) RY ( 9) C  6            s(  4.12%)p 5.70( 23.48%)d15.85( 65.34%)
                                                  f 1.71(  7.06%)
                                         0.0000  0.0087  0.1726 -0.0414 -0.0982
                                        -0.0197  0.0479 -0.1155  0.0041 -0.0574
                                         0.4642  0.0000  0.0000  0.0000 -0.7602
                                         0.1852  0.0000  0.0000  0.0000  0.0000
                                        -0.1530 -0.1154  0.0645 -0.0171  0.0000
                                        -0.0116 -0.0631  0.0000  0.0000  0.1233
                                         0.2264
 221. (0.00007) RY (10) C  6            s( 10.90%)p 2.15( 23.40%)d 1.52( 16.55%)
                                                  f 4.51( 49.15%)
 222. (0.00005) RY (11) C  6            s( 13.57%)p 4.66( 63.22%)d 1.35( 18.35%)
                                                  f 0.36(  4.85%)
 223. (0.00002) RY (12) C  6            s( 39.08%)p 0.76( 29.68%)d 0.70( 27.55%)
                                                  f 0.09(  3.69%)
 224. (0.00001) RY (13) C  6            s( 16.02%)p 1.42( 22.75%)d 2.31( 36.98%)
                                                  f 1.51( 24.25%)
 225. (0.00001) RY (14) C  6            s(  0.00%)p 1.00(  7.36%)d 1.71( 12.58%)
                                                  f10.88( 80.06%)
 226. (0.00001) RY (15) C  6            s(  4.79%)p 1.90(  9.07%)d15.51( 74.23%)
                                                  f 2.49( 11.92%)
 227. (0.00000) RY (16) C  6            s(  7.33%)p 0.33(  2.41%)d 5.66( 41.47%)
                                                  f 6.66( 48.79%)
 228. (0.00000) RY (17) C  6            s( 21.58%)p 0.06(  1.40%)d 2.58( 55.73%)
                                                  f 0.99( 21.30%)
 229. (0.00000) RY (18) C  6            s(  0.00%)p 1.00(  1.94%)d36.69( 71.04%)
                                                  f13.96( 27.02%)
 230. (0.00000) RY (19) C  6            s(  4.34%)p 0.06(  0.26%)d19.16( 83.07%)
                                                  f 2.84( 12.33%)
 231. (0.00000) RY (20) C  6            s(  0.00%)p 1.00(  5.85%)d14.28( 83.57%)
                                                  f 1.81( 10.58%)
 232. (0.00000) RY (21) C  6            s(  0.00%)p 1.00( 90.08%)d 0.03(  2.76%)
                                                  f 0.08(  7.17%)
 233. (0.00000) RY (22) C  6            s( 14.00%)p 0.04(  0.59%)d 0.56(  7.83%)
                                                  f 5.54( 77.58%)
 234. (0.00000) RY (23) C  6            s( 69.74%)p 0.00(  0.18%)d 0.24( 16.88%)
                                                  f 0.19( 13.20%)
 235. (0.00000) RY (24) C  6            s(  7.73%)p 0.64(  4.92%)d 1.73( 13.39%)
                                                  f 9.56( 73.96%)
 236. (0.00000) RY (25) C  6            s(  0.00%)p 1.00(  0.18%)d35.62(  6.31%)
                                                  f99.99( 93.51%)
 237. (0.00000) RY (26) C  6            s(  0.00%)p 1.00(  0.07%)d99.99( 23.93%)
                                                  f99.99( 76.01%)
 238. (0.00482) RY ( 1) C  7            s(  0.48%)p99.99( 90.66%)d17.84(  8.56%)
                                                  f 0.62(  0.30%)
                                         0.0000 -0.0048 -0.0310  0.0617  0.0038
                                        -0.0161  0.7875  0.0273  0.0123 -0.5339
                                        -0.0156  0.0000  0.0000  0.0000 -0.0450
                                         0.2813  0.0000  0.0000  0.0000  0.0000
                                         0.0015 -0.0660 -0.0034  0.0106  0.0000
                                        -0.0319  0.0376  0.0000  0.0000  0.0229
                                        -0.0045
 239. (0.00211) RY ( 2) C  7            s(  1.64%)p58.66( 96.14%)d 0.64(  1.05%)
                                                  f 0.71(  1.17%)
                                         0.0000  0.0065  0.1277  0.0066 -0.0007
                                         0.0244  0.5654  0.0024  0.0229  0.7985
                                         0.0549  0.0000  0.0001  0.0000 -0.0090
                                        -0.0192  0.0000  0.0000  0.0000  0.0000
                                         0.0058  0.0989  0.0148 -0.0005  0.0000
                                        -0.0043 -0.0144  0.0000  0.0000 -0.0959
                                         0.0475
 240. (0.00111) RY ( 3) C  7            s( 80.86%)p 0.03(  2.12%)d 0.20( 16.55%)
                                                  f 0.01(  0.46%)
                                         0.0000 -0.0063  0.8827  0.1713  0.0006
                                        -0.0149 -0.1196  0.0401 -0.0066 -0.0543
                                        -0.0460  0.0000 -0.0003  0.0001 -0.3083
                                         0.2298 -0.0001  0.0001  0.0000  0.0000
                                         0.0343  0.0141 -0.1163  0.0528  0.0000
                                        -0.0400  0.0231  0.0000  0.0000 -0.0376
                                        -0.0330
 241. (0.00108) RY ( 4) C  7            s(  0.00%)p 1.00( 94.16%)d 0.05(  4.71%)
                                                  f 0.01(  1.13%)
                                         0.0000  0.0000  0.0003  0.0001  0.0000
                                         0.0000 -0.0001  0.0000  0.0000 -0.0001
                                         0.0000 -0.0188  0.9462 -0.2143 -0.0001
                                         0.0001  0.1388 -0.1196  0.1125  0.0295
                                         0.0000  0.0000  0.0000  0.0000 -0.0633
                                         0.0000  0.0000 -0.0846  0.0112  0.0000
                                         0.0000
 242. (0.00033) RY ( 5) C  7            s(  1.38%)p 4.85(  6.68%)d51.23( 70.47%)
                                                  f15.61( 21.47%)
                                         0.0000  0.0003  0.0066  0.1163 -0.0141
                                        -0.0008  0.0253  0.1286 -0.0048  0.1107
                                         0.1932  0.0000  0.0000  0.0000  0.0114
                                        -0.0905  0.0000  0.0000  0.0000  0.0000
                                         0.4262 -0.7121 -0.0735  0.0470  0.0000
                                         0.0925  0.0913  0.0000  0.0000  0.3321
                                        -0.2959
 243. (0.00027) RY ( 6) C  7            s(  0.00%)p 1.00(  0.54%)d99.99( 97.74%)
                                                  f 3.15(  1.71%)
                                         0.0000  0.0000  0.0000  0.0000  0.0000
                                         0.0000  0.0000  0.0000  0.0000  0.0000
                                         0.0000 -0.0049 -0.0685 -0.0270  0.0000
                                         0.0000  0.3071  0.5637  0.5192  0.5439
                                         0.0000  0.0001  0.0000  0.0000  0.0149
                                         0.0000  0.0000 -0.1252 -0.0352  0.0000
                                         0.0000
 244. (0.00020) RY ( 7) C  7            s(  0.00%)p 1.00(  1.87%)d49.39( 92.12%)
                                                  f 3.22(  6.01%)
                                         0.0000  0.0000  0.0000  0.0000  0.0000
                                         0.0000  0.0000  0.0000  0.0000  0.0000
                                         0.0000 -0.0181 -0.1235  0.0555  0.0000
                                         0.0000  0.7988 -0.3608 -0.3369  0.1985
                                         0.0000  0.0000  0.0000  0.0000 -0.0311
                                         0.0000  0.0000 -0.0830 -0.2286  0.0000
                                         0.0000
 245. (0.00016) RY ( 8) C  7            s( 13.85%)p 1.42( 19.61%)d 4.41( 61.01%)
                                                  f 0.40(  5.53%)
                                         0.0000 -0.0019  0.3712  0.0134  0.0225
                                        -0.0168  0.1349 -0.3919 -0.0029 -0.1550
                                         0.0046  0.0000  0.0000  0.0000  0.6124
                                        -0.4537  0.0000  0.0000  0.0000  0.0000
                                         0.1048  0.1254  0.0455 -0.0177  0.0000
                                         0.1072 -0.1253  0.0000  0.0000  0.1663
                                        -0.0223
 246. (0.00005) RY ( 9) C  7            s( 12.63%)p 3.20( 40.43%)d 2.47( 31.16%)
                                                  f 1.25( 15.78%)
 247. (0.00003) RY (10) C  7            s(  5.94%)p 4.09( 24.30%)d 7.73( 45.94%)
                                                  f 4.01( 23.81%)
 248. (0.00002) RY (11) C  7            s( 24.90%)p 0.44( 11.07%)d 1.82( 45.33%)
                                                  f 0.75( 18.70%)
 249. (0.00001) RY (12) C  7            s(  0.79%)p41.41( 32.67%)d79.18( 62.46%)
                                                  f 5.18(  4.08%)
 250. (0.00001) RY (13) C  7            s(  2.16%)p 3.02(  6.53%)d13.24( 28.62%)
                                                  f29.01( 62.69%)
 251. (0.00001) RY (14) C  7            s(  5.84%)p 4.17( 24.35%)d 5.66( 33.02%)
                                                  f 6.30( 36.80%)
 252. (0.00000) RY (15) C  7            s(  0.00%)p 1.00( 75.81%)d 0.30( 22.83%)
                                                  f 0.02(  1.37%)
 253. (0.00000) RY (16) C  7            s(  4.85%)p 6.74( 32.72%)d12.16( 59.01%)
                                                  f 0.70(  3.42%)
 254. (0.00000) RY (17) C  7            s(  0.00%)p 1.00(  2.22%)d38.87( 86.19%)
                                                  f 5.23( 11.60%)
 255. (0.00000) RY (18) C  7            s(  0.00%)p 1.00(  0.08%)d99.99( 10.91%)
                                                  f99.99( 89.01%)
 256. (0.00000) RY (19) C  7            s(  0.00%)p 1.00(  1.24%)d 4.36(  5.41%)
                                                  f75.15( 93.34%)
 257. (0.00000) RY (20) C  7            s( 42.25%)p 0.00(  0.09%)d 0.23(  9.61%)
                                                  f 1.14( 48.05%)
 258. (0.00000) RY (21) C  7            s(  0.00%)p 1.00( 22.90%)d 3.35( 76.61%)
                                                  f 0.02(  0.49%)
 259. (0.00000) RY (22) C  7            s(  9.05%)p 0.11(  0.97%)d 1.51( 13.66%)
                                                  f 8.44( 76.33%)
 260. (0.00000) RY (23) C  7            s( 35.97%)p 0.02(  0.67%)d 0.11(  3.81%)
                                                  f 1.66( 59.55%)
 261. (0.00000) RY (24) C  7            s( 21.69%)p 0.02(  0.50%)d 3.57( 77.55%)
                                                  f 0.01(  0.26%)
 262. (0.00000) RY (25) C  7            s( 35.87%)p 0.30( 10.82%)d 0.89( 31.86%)
                                                  f 0.60( 21.46%)
 263. (0.00000) RY (26) C  7            s(  0.00%)p 1.00(  1.28%)d 2.68(  3.42%)
                                                  f74.59( 95.30%)
 264. (0.00399) RY ( 1) C  8            s(  4.29%)p20.69( 88.77%)d 1.51(  6.49%)
                                                  f 0.11(  0.45%)
                                         0.0000  0.0038  0.2069  0.0055 -0.0059
                                        -0.0095 -0.0141  0.0154 -0.0203  0.9414
                                         0.0220  0.0000  0.0000  0.0000  0.0484
                                         0.0910  0.0000  0.0000  0.0000  0.0000
                                        -0.0543 -0.2253 -0.0237  0.0056  0.0000
                                        -0.0038 -0.0381  0.0000  0.0000 -0.0381
                                         0.0400
 265. (0.00113) RY ( 2) C  8            s( 15.95%)p 4.89( 77.98%)d 0.35(  5.57%)
                                                  f 0.03(  0.50%)
                                         0.0000 -0.0071  0.3964  0.0474 -0.0002
                                         0.0399  0.8388  0.2586 -0.0052 -0.0688
                                        -0.0540  0.0000  0.0000  0.0000  0.0096
                                         0.0367  0.0000  0.0000  0.0000  0.0000
                                        -0.1644  0.1109 -0.1102  0.0532  0.0000
                                         0.0507  0.0249  0.0000  0.0000 -0.0192
                                         0.0382
 266. (0.00098) RY ( 3) C  8            s(  0.00%)p 1.00( 74.46%)d 0.32( 23.77%)
                                                  f 0.02(  1.77%)
                                         0.0000  0.0000  0.0000  0.0000  0.0000
                                         0.0000  0.0000  0.0000  0.0000  0.0000
                                         0.0000 -0.0116  0.8361 -0.2132  0.0000
                                         0.0000  0.2748  0.0362  0.3627 -0.1711
                                         0.0000  0.0000  0.0000  0.0000 -0.0235
                                         0.0000  0.0000  0.1299 -0.0168  0.0000
                                         0.0000
 267. (0.00057) RY ( 4) C  8            s( 38.89%)p 0.54( 21.13%)d 0.96( 37.20%)
                                                  f 0.07(  2.78%)
                                         0.0000 -0.0048  0.6176  0.0850 -0.0149
                                        -0.0139 -0.3913 -0.2081  0.0077 -0.0841
                                        -0.0872  0.0000  0.0000  0.0000  0.1339
                                        -0.2281  0.0000  0.0000  0.0000  0.0000
                                        -0.4485  0.2924 -0.1159  0.0443  0.0000
                                         0.0284  0.0739  0.0000  0.0000 -0.0072
                                         0.1464
 268. (0.00036) RY ( 5) C  8            s(  0.00%)p 1.00(  9.37%)d 9.47( 88.71%)
                                                  f 0.21(  1.92%)
                                         0.0000  0.0000  0.0000  0.0000  0.0000
                                         0.0000  0.0000  0.0000  0.0000  0.0000
                                         0.0000  0.0176 -0.2938  0.0840  0.0000
                                         0.0000  0.8291  0.4037 -0.0214 -0.1905
                                         0.0000  0.0000  0.0000  0.0000  0.0396
                                         0.0000  0.0000 -0.0026  0.1329  0.0000
                                         0.0000
 269. (0.00029) RY ( 6) C  8            s(  4.81%)p 0.43(  2.05%)d11.34( 54.52%)
                                                  f 8.04( 38.63%)
                                         0.0000 -0.0001  0.2103  0.0559  0.0269
                                         0.0049  0.0635 -0.0199  0.0049 -0.0208
                                         0.1247  0.0000  0.0000  0.0000  0.1011
                                        -0.6199  0.0000  0.0000  0.0000  0.0000
                                         0.2156 -0.3205  0.0328 -0.0205  0.0000
                                        -0.1696  0.0334  0.0000  0.0000  0.4427
                                        -0.4005
 270. (0.00017) RY ( 7) C  8            s( 31.04%)p 0.58( 18.03%)d 1.37( 42.65%)
                                                  f 0.27(  8.28%)
                                         0.0000  0.0006  0.5504  0.0128  0.0855
                                        -0.0032 -0.1617  0.0821  0.0179 -0.1230
                                         0.3632  0.0000  0.0000  0.0000 -0.2694
                                         0.3295  0.0000  0.0000  0.0000  0.0000
                                         0.4379  0.0010  0.1800 -0.1456  0.0000
                                         0.0403 -0.0809  0.0000  0.0000 -0.2030
                                        -0.1827
 271. (0.00004) RY ( 8) C  8            s(  0.00%)p 1.00( 12.38%)d 6.89( 85.22%)
                                                  f 0.19(  2.41%)
 272. (0.00002) RY ( 9) C  8            s(  3.44%)p15.24( 52.43%)d11.25( 38.70%)
                                                  f 1.58(  5.43%)
 273. (0.00001) RY (10) C  8            s(  2.22%)p 3.22(  7.15%)d16.87( 37.50%)
                                                  f23.91( 53.13%)
 274. (0.00001) RY (11) C  8            s(  6.07%)p 8.65( 52.47%)d 4.91( 29.75%)
                                                  f 1.93( 11.72%)
 275. (0.00001) RY (12) C  8            s( 38.06%)p 0.14(  5.38%)d 1.34( 51.15%)
                                                  f 0.14(  5.41%)
 276. (0.00000) RY (13) C  8            s( 31.72%)p 0.61( 19.28%)d 1.31( 41.62%)
                                                  f 0.23(  7.38%)
 277. (0.00000) RY (14) C  8            s(  7.79%)p 0.33(  2.60%)d 1.91( 14.87%)
                                                  f 9.60( 74.74%)
 278. (0.00000) RY (15) C  8            s( 14.10%)p 0.67(  9.46%)d 3.93( 55.46%)
                                                  f 1.49( 20.97%)
 279. (0.00000) RY (16) C  8            s( 10.18%)p 0.89(  9.08%)d 6.98( 71.09%)
                                                  f 0.95(  9.64%)
 280. (0.00000) RY (17) C  8            s(  0.00%)p 1.00(  0.61%)d 6.69(  4.11%)
                                                  f99.99( 95.27%)
 281. (0.00000) RY (18) C  8            s(  0.00%)p 1.00(  0.10%)d99.99( 46.79%)
                                                  f99.99( 53.12%)
 282. (0.00000) RY (19) C  8            s(  0.00%)p 1.00(  0.52%)d98.43( 51.34%)
                                                  f92.30( 48.14%)
 283. (0.00000) RY (20) C  8            s(  0.00%)p 1.00(  3.72%)d21.84( 81.26%)
                                                  f 4.04( 15.02%)
 284. (0.00000) RY (21) C  8            s(  0.89%)p 0.69(  0.61%)d17.09( 15.26%)
                                                  f93.17( 83.23%)
 285. (0.00000) RY (22) C  8            s(  0.00%)p 1.00( 11.81%)d 1.35( 15.96%)
                                                  f 6.12( 72.24%)
 286. (0.00000) RY (23) C  8            s( 28.95%)p 0.30(  8.57%)d 1.89( 54.69%)
                                                  f 0.27(  7.79%)
 287. (0.00000) RY (24) C  8            s( 60.18%)p 0.04(  2.30%)d 0.56( 33.45%)
                                                  f 0.07(  4.08%)
 288. (0.00000) RY (25) C  8            s(  0.00%)p 1.00( 87.11%)d 0.03(  2.81%)
                                                  f 0.12( 10.07%)
 289. (0.00000) RY (26) C  8            s(  1.57%)p14.70( 23.05%)d 6.17(  9.68%)
                                                  f41.91( 65.71%)
 290. (0.00611) RY ( 1) C  9            s(  7.80%)p10.70( 83.45%)d 1.11(  8.63%)
                                                  f 0.01(  0.11%)
                                         0.0000 -0.0134  0.2788 -0.0059  0.0072
                                        -0.0250  0.2937 -0.1194  0.0513  0.8512
                                         0.0783  0.0000  0.0000  0.0000  0.1566
                                         0.1617  0.0000  0.0000  0.0000  0.0000
                                         0.1651  0.0371 -0.0642  0.0539  0.0000
                                        -0.0107 -0.0015  0.0000  0.0000  0.0045
                                        -0.0318
 291. (0.00444) RY ( 2) C  9            s(  0.07%)p99.99( 95.14%)d65.17(  4.34%)
                                                  f 6.72(  0.45%)
                                         0.0000 -0.0151  0.0190 -0.0054  0.0069
                                         0.0125 -0.9136 -0.0941  0.0507  0.3096
                                         0.0961  0.0000  0.0000  0.0000 -0.0010
                                        -0.0653  0.0000  0.0000  0.0000  0.0000
                                        -0.0420 -0.1868 -0.0401  0.0296  0.0000
                                         0.0292  0.0505  0.0000  0.0000 -0.0076
                                         0.0320
 292. (0.00329) RY ( 3) C  9            s(  0.00%)p 1.00( 82.66%)d 0.21( 16.98%)
                                                  f 0.00(  0.36%)
                                         0.0000  0.0000  0.0000  0.0000  0.0000
                                         0.0000  0.0000  0.0000  0.0000  0.0000
                                         0.0000 -0.0090  0.8798 -0.2291  0.0000
                                         0.0000  0.2223 -0.1889  0.2894 -0.0306
                                         0.0000  0.0000  0.0000  0.0000 -0.0231
                                         0.0000  0.0000 -0.0501 -0.0239  0.0000
                                         0.0000
 293. (0.00060) RY ( 4) C  9            s( 40.18%)p 0.43( 17.38%)d 0.97( 38.97%)
                                                  f 0.09(  3.47%)
                                         0.0000 -0.0072  0.6251  0.1045  0.0079
                                         0.0171 -0.0207 -0.1300  0.0046 -0.3084
                                        -0.2471  0.0000  0.0000  0.0000  0.2003
                                         0.1932  0.0000  0.0000  0.0000  0.0000
                                         0.2488 -0.4670 -0.1216  0.1324  0.0000
                                         0.0429 -0.0110  0.0000  0.0000 -0.1762
                                         0.0413
 294. (0.00049) RY ( 5) C  9            s(  0.00%)p 1.00(  3.53%)d26.70( 94.30%)
                                                  f 0.62(  2.17%)
                                         0.0000  0.0000  0.0000  0.0000  0.0000
                                         0.0000  0.0000  0.0000  0.0000  0.0000
                                         0.0000  0.0172 -0.1517  0.1095  0.0000
                                         0.0000 -0.3690 -0.0283  0.8626  0.2487
                                         0.0000  0.0000  0.0001  0.0000  0.0419
                                         0.0000  0.0000  0.0484  0.1328  0.0000
                                         0.0000
 295. (0.00031) RY ( 6) C  9            s( 36.54%)p 0.21(  7.73%)d 1.26( 46.11%)
                                                  f 0.26(  9.62%)
                                         0.0000 -0.0050  0.6032 -0.0156  0.0358
                                         0.0128 -0.0518  0.2479  0.0144 -0.0648
                                         0.0929  0.0000  0.0000  0.0000  0.0473
                                        -0.5201  0.0000  0.0000  0.0000  0.0000
                                        -0.1569  0.3849 -0.1144  0.0492  0.0000
                                         0.0569  0.0348  0.0000  0.0000  0.2998
                                        -0.0430
 296. (0.00007) RY ( 7) C  9            s(  3.89%)p18.98( 73.79%)d 4.91( 19.09%)
                                                  f 0.83(  3.23%)
 297. (0.00004) RY ( 8) C  9            s(  1.57%)p 5.75(  9.05%)d34.88( 54.90%)
                                                  f21.90( 34.48%)
 298. (0.00001) RY ( 9) C  9            s( 29.20%)p 0.46( 13.42%)d 1.75( 51.16%)
                                                  f 0.21(  6.23%)
 299. (0.00001) RY (10) C  9            s(  1.02%)p46.76( 47.58%)d39.26( 39.95%)
                                                  f11.26( 11.45%)
 300. (0.00001) RY (11) C  9            s( 36.61%)p 0.66( 24.23%)d 0.94( 34.45%)
                                                  f 0.13(  4.71%)
 301. (0.00000) RY (12) C  9            s( 10.82%)p 1.30( 14.10%)d 6.03( 65.30%)
                                                  f 0.90(  9.78%)
 302. (0.00000) RY (13) C  9            s(  0.00%)p 1.00( 61.38%)d 0.23( 14.41%)
                                                  f 0.39( 24.22%)
 303. (0.00000) RY (14) C  9            s( 18.09%)p 0.13(  2.35%)d 3.26( 58.96%)
                                                  f 1.14( 20.60%)
 304. (0.00000) RY (15) C  9            s( 12.87%)p 0.03(  0.41%)d 4.24( 54.57%)
                                                  f 2.50( 32.14%)
 305. (0.00000) RY (16) C  9            s(  5.66%)p 0.30(  1.67%)d 2.80( 15.81%)
                                                  f13.59( 76.87%)
 306. (0.00000) RY (17) C  9            s(  0.00%)p 1.00(  1.24%)d 5.70(  7.08%)
                                                  f73.73( 91.67%)
 307. (0.00000) RY (18) C  9            s(  0.00%)p 1.00(  0.07%)d99.99( 11.64%)
                                                  f99.99( 88.28%)
 308. (0.00000) RY (19) C  9            s(  0.00%)p 1.00(  9.32%)d 2.50( 23.32%)
                                                  f 7.23( 67.36%)
 309. (0.00000) RY (20) C  9            s(  0.00%)p 1.00(  1.36%)d64.04( 86.94%)
                                                  f 8.62( 11.70%)
 310. (0.00000) RY (21) C  9            s(  0.00%)p 1.00( 13.89%)d 5.73( 79.58%)
                                                  f 0.47(  6.54%)
 311. (0.00000) RY (22) C  9            s(  4.64%)p 0.04(  0.20%)d 1.80(  8.34%)
                                                  f18.70( 86.82%)
 312. (0.00000) RY (23) C  9            s( 58.56%)p 0.06(  3.49%)d 0.26( 15.04%)
                                                  f 0.39( 22.90%)
 313. (0.00000) RY (24) C  9            s( 14.63%)p 0.08(  1.16%)d 1.78( 26.00%)
                                                  f 3.98( 58.21%)
 314. (0.00000) RY (25) C  9            s(  0.00%)p 1.00( 26.64%)d 2.47( 65.70%)
                                                  f 0.29(  7.67%)
 315. (0.00000) RY (26) C  9            s( 17.87%)p 0.29(  5.18%)d 3.25( 58.15%)
                                                  f 1.05( 18.80%)
 316. (0.00499) RY ( 1) N 10            s(  2.51%)p36.22( 91.10%)d 2.53(  6.36%)
                                                  f 0.01(  0.03%)
                                         0.0000  0.0067  0.1488 -0.0545 -0.0006
                                         0.0335 -0.7169 -0.0168 -0.0297  0.6277
                                         0.0271  0.0000  0.0000  0.0000 -0.1296
                                         0.1988  0.0000  0.0000  0.0000  0.0000
                                         0.0057 -0.0321 -0.0788 -0.0021  0.0000
                                         0.0063 -0.0095  0.0000  0.0000 -0.0110
                                        -0.0086
 317. (0.00107) RY ( 2) N 10            s(  1.86%)p50.14( 93.45%)d 2.48(  4.62%)
                                                  f 0.03(  0.06%)
                                         0.0000 -0.0012  0.1336 -0.0280  0.0004
                                         0.0377  0.6412  0.1286  0.0409  0.6936
                                         0.1508  0.0000  0.0000  0.0000  0.0095
                                        -0.0220  0.0000  0.0000  0.0000  0.0000
                                         0.1762 -0.1190 -0.0211  0.0028  0.0000
                                         0.0014  0.0004  0.0000  0.0000 -0.0155
                                         0.0184
 318. (0.00085) RY ( 3) N 10            s(  0.00%)p 1.00( 91.64%)d 0.08(  7.71%)
                                                  f 0.01(  0.66%)
                                         0.0000  0.0000  0.0000  0.0000  0.0000
                                         0.0000  0.0000  0.0000  0.0000  0.0000
                                         0.0000  0.0224  0.9552 -0.0583  0.0000
                                         0.0000  0.1148 -0.0447 -0.2347 -0.0823
                                         0.0000  0.0000  0.0000  0.0000 -0.0116
                                         0.0000  0.0000  0.0066  0.0801  0.0000
                                         0.0000
 319. (0.00035) RY ( 4) N 10            s( 68.59%)p 0.11(  7.26%)d 0.35( 23.96%)
                                                  f 0.00(  0.18%)
                                         0.0000 -0.0031  0.8191 -0.1226  0.0065
                                         0.0157  0.0915  0.0511 -0.0322 -0.2343
                                        -0.0740  0.0000  0.0000  0.0000 -0.4112
                                         0.0595  0.0002  0.0002  0.0002  0.0002
                                        -0.0404 -0.0243 -0.2531  0.0269  0.0000
                                         0.0166 -0.0266 -0.0001  0.0000  0.0116
                                         0.0260
 320. (0.00034) RY ( 5) N 10            s(  0.00%)p 1.00(  0.88%)d99.99( 97.63%)
                                                  f 1.68(  1.49%)
                                         0.0000  0.0000  0.0003  0.0000  0.0000
                                         0.0000  0.0000  0.0000  0.0000 -0.0001
                                         0.0000 -0.0059 -0.0935 -0.0078 -0.0001
                                         0.0000 -0.5719 -0.4339 -0.3749 -0.5661
                                         0.0000  0.0000 -0.0001  0.0000 -0.0035
                                         0.0000  0.0000  0.1219 -0.0024  0.0000
                                         0.0000
 321. (0.00013) RY ( 6) N 10            s(  0.37%)p53.55( 19.65%)d99.99( 67.46%)
                                                  f34.14( 12.53%)
                                         0.0000 -0.0023  0.0598  0.0093  0.0006
                                        -0.0196 -0.0047 -0.2454 -0.0142  0.0457
                                        -0.3655  0.0000  0.0000  0.0000  0.1306
                                        -0.1884  0.0000  0.0000  0.0000  0.0000
                                        -0.2624 -0.7408  0.0631 -0.0195  0.0000
                                        -0.1454 -0.1607  0.0000  0.0000 -0.2608
                                         0.1013
 322. (0.00008) RY ( 7) N 10            s( 13.43%)p 1.27( 17.02%)d 4.18( 56.20%)
                                                  f 0.99( 13.34%)
 323. (0.00003) RY ( 8) N 10            s(  0.00%)p 1.00(  5.93%)d15.67( 92.96%)
                                                  f 0.19(  1.11%)
 324. (0.00003) RY ( 9) N 10            s(  2.29%)p 6.55( 15.03%)d30.54( 70.06%)
                                                  f 5.50( 12.62%)
 325. (0.00001) RY (10) N 10            s( 24.65%)p 0.31(  7.64%)d 1.69( 41.66%)
                                                  f 1.06( 26.06%)
 326. (0.00001) RY (11) N 10            s( 16.71%)p 3.84( 64.08%)d 1.08( 18.09%)
                                                  f 0.07(  1.12%)
 327. (0.00000) RY (12) N 10            s(  2.54%)p12.99( 33.05%)d22.37( 56.92%)
                                                  f 2.95(  7.49%)
 328. (0.00000) RY (13) N 10            s(  3.20%)p 7.43( 23.77%)d19.55( 62.58%)
                                                  f 3.26( 10.45%)
 329. (0.00000) RY (14) N 10            s( 64.07%)p 0.18( 11.84%)d 0.19( 12.29%)
                                                  f 0.18( 11.81%)
 330. (0.00000) RY (15) N 10            s(  8.16%)p 0.14(  1.18%)d 6.29( 51.33%)
                                                  f 4.82( 39.33%)
 331. (0.00000) RY (16) N 10            s(  1.43%)p 7.69( 11.02%)d20.58( 29.48%)
                                                  f40.54( 58.07%)
 332. (0.00000) RY (17) N 10            s(  0.00%)p 1.00(  0.10%)d17.28(  1.74%)
                                                  f99.99( 98.16%)
 333. (0.00000) RY (18) N 10            s(  0.00%)p 1.00(  0.32%)d99.99( 95.82%)
                                                  f12.15(  3.87%)
 334. (0.00000) RY (19) N 10            s(  0.00%)p 1.00(  0.22%)d21.85(  4.86%)
                                                  f99.99( 94.91%)
 335. (0.00000) RY (20) N 10            s(  0.00%)p 1.00(  0.24%)d99.99( 24.39%)
                                                  f99.99( 75.37%)
 336. (0.00000) RY (21) N 10            s( 26.15%)p 0.08(  2.00%)d 0.25(  6.52%)
                                                  f 2.50( 65.33%)
 337. (0.00000) RY (22) N 10            s(  0.00%)p 1.00( 30.87%)d 1.66( 51.24%)
                                                  f 0.58( 17.88%)
 338. (0.00000) RY (23) N 10            s( 41.88%)p 0.02(  0.84%)d 0.23(  9.57%)
                                                  f 1.14( 47.70%)
 339. (0.00000) RY (24) N 10            s( 15.49%)p 0.10(  1.49%)d 2.10( 32.58%)
                                                  f 3.26( 50.44%)
 340. (0.00000) RY (25) N 10            s(  6.83%)p 0.09(  0.58%)d 7.20( 49.19%)
                                                  f 6.35( 43.39%)
 341. (0.00000) RY (26) N 10            s(  0.00%)p 1.00( 70.12%)d 0.33( 23.35%)
                                                  f 0.09(  6.54%)
 342. (0.00617) RY ( 1) C 11            s(  7.77%)p10.64( 82.68%)d 1.20(  9.36%)
                                                  f 0.02(  0.18%)
                                         0.0000 -0.0156  0.2781  0.0109  0.0056
                                        -0.0441 -0.7130 -0.0574  0.0170 -0.5513
                                         0.0948  0.0000  0.0000  0.0000  0.0910
                                         0.1279  0.0000  0.0000  0.0000  0.0000
                                        -0.2155 -0.1207 -0.0677  0.0586  0.0000
                                         0.0006  0.0167  0.0000  0.0000 -0.0308
                                        -0.0248
 343. (0.00412) RY ( 2) C 11            s(  1.05%)p90.87( 95.83%)d 2.61(  2.75%)
                                                  f 0.34(  0.36%)
                                         0.0000 -0.0198  0.1002  0.0051  0.0093
                                        -0.0521 -0.5651 -0.0982 -0.0199  0.7872
                                         0.0816  0.0000  0.0000  0.0000  0.0379
                                         0.0050  0.0000  0.0000  0.0000  0.0000
                                         0.0086  0.1510 -0.0448  0.0343  0.0000
                                        -0.0388 -0.0359  0.0000  0.0000  0.0092
                                         0.0271
 344. (0.00194) RY ( 3) C 11            s(  0.00%)p 1.00( 91.81%)d 0.09(  7.91%)
                                                  f 0.00(  0.28%)
                                         0.0000  0.0000  0.0000  0.0000  0.0000
                                         0.0000  0.0000  0.0000  0.0000  0.0000
                                         0.0000 -0.0255  0.9347 -0.2092  0.0000
                                         0.0000 -0.2115 -0.0648 -0.1594  0.0692
                                         0.0000  0.0000  0.0000  0.0000 -0.0314
                                         0.0000  0.0000  0.0271 -0.0322  0.0000
                                         0.0000
 345. (0.00076) RY ( 4) C 11            s( 43.46%)p 0.42( 18.09%)d 0.83( 36.08%)
                                                  f 0.05(  2.37%)
                                         0.0000 -0.0016  0.6546  0.0768  0.0123
                                        -0.0106  0.3142  0.2075 -0.0153  0.0693
                                         0.1843  0.0000  0.0000  0.0000  0.0434
                                         0.3704  0.0000  0.0000  0.0000  0.0000
                                        -0.2814  0.3655 -0.0609  0.0725  0.0000
                                         0.0249 -0.0486  0.0000  0.0000  0.1220
                                        -0.0762
 346. (0.00053) RY ( 5) C 11            s(  0.00%)p 1.00(  4.84%)d19.17( 92.85%)
                                                  f 0.48(  2.31%)
                                         0.0000  0.0000  0.0000  0.0000  0.0000
                                         0.0000  0.0000  0.0000  0.0000  0.0000
                                         0.0000 -0.0041  0.2134 -0.0537  0.0000
                                         0.0000  0.9412  0.1356 -0.0112 -0.1553
                                         0.0000  0.0000  0.0000  0.0000 -0.0407
                                         0.0000  0.0000  0.0011 -0.1464  0.0000
                                         0.0000
 347. (0.00028) RY ( 6) C 11            s( 33.75%)p 0.34( 11.64%)d 1.40( 47.21%)
                                                  f 0.22(  7.40%)
                                         0.0000 -0.0049  0.5795 -0.0314  0.0251
                                        -0.0152  0.0715 -0.1663 -0.0115 -0.0325
                                        -0.2867  0.0000  0.0000  0.0000  0.1105
                                        -0.6555  0.0000 -0.0001  0.0000  0.0000
                                         0.1653  0.0245 -0.0413 -0.0240  0.0000
                                        -0.0425 -0.0465  0.0000  0.0000 -0.1840
                                         0.1903
 348. (0.00023) RY ( 7) C 11            s(  0.00%)p 1.00(  2.25%)d40.20( 90.56%)
                                                  f 3.19(  7.19%)
                                         0.0000  0.0000  0.0000  0.0000  0.0000
                                         0.0000  0.0000  0.0000  0.0000  0.0000
                                         0.0000 -0.0168  0.1361  0.0611  0.0000
                                         0.0001 -0.0916 -0.2794  0.6684 -0.6102
                                         0.0000  0.0000  0.0001  0.0000 -0.0401
                                         0.0000  0.0000 -0.2569 -0.0655  0.0000
                                         0.0000
 349. (0.00009) RY ( 8) C 11            s( 21.44%)p 1.93( 41.35%)d 1.71( 36.61%)
                                                  f 0.03(  0.60%)
 350. (0.00005) RY ( 9) C 11            s(  8.03%)p 3.62( 29.08%)d 6.13( 49.24%)
                                                  f 1.70( 13.66%)
 351. (0.00003) RY (10) C 11            s(  9.04%)p 0.65(  5.91%)d 5.47( 49.38%)
                                                  f 3.95( 35.67%)
 352. (0.00002) RY (11) C 11            s(  0.64%)p44.47( 28.40%)d21.87( 13.97%)
                                                  f89.25( 56.99%)
 353. (0.00001) RY (12) C 11            s( 11.64%)p 1.88( 21.88%)d 3.96( 46.06%)
                                                  f 1.75( 20.42%)
 354. (0.00000) RY (13) C 11            s(  4.16%)p 2.68( 11.16%)d19.18( 79.85%)
                                                  f 1.16(  4.83%)
 355. (0.00001) RY (14) C 11            s( 10.45%)p 3.53( 36.92%)d 4.19( 43.78%)
                                                  f 0.85(  8.85%)
 356. (0.00000) RY (15) C 11            s(  7.38%)p 0.38(  2.77%)d 6.13( 45.22%)
                                                  f 6.05( 44.64%)
 357. (0.00000) RY (16) C 11            s(  0.00%)p 1.00(  0.56%)d18.37( 10.37%)
                                                  f99.99( 89.07%)
 358. (0.00000) RY (17) C 11            s(  0.00%)p 1.00(  0.27%)d83.27( 22.12%)
                                                  f99.99( 77.61%)
 359. (0.00000) RY (18) C 11            s(  0.00%)p 1.00(  0.62%)d99.99( 77.17%)
                                                  f35.57( 22.20%)
 360. (0.00000) RY (19) C 11            s(  0.00%)p 1.00(  2.46%)d33.93( 83.62%)
                                                  f 5.64( 13.91%)
 361. (0.00000) RY (20) C 11            s(  0.00%)p 1.00( 18.37%)d 0.61( 11.25%)
                                                  f 3.83( 70.38%)
 362. (0.00000) RY (21) C 11            s(  1.45%)p 1.11(  1.61%)d14.91( 21.63%)
                                                  f51.89( 75.31%)
 363. (0.00000) RY (22) C 11            s( 79.83%)p 0.01(  0.52%)d 0.07(  5.39%)
                                                  f 0.18( 14.27%)
 364. (0.00000) RY (23) C 11            s( 13.60%)p 0.04(  0.59%)d 3.37( 45.78%)
                                                  f 2.94( 40.03%)
 365. (0.00000) RY (24) C 11            s(  3.58%)p 1.45(  5.19%)d11.46( 41.05%)
                                                  f14.02( 50.19%)
 366. (0.00000) RY (25) C 11            s(  0.00%)p 1.00( 78.86%)d 0.05(  4.12%)
                                                  f 0.22( 17.03%)
 367. (0.00000) RY (26) C 11            s( 42.74%)p 0.16(  6.77%)d 0.62( 26.37%)
                                                  f 0.56( 24.12%)
 368. (0.00362) RY ( 1) O 12            s( 12.93%)p 6.23( 80.57%)d 0.50(  6.45%)
                                                  f 0.00(  0.05%)
                                         0.0000 -0.0036  0.3574  0.0400  0.0011
                                         0.0070  0.3292  0.0273 -0.0085  0.8345
                                         0.0081  0.0000 -0.0002  0.0000  0.0152
                                         0.0120  0.0000  0.0000  0.0000  0.0000
                                         0.2254  0.0904 -0.0702 -0.0161  0.0000
                                         0.0052  0.0078  0.0000  0.0000 -0.0056
                                         0.0189
 369. (0.00302) RY ( 2) O 12            s(  0.00%)p 1.00( 98.50%)d 0.01(  1.46%)
                                                  f 0.00(  0.04%)
                                         0.0000  0.0000  0.0000  0.0000  0.0000
                                         0.0000  0.0000  0.0000  0.0000  0.0002
                                         0.0000 -0.0053  0.9916  0.0396  0.0000
                                         0.0000  0.0150  0.0488 -0.0925 -0.0588
                                         0.0001  0.0000  0.0000  0.0000  0.0089
                                         0.0000  0.0000  0.0162  0.0093  0.0000
                                         0.0000
 370. (0.00088) RY ( 3) O 12            s( 18.79%)p 4.08( 76.73%)d 0.21(  3.97%)
                                                  f 0.03(  0.50%)
                                         0.0000 -0.0020  0.4050 -0.1545 -0.0045
                                        -0.0094 -0.8310 -0.2088 -0.0044  0.1817
                                         0.0025  0.0000  0.0000  0.0000 -0.0980
                                        -0.0028  0.0000  0.0000  0.0000  0.0000
                                        -0.1069  0.0964 -0.0937 -0.0249  0.0000
                                         0.0394 -0.0128  0.0000  0.0000 -0.0072
                                        -0.0568
 371. (0.00058) RY ( 4) O 12            s( 57.11%)p 0.50( 28.75%)d 0.20( 11.31%)
                                                  f 0.05(  2.83%)
                                         0.0000 -0.0019  0.7519 -0.0758  0.0004
                                        -0.0056  0.3158 -0.0989 -0.0084 -0.4203
                                        -0.0343  0.0000  0.0001  0.0000  0.2714
                                         0.1089  0.0000  0.0000  0.0000  0.0000
                                        -0.1244 -0.0023 -0.1092 -0.0144  0.0000
                                        -0.0228 -0.0147  0.0000  0.0000 -0.1429
                                        -0.0846
 372. (0.00014) RY ( 5) O 12            s(  0.00%)p 1.00(  0.53%)d99.99( 98.72%)
                                                  f 1.41(  0.75%)
                                         0.0000  0.0000  0.0000  0.0000  0.0000
                                         0.0000  0.0000  0.0001  0.0000  0.0000
                                         0.0000  0.0092 -0.0567  0.0450  0.0002
                                        -0.0001  0.8733  0.1657 -0.4260  0.1252
                                         0.0001  0.0000  0.0001  0.0000 -0.0265
                                         0.0000  0.0000  0.0780  0.0266  0.0000
                                         0.0000
 373. (0.00011) RY ( 6) O 12            s( 11.67%)p 0.31(  3.58%)d 6.72( 78.39%)
                                                  f 0.54(  6.36%)
                                         0.0000 -0.0038 -0.1101  0.3232  0.0106
                                         0.0223  0.1043 -0.1144 -0.0342  0.0839
                                        -0.0556  0.0000  0.0000  0.0000 -0.2637
                                         0.3063  0.0001 -0.0001 -0.0002  0.0001
                                        -0.5527  0.1318 -0.5298  0.1306  0.0000
                                         0.1047 -0.1094  0.0000  0.0000 -0.1532
                                         0.1311
 374. (0.00006) RY ( 7) O 12            s(  8.59%)p 1.46( 12.56%)d 8.98( 77.12%)
                                                  f 0.20(  1.74%)
 375. (0.00006) RY ( 8) O 12            s(  0.00%)p 1.00(  0.15%)d99.99( 95.36%)
                                                  f30.72(  4.49%)
 376. (0.00003) RY ( 9) O 12            s(  0.00%)p 1.00(  0.63%)d99.99( 94.28%)
                                                  f 8.11(  5.09%)
 377. (0.00002) RY (10) O 12            s( 10.43%)p 4.55( 47.49%)d 3.11( 32.44%)
                                                  f 0.93(  9.65%)
 378. (0.00001) RY (11) O 12            s( 24.86%)p 1.53( 38.06%)d 1.46( 36.39%)
                                                  f 0.03(  0.70%)
 379. (0.00001) RY (12) O 12            s(  5.14%)p 1.17(  6.02%)d17.14( 88.17%)
                                                  f 0.13(  0.67%)
 380. (0.00000) RY (13) O 12            s( 31.02%)p 2.10( 65.26%)d 0.08(  2.56%)
                                                  f 0.04(  1.16%)
 381. (0.00000) RY (14) O 12            s(  0.00%)p 1.00( 84.02%)d 0.17( 13.87%)
                                                  f 0.03(  2.11%)
 382. (0.00000) RY (15) O 12            s(  1.15%)p 2.40(  2.77%)d49.56( 57.24%)
                                                  f33.63( 38.84%)
 383. (0.00000) RY (16) O 12            s(  1.08%)p11.73( 12.66%)d18.88( 20.38%)
                                                  f61.04( 65.88%)
 384. (0.00000) RY (17) O 12            s(  0.00%)p 1.00(  0.02%)d99.99(  3.65%)
                                                  f99.99( 96.33%)
 385. (0.00000) RY (18) O 12            s(  0.00%)p 1.00(  0.18%)d37.60(  6.88%)
                                                  f99.99( 92.94%)
 386. (0.00000) RY (19) O 12            s(  0.00%)p 1.00(  0.02%)d99.99(  8.20%)
                                                  f99.99( 91.78%)
 387. (0.00000) RY (20) O 12            s(  0.00%)p 1.00( 16.08%)d 4.82( 77.45%)
                                                  f 0.40(  6.47%)
 388. (0.00000) RY (21) O 12            s( 88.81%)p 0.01(  0.71%)d 0.08(  7.13%)
                                                  f 0.04(  3.35%)
 389. (0.00000) RY (22) O 12            s(  4.57%)p 0.60(  2.74%)d 2.50( 11.43%)
                                                  f17.78( 81.26%)
 390. (0.00000) RY (23) O 12            s(  4.71%)p 1.34(  6.30%)d 5.21( 24.53%)
                                                  f13.68( 64.45%)
 391. (0.00000) RY (24) O 12            s( 13.85%)p 0.32(  4.41%)d 1.93( 26.66%)
                                                  f 3.98( 55.07%)
 392. (0.00000) RY (25) O 12            s(  2.78%)p 1.07(  2.97%)d23.73( 66.06%)
                                                  f10.13( 28.19%)
 393. (0.00000) RY (26) O 12            s(  2.60%)p 3.46(  8.98%)d18.92( 49.15%)
                                                  f15.12( 39.28%)
 394. (0.00392) RY ( 1) C 13            s( 45.02%)p 1.05( 47.46%)d 0.16(  7.15%)
                                                  f 0.01(  0.37%)
                                         0.0000 -0.0120  0.6705 -0.0197  0.0093
                                        -0.0163 -0.6569  0.0008  0.0511 -0.1089
                                         0.1685  0.0000  0.0001 -0.0001  0.0994
                                         0.0065  0.0000  0.0000  0.0000  0.0000
                                         0.2311  0.0782 -0.0274 -0.0359  0.0000
                                        -0.0070  0.0057  0.0000  0.0000  0.0563
                                         0.0204
 395. (0.00202) RY ( 2) C 13            s(  6.80%)p12.86( 87.44%)d 0.80(  5.45%)
                                                  f 0.05(  0.31%)
                                         0.0000 -0.0159  0.2590  0.0222  0.0134
                                        -0.0158  0.1871 -0.1963  0.0274  0.8851
                                         0.1287  0.0000  0.0000  0.0000  0.1500
                                        -0.0493 -0.0001  0.0001  0.0001  0.0000
                                         0.0816 -0.1452 -0.0387  0.0176  0.0000
                                        -0.0308  0.0392  0.0000  0.0000  0.0005
                                        -0.0245
 396. (0.00163) RY ( 3) C 13            s(  0.00%)p 1.00( 36.91%)d 1.69( 62.23%)
                                                  f 0.02(  0.86%)
                                         0.0000  0.0000  0.0000  0.0000  0.0000
                                         0.0000  0.0002  0.0001  0.0000 -0.0001
                                         0.0000 -0.0344  0.5688 -0.2109 -0.0001
                                         0.0001 -0.5413  0.1653  0.4905  0.2477
                                        -0.0001  0.0000 -0.0002 -0.0001  0.0398
                                         0.0000  0.0000  0.0307  0.0779  0.0000
                                         0.0000
 397. (0.00084) RY ( 4) C 13            s( 21.76%)p 1.87( 40.68%)d 1.68( 36.47%)
                                                  f 0.05(  1.10%)
                                         0.0000  0.0041  0.4389  0.1575 -0.0117
                                         0.0171  0.5921  0.0991  0.0303 -0.2125
                                         0.0082  0.0000 -0.0009 -0.0001  0.1830
                                        -0.0897 -0.0007 -0.0002  0.0000  0.0001
                                         0.0438  0.4673 -0.3032  0.1043  0.0002
                                         0.0120 -0.0050 -0.0001  0.0000  0.0219
                                         0.1016
 398. (0.00076) RY ( 5) C 13            s(  0.00%)p 1.00( 54.41%)d 0.79( 43.09%)
                                                  f 0.05(  2.51%)
                                         0.0000  0.0000  0.0005  0.0002  0.0000
                                         0.0000  0.0006  0.0003  0.0000 -0.0001
                                        -0.0001 -0.0079  0.7211  0.1550  0.0001
                                        -0.0001  0.6252  0.1218 -0.1458  0.0621
                                         0.0000  0.0006 -0.0005  0.0001 -0.1497
                                         0.0000 -0.0001  0.0489  0.0154  0.0000
                                         0.0002
 399. (0.00026) RY ( 6) C 13            s(  0.51%)p53.28( 26.99%)d99.99( 68.74%)
                                                  f 7.44(  3.77%)
                                         0.0000  0.0007  0.0685  0.0168 -0.0096
                                         0.0297  0.1849 -0.3208 -0.0116 -0.2733
                                         0.2389  0.0000  0.0002  0.0000  0.6255
                                         0.2662  0.0002  0.0000  0.0002 -0.0002
                                        -0.0834 -0.2830  0.3510 -0.1224  0.0000
                                        -0.0205 -0.1045  0.0001  0.0000 -0.1597
                                        -0.0289
 400. (0.00014) RY ( 7) C 13            s( 13.33%)p 1.11( 14.75%)d 5.09( 67.86%)
                                                  f 0.30(  4.05%)
                                         0.0000 -0.0005  0.3310  0.1405 -0.0634
                                        -0.0036 -0.0830 -0.0327  0.0115  0.0073
                                        -0.3733  0.0000 -0.0008  0.0008 -0.0632
                                        -0.0087 -0.0002  0.0034 -0.0002  0.0000
                                        -0.7747 -0.2424 -0.0756  0.0996 -0.0003
                                         0.0133 -0.0256  0.0002 -0.0001 -0.1257
                                         0.1546
 401. (0.00013) RY ( 8) C 13            s(  0.00%)p 1.00(  7.75%)d11.71( 90.80%)
                                                  f 0.19(  1.44%)
                                         0.0000  0.0000  0.0012  0.0006 -0.0002
                                         0.0000 -0.0002 -0.0001  0.0000  0.0000
                                        -0.0011 -0.0009  0.2016 -0.1921 -0.0004
                                        -0.0003  0.0259 -0.9517  0.0032  0.0396
                                        -0.0028 -0.0012 -0.0003  0.0005  0.1054
                                         0.0001  0.0000 -0.0509  0.0274 -0.0005
                                         0.0004
 402. (0.00005) RY ( 9) C 13            s( 35.80%)p 0.42( 15.01%)d 0.68( 24.36%)
                                                  f 0.69( 24.84%)
 403. (0.00004) RY (10) C 13            s(  0.00%)p 1.00(  7.63%)d 9.98( 76.14%)
                                                  f 2.13( 16.23%)
 404. (0.00003) RY (11) C 13            s(  1.44%)p28.06( 40.41%)d32.99( 47.51%)
                                                  f 7.39( 10.64%)
 405. (0.00001) RY (12) C 13            s(  3.48%)p10.16( 35.36%)d14.89( 51.85%)
                                                  f 2.68(  9.31%)
 406. (0.00000) RY (13) C 13            s( 42.98%)p 0.35( 15.11%)d 0.84( 36.19%)
                                                  f 0.13(  5.73%)
 407. (0.00000) RY (14) C 13            s( 23.13%)p 0.27(  6.25%)d 1.01( 23.25%)
                                                  f 2.05( 47.38%)
 408. (0.00000) RY (15) C 13            s( 18.07%)p 1.59( 28.78%)d 2.19( 39.63%)
                                                  f 0.75( 13.52%)
 409. (0.00000) RY (16) C 13            s(  0.00%)p 1.00(  2.14%)d 5.04( 10.79%)
                                                  f40.71( 87.07%)
 410. (0.00000) RY (17) C 13            s(  0.00%)p 1.00(  0.54%)d 9.46(  5.07%)
                                                  f99.99( 94.40%)
 411. (0.00000) RY (18) C 13            s(  0.00%)p 1.00(  2.96%)d 3.64( 10.79%)
                                                  f29.12( 86.25%)
 412. (0.00000) RY (19) C 13            s(  0.00%)p 1.00( 81.80%)d 0.13( 10.70%)
                                                  f 0.09(  7.51%)
 413. (0.00000) RY (20) C 13            s(  0.89%)p 8.76(  7.83%)d32.12( 28.68%)
                                                  f70.11( 62.60%)
 414. (0.00000) RY (21) C 13            s(  1.84%)p 1.09(  2.00%)d12.58( 23.20%)
                                                  f39.54( 72.95%)
 415. (0.00000) RY (22) C 13            s( 18.09%)p 0.01(  0.26%)d 3.43( 62.15%)
                                                  f 1.08( 19.50%)
 416. (0.00000) RY (23) C 13            s( 48.32%)p 0.01(  0.65%)d 0.39( 18.78%)
                                                  f 0.67( 32.25%)
 417. (0.00000) RY (24) C 13            s(  3.83%)p 3.22( 12.33%)d 5.47( 20.94%)
                                                  f16.42( 62.90%)
 418. (0.00000) RY (25) C 13            s(  0.00%)p 1.00(  6.04%)d14.94( 90.20%)
                                                  f 0.62(  3.75%)
 419. (0.00000) RY (26) C 13            s( 14.44%)p 1.33( 19.24%)d 2.60( 37.59%)
                                                  f 1.99( 28.73%)
 420. (0.00167) RY ( 1) C 14            s( 12.53%)p 6.67( 83.51%)d 0.31(  3.87%)
                                                  f 0.01(  0.08%)
                                         0.0000 -0.0014  0.3519 -0.0383  0.0047
                                        -0.0070 -0.7958 -0.0474 -0.0211  0.4440
                                        -0.0449  0.0000 -0.0001  0.0000  0.0249
                                        -0.0621  0.0000  0.0000  0.0000  0.0000
                                         0.0843  0.1245 -0.1076  0.0104  0.0000
                                        -0.0131 -0.0247  0.0000  0.0000  0.0007
                                         0.0054
 421. (0.00058) RY ( 2) C 14            s(  0.00%)p 1.00( 89.32%)d 0.09(  8.20%)
                                                  f 0.03(  2.48%)
                                         0.0000  0.0000  0.0000  0.0000  0.0000
                                         0.0000  0.0000  0.0000  0.0000  0.0003
                                        -0.0001 -0.0116  0.9370 -0.1226  0.0001
                                        -0.0001 -0.0166 -0.1930 -0.1116 -0.1789
                                         0.0000  0.0000  0.0001  0.0001 -0.0683
                                        -0.0001 -0.0001 -0.0319  0.1384 -0.0001
                                         0.0000
 422. (0.00021) RY ( 3) C 14            s(  0.00%)p 1.00(  4.78%)d18.54( 88.58%)
                                                  f 1.39(  6.64%)
                                         0.0000  0.0000  0.0002 -0.0001  0.0000
                                         0.0000 -0.0001 -0.0002  0.0000 -0.0004
                                         0.0000 -0.0352 -0.2145 -0.0233 -0.0001
                                        -0.0001  0.0561 -0.3658 -0.8517 -0.1530
                                         0.0003  0.0001  0.0003  0.0002 -0.1154
                                        -0.0001  0.0000  0.2276  0.0359  0.0001
                                         0.0001
 423. (0.00016) RY ( 4) C 14            s(  2.74%)p19.04( 52.25%)d 9.83( 26.96%)
                                                  f 6.58( 18.05%)
                                         0.0000 -0.0075  0.1129  0.0520  0.1092
                                        -0.0323 -0.2410 -0.0325 -0.0138 -0.6283
                                        -0.2594  0.0000  0.0002  0.0001  0.4630
                                        -0.0292 -0.0002  0.0001  0.0000  0.0001
                                        -0.1132  0.0412 -0.1886  0.0656  0.0001
                                        -0.0334 -0.1512  0.0000 -0.0002 -0.3062
                                         0.2506
 424. (0.00011) RY ( 5) C 14            s( 15.04%)p 1.03( 15.56%)d 4.21( 63.28%)
                                                  f 0.41(  6.12%)
                                         0.0000  0.0010  0.3803 -0.0758  0.0041
                                         0.0086  0.1163 -0.1613 -0.0288 -0.3133
                                        -0.1303  0.0000  0.0002  0.0000 -0.4093
                                         0.0245  0.0000  0.0002  0.0002  0.0000
                                         0.5556  0.0114 -0.3948 -0.0069  0.0001
                                        -0.1190 -0.0195 -0.0001  0.0000  0.2115
                                        -0.0438
 425. (0.00005) RY ( 6) C 14            s( 27.70%)p 0.85( 23.46%)d 1.56( 43.35%)
                                                  f 0.20(  5.48%)
 426. (0.00002) RY ( 7) C 14            s( 23.68%)p 0.63( 14.81%)d 2.22( 52.47%)
                                                  f 0.38(  9.03%)
 427. (0.00001) RY ( 8) C 14            s(  0.00%)p 1.00(  6.56%)d13.54( 88.80%)
                                                  f 0.71(  4.63%)
 428. (0.00000) RY ( 9) C 14            s( 49.85%)p 0.45( 22.56%)d 0.35( 17.32%)
                                                  f 0.21( 10.27%)
 429. (0.00000) RY (10) C 14            s( 13.36%)p 4.43( 59.19%)d 1.79( 23.96%)
                                                  f 0.26(  3.50%)
 430. (0.00000) RY (11) C 14            s(  1.59%)p 3.27(  5.20%)d24.56( 39.08%)
                                                  f34.00( 54.12%)
 431. (0.00000) RY (12) C 14            s(  0.00%)p 1.00(  8.08%)d 8.21( 66.34%)
                                                  f 3.17( 25.58%)
 432. (0.00000) RY (13) C 14            s( 30.46%)p 0.80( 24.32%)d 0.94( 28.78%)
                                                  f 0.54( 16.45%)
 433. (0.00000) RY (14) C 14            s(  0.34%)p28.38(  9.51%)d79.16( 26.52%)
                                                  f99.99( 63.64%)
 434. (0.00000) RY (15) C 14            s( 26.55%)p 1.46( 38.76%)d 0.86( 22.71%)
                                                  f 0.45( 11.99%)
 435. (0.00000) RY (16) C 14            s(  4.66%)p 1.74(  8.11%)d 5.60( 26.06%)
                                                  f13.13( 61.17%)
 436. (0.00000) RY (17) C 14            s( 29.55%)p 0.49( 14.37%)d 1.30( 38.40%)
                                                  f 0.60( 17.68%)
 437. (0.00000) RY (18) C 14            s(  0.00%)p 1.00( 66.80%)d 0.25( 16.74%)
                                                  f 0.25( 16.46%)
 438. (0.00000) RY (19) C 14            s( 54.94%)p 0.34( 18.46%)d 0.40( 22.02%)
                                                  f 0.08(  4.58%)
 439. (0.00000) RY (20) C 14            s(  0.00%)p 1.00(  0.11%)d99.99( 65.58%)
                                                  f99.99( 34.31%)
 440. (0.00000) RY (21) C 14            s(  0.00%)p 1.00(  0.04%)d99.99( 11.65%)
                                                  f99.99( 88.32%)
 441. (0.00000) RY (22) C 14            s(  0.00%)p 1.00(  7.93%)d 2.62( 20.74%)
                                                  f 9.00( 71.33%)
 442. (0.00000) RY (23) C 14            s(  0.93%)p 5.12(  4.75%)d99.70( 92.48%)
                                                  f 2.00(  1.85%)
 443. (0.00000) RY (24) C 14            s(  2.79%)p 0.29(  0.81%)d19.83( 55.34%)
                                                  f14.71( 41.06%)
 444. (0.00000) RY (25) C 14            s(  0.00%)p 1.00( 16.58%)d 2.00( 33.18%)
                                                  f 3.03( 50.24%)
 445. (0.00000) RY (26) C 14            s(  3.33%)p 1.45(  4.84%)d 5.10( 16.99%)
                                                  f22.47( 74.84%)
 446. (0.00255) RY ( 1) H 15            s( 97.18%)p 0.02(  2.24%)d 0.01(  0.58%)
                                         0.0079  0.9858 -0.0002 -0.1336  0.0664
                                         0.0026  0.0122  0.0000  0.0000 -0.0234
                                         0.0000  0.0000 -0.0701  0.0176
 447. (0.00022) RY ( 2) H 15            s(  0.00%)p 1.00( 89.90%)d 0.11( 10.10%)
                                         0.0000  0.0000  0.0000 -0.0002  0.0004
                                         0.0001 -0.0001  0.9444 -0.0839 -0.0001
                                        -0.0687 -0.3103 -0.0001  0.0000
 448. (0.00019) RY ( 3) H 15            s( 10.39%)p 7.75( 80.55%)d 0.87(  9.06%)
                                        -0.0003 -0.1268  0.2963 -0.4235  0.7872
                                        -0.0187 -0.0787 -0.0004  0.0000 -0.2482
                                         0.0000  0.0001 -0.1687 -0.0234
 449. (0.00014) RY ( 4) H 15            s( 77.86%)p 0.21( 16.35%)d 0.07(  5.79%)
                                         0.0007  0.0188  0.8822 -0.0241 -0.2364
                                        -0.1913  0.2654  0.0001  0.0000  0.1971
                                         0.0000  0.0000  0.0858  0.1080
 450. (0.00002) RY ( 5) H 15            s(  3.51%)p24.46( 85.85%)d 3.03( 10.64%)
 451. (0.00001) RY ( 6) H 15            s(  4.95%)p14.28( 70.72%)d 4.91( 24.32%)
 452. (0.00001) RY ( 7) H 15            s(  0.00%)p 1.00( 47.63%)d 1.10( 52.37%)
 453. (0.00000) RY ( 8) H 15            s(  0.63%)p36.58( 22.94%)d99.99( 76.43%)
 454. (0.00000) RY ( 9) H 15            s(  0.08%)p99.99( 44.04%)d99.99( 55.88%)
 455. (0.00000) RY (10) H 15            s(  0.00%)p 1.00( 26.91%)d 2.72( 73.09%)
 456. (0.00000) RY (11) H 15            s(  1.19%)p 7.86(  9.38%)d74.85( 89.42%)
 457. (0.00000) RY (12) H 15            s(  4.23%)p16.05( 67.89%)d 6.59( 27.88%)
 458. (0.00000) RY (13) H 15            s(  0.00%)p 1.00( 35.57%)d 1.81( 64.43%)
 459. (0.00350) RY ( 1) H 16            s( 98.03%)p 0.02(  1.51%)d 0.00(  0.46%)
                                         0.0098  0.9901 -0.0008  0.0907 -0.0651
                                        -0.0400  0.0321  0.0000  0.0000  0.0513
                                         0.0000  0.0000 -0.0398  0.0189
 460. (0.00021) RY ( 2) H 16            s(  0.00%)p 1.00( 92.16%)d 0.09(  7.84%)
                                         0.0000  0.0000  0.0000 -0.0001  0.0001
                                         0.0000  0.0000  0.9416 -0.1871  0.0000
                                        -0.0639 -0.2726  0.0000  0.0000
 461. (0.00015) RY ( 3) H 16            s( 82.81%)p 0.20( 16.51%)d 0.01(  0.67%)
                                        -0.0009 -0.0471  0.9088  0.1424 -0.2311
                                        -0.1825  0.2412  0.0001  0.0000  0.0239
                                         0.0000  0.0000 -0.0469  0.0629
 462. (0.00009) RY ( 4) H 16            s(  7.65%)p10.84( 82.94%)d 1.23(  9.41%)
 463. (0.00004) RY ( 5) H 16            s(  0.18%)p99.99( 79.84%)d99.99( 19.98%)
 464. (0.00001) RY ( 6) H 16            s(  0.00%)p 1.00( 41.27%)d 1.42( 58.73%)
 465. (0.00000) RY ( 7) H 16            s(  0.90%)p53.56( 48.46%)d55.97( 50.64%)
 466. (0.00000) RY ( 8) H 16            s(  2.73%)p17.18( 46.97%)d18.40( 50.30%)
 467. (0.00000) RY ( 9) H 16            s(  0.00%)p 1.00( 39.32%)d 1.54( 60.68%)
 468. (0.00000) RY (10) H 16            s(  0.00%)p 1.00( 27.26%)d 2.67( 72.74%)
 469. (0.00000) RY (11) H 16            s(  2.07%)p32.57( 67.38%)d14.77( 30.55%)
 470. (0.00000) RY (12) H 16            s(  0.67%)p56.12( 37.73%)d91.65( 61.60%)
 471. (0.00000) RY (13) H 16            s(  4.98%)p 3.75( 18.64%)d15.34( 76.38%)
 472. (0.00119) RY ( 1) H 17            s( 97.52%)p 0.02(  2.19%)d 0.00(  0.29%)
                                         0.0029  0.9875 -0.0003 -0.0350 -0.1389
                                         0.0207 -0.0307  0.0000  0.0000 -0.0295
                                         0.0000  0.0000  0.0437  0.0114
 473. (0.00021) RY ( 2) H 17            s( 13.52%)p 5.57( 75.27%)d 0.83( 11.21%)
                                         0.0045 -0.0396  0.3655 -0.2390 -0.2490
                                        -0.4793 -0.6355  0.0000  0.0000 -0.0538
                                         0.0000  0.0000 -0.3202 -0.0817
 474. (0.00012) RY ( 3) H 17            s( 67.31%)p 0.42( 28.38%)d 0.06(  4.31%)
                                         0.0005  0.0548  0.8186  0.3055  0.3933
                                         0.1850 -0.0392  0.0000  0.0000  0.0564
                                         0.0000  0.0000  0.1956 -0.0408
 475. (0.00008) RY ( 4) H 17            s(  0.00%)p 1.00( 80.83%)d 0.24( 19.17%)
 476. (0.00004) RY ( 5) H 17            s(  3.47%)p23.56( 81.84%)d 4.23( 14.69%)
 477. (0.00002) RY ( 6) H 17            s( 16.28%)p 4.43( 72.17%)d 0.71( 11.54%)
 478. (0.00001) RY ( 7) H 17            s(  0.89%)p58.83( 52.18%)d52.92( 46.94%)
 479. (0.00000) RY ( 8) H 17            s(  0.00%)p 1.00( 74.62%)d 0.34( 25.38%)
 480. (0.00000) RY ( 9) H 17            s(  0.00%)p 1.00( 26.99%)d 2.70( 73.01%)
 481. (0.00000) RY (10) H 17            s(  0.79%)p25.76( 20.24%)d99.99( 78.98%)
 482. (0.00000) RY (11) H 17            s(  0.06%)p99.99( 44.26%)d99.99( 55.68%)
 483. (0.00000) RY (12) H 17            s(  0.20%)p99.99( 23.44%)d99.99( 76.36%)
 484. (0.00000) RY (13) H 17            s(  0.00%)p 1.00( 17.56%)d 4.69( 82.44%)
 485. (0.00037) RY ( 1) H 18            s( 88.29%)p 0.11( 10.15%)d 0.02(  1.57%)
                                        -0.0018  0.9388 -0.0389  0.1570  0.2247
                                         0.1229 -0.1059  0.0000  0.0000 -0.0240
                                         0.0000  0.0000 -0.1211  0.0208
 486. (0.00013) RY ( 2) H 18            s( 33.15%)p 1.53( 50.78%)d 0.48( 16.07%)
                                         0.0016  0.2460  0.5206 -0.5923 -0.3657
                                         0.0487  0.1447  0.0000  0.0000  0.3757
                                         0.0000  0.0000  0.1373 -0.0259
 487. (0.00010) RY ( 3) H 18            s( 49.40%)p 0.80( 39.68%)d 0.22( 10.92%)
                                         0.0026 -0.0050  0.7028  0.4284  0.0686
                                        -0.2618  0.3742  0.0002 -0.0004 -0.2969
                                        -0.0001 -0.0002 -0.1277 -0.0692
 488. (0.00010) RY ( 4) H 18            s(  0.00%)p 1.00( 85.70%)d 0.17( 14.30%)
                                         0.0000  0.0000  0.0003  0.0002  0.0001
                                        -0.0001  0.0002 -0.4903  0.7852 -0.0001
                                         0.0875  0.3679  0.0000  0.0000
 489. (0.00002) RY ( 5) H 18            s( 22.61%)p 2.90( 65.67%)d 0.52( 11.72%)
 490. (0.00001) RY ( 6) H 18            s(  0.00%)p 1.00( 62.74%)d 0.59( 37.26%)
 491. (0.00001) RY ( 7) H 18            s(  0.99%)p79.27( 78.37%)d20.88( 20.64%)
 492. (0.00000) RY ( 8) H 18            s(  2.81%)p10.44( 29.29%)d24.21( 67.90%)
 493. (0.00000) RY ( 9) H 18            s(  0.00%)p 1.00( 33.78%)d 1.96( 66.22%)
 494. (0.00000) RY (10) H 18            s(  1.95%)p12.34( 24.04%)d37.97( 74.01%)
 495. (0.00000) RY (11) H 18            s(  0.48%)p99.99( 75.93%)d48.85( 23.58%)
 496. (0.00000) RY (12) H 18            s(  0.36%)p71.41( 26.06%)d99.99( 73.58%)
 497. (0.00000) RY (13) H 18            s(  0.00%)p 1.00( 17.78%)d 4.62( 82.22%)
 498. (0.00052) RY ( 1) H 19            s( 88.45%)p 0.11(  9.55%)d 0.02(  2.00%)
                                        -0.0012  0.9399 -0.0336  0.1251 -0.2601
                                         0.0226  0.1080  0.0000  0.0000  0.0328
                                         0.0000  0.0000  0.1260  0.0554
 499. (0.00016) RY ( 2) H 19            s(  0.00%)p 1.00( 93.01%)d 0.08(  6.99%)
                                         0.0000  0.0000  0.0000  0.0000  0.0000
                                         0.0000  0.0000 -0.4387  0.8589  0.0000
                                         0.2452  0.0988  0.0000  0.0000
 500. (0.00015) RY ( 3) H 19            s( 81.27%)p 0.22( 17.56%)d 0.01(  1.17%)
                                         0.0025  0.1430  0.8901 -0.0234  0.2747
                                        -0.1241 -0.2901  0.0000  0.0000  0.0508
                                         0.0000  0.0000  0.0539 -0.0790
 501. (0.00006) RY ( 4) H 19            s(  2.42%)p30.07( 72.76%)d10.26( 24.82%)
 502. (0.00003) RY ( 5) H 19            s(  0.00%)p 1.00( 78.65%)d 0.27( 21.35%)
 503. (0.00002) RY ( 6) H 19            s(  1.79%)p54.68( 98.03%)d 0.10(  0.18%)
 504. (0.00001) RY ( 7) H 19            s( 17.56%)p 3.39( 59.54%)d 1.30( 22.89%)
 505. (0.00000) RY ( 8) H 19            s(  0.00%)p 1.00(  1.36%)d72.48( 98.64%)
 506. (0.00000) RY ( 9) H 19            s(  3.73%)p 8.81( 32.89%)d16.99( 63.38%)
 507. (0.00000) RY (10) H 19            s(  0.00%)p 1.00( 26.98%)d 2.71( 73.02%)
 508. (0.00000) RY (11) H 19            s(  0.11%)p98.38( 11.27%)d99.99( 88.62%)
 509. (0.00000) RY (12) H 19            s(  3.70%)p15.02( 55.62%)d10.99( 40.68%)
 510. (0.00000) RY (13) H 19            s(  1.00%)p42.88( 42.76%)d56.40( 56.24%)
 511. (0.00073) RY ( 1) H 20            s( 95.36%)p 0.04(  3.62%)d 0.01(  1.03%)
                                         0.0013  0.9764 -0.0142  0.0248 -0.0207
                                        -0.0598  0.1776  0.0000  0.0000  0.0234
                                         0.0000  0.0000 -0.0934  0.0321
 512. (0.00016) RY ( 2) H 20            s( 83.74%)p 0.18( 15.35%)d 0.01(  0.91%)
                                         0.0020  0.0866  0.9110  0.0151  0.1310
                                         0.0361 -0.3672  0.0000  0.0000 -0.0133
                                         0.0000  0.0000 -0.0150 -0.0931
 513. (0.00011) RY ( 3) H 20            s(  0.00%)p 1.00( 90.04%)d 0.11(  9.96%)
                                         0.0000  0.0000  0.0000  0.0000  0.0000
                                         0.0000  0.0000  0.7369 -0.5979  0.0000
                                         0.0251  0.3146  0.0000  0.0000
 514. (0.00009) RY ( 4) H 20            s(  0.60%)p99.99( 84.81%)d24.38( 14.59%)
 515. (0.00003) RY ( 5) H 20            s(  0.12%)p99.99( 93.40%)d52.83(  6.48%)
 516. (0.00002) RY ( 6) H 20            s(  0.00%)p 1.00( 79.41%)d 0.26( 20.59%)
 517. (0.00001) RY ( 7) H 20            s(  0.82%)p24.71( 20.21%)d96.57( 78.97%)
 518. (0.00000) RY ( 8) H 20            s(  0.00%)p 1.00( 25.57%)d 2.91( 74.43%)
 519. (0.00000) RY ( 9) H 20            s(  0.41%)p56.20( 23.17%)d99.99( 76.42%)
 520. (0.00000) RY (10) H 20            s(  8.49%)p 7.46( 63.28%)d 3.33( 28.23%)
 521. (0.00000) RY (11) H 20            s(  0.10%)p99.99( 36.89%)d99.99( 63.01%)
 522. (0.00000) RY (12) H 20            s(  0.00%)p 1.00(  4.98%)d19.10( 95.02%)
 523. (0.00000) RY (13) H 20            s( 10.40%)p 5.69( 59.24%)d 2.92( 30.35%)
 524. (0.00146) RY ( 1) H 21            s( 95.44%)p 0.03(  2.97%)d 0.02(  1.58%)
                                         0.0034  0.9769 -0.0027 -0.0102 -0.0782
                                        -0.0052 -0.1285 -0.0647 -0.0527  0.0638
                                        -0.0538 -0.0404 -0.0097  0.0845
 525. (0.00025) RY ( 2) H 21            s(  6.02%)p15.00( 90.24%)d 0.62(  3.74%)
                                         0.0058  0.0702  0.2350 -0.1916  0.9067
                                        -0.1161 -0.1635  0.0128 -0.0562 -0.1475
                                         0.0798  0.0473  0.0002 -0.0840
 526. (0.00009) RY ( 3) H 21            s(  4.13%)p14.77( 60.95%)d 8.46( 34.93%)
 527. (0.00005) RY ( 4) H 21            s( 21.16%)p 3.26( 69.03%)d 0.46(  9.81%)
 528. (0.00003) RY ( 5) H 21            s( 42.37%)p 0.92( 38.87%)d 0.44( 18.76%)
 529. (0.00002) RY ( 6) H 21            s(  9.58%)p 7.52( 72.08%)d 1.91( 18.34%)
 530. (0.00001) RY ( 7) H 21            s(  4.02%)p 3.21( 12.89%)d20.67( 83.09%)
 531. (0.00001) RY ( 8) H 21            s(  0.01%)p 1.00( 24.64%)d 3.06( 75.35%)
 532. (0.00000) RY ( 9) H 21            s(  3.27%)p18.97( 62.02%)d10.62( 34.72%)
 533. (0.00000) RY (10) H 21            s(  8.77%)p 7.21( 63.25%)d 3.19( 27.98%)
 534. (0.00000) RY (11) H 21            s(  0.16%)p99.99( 30.22%)d99.99( 69.62%)
 535. (0.00000) RY (12) H 21            s(  5.06%)p 8.76( 44.34%)d10.00( 50.60%)
 536. (0.00000) RY (13) H 21            s(  0.05%)p99.99( 28.47%)d99.99( 71.48%)
 537. (0.00146) RY ( 1) H 22            s( 95.45%)p 0.03(  2.97%)d 0.02(  1.58%)
                                         0.0034  0.9770 -0.0027 -0.0102 -0.0781
                                        -0.0052 -0.1284  0.0647  0.0527  0.0638
                                         0.0538  0.0404 -0.0097  0.0845
 538. (0.00025) RY ( 2) H 22            s(  6.02%)p14.99( 90.24%)d 0.62(  3.74%)
                                         0.0058  0.0701  0.2351 -0.1919  0.9067
                                        -0.1161 -0.1633 -0.0127  0.0565 -0.1476
                                        -0.0798 -0.0474  0.0003 -0.0839
 539. (0.00009) RY ( 3) H 22            s(  4.13%)p14.74( 60.94%)d 8.45( 34.93%)
 540. (0.00005) RY ( 4) H 22            s( 21.18%)p 3.26( 69.02%)d 0.46(  9.81%)
 541. (0.00003) RY ( 5) H 22            s( 42.36%)p 0.92( 38.88%)d 0.44( 18.76%)
 542. (0.00002) RY ( 6) H 22            s(  9.56%)p 7.55( 72.18%)d 1.91( 18.27%)
 543. (0.00001) RY ( 7) H 22            s(  4.04%)p 3.18( 12.83%)d20.58( 83.13%)
 544. (0.00001) RY ( 8) H 22            s(  0.01%)p 1.00( 24.64%)d 3.06( 75.35%)
 545. (0.00000) RY ( 9) H 22            s(  3.26%)p19.05( 62.01%)d10.67( 34.74%)
 546. (0.00000) RY (10) H 22            s(  8.77%)p 7.21( 63.25%)d 3.19( 27.98%)
 547. (0.00000) RY (11) H 22            s(  0.16%)p99.99( 30.22%)d99.99( 69.62%)
 548. (0.00000) RY (12) H 22            s(  5.06%)p 8.76( 44.32%)d10.00( 50.62%)
 549. (0.00000) RY (13) H 22            s(  0.05%)p99.99( 28.48%)d99.99( 71.46%)
 550. (0.00067) RY ( 1) H 23            s( 97.53%)p 0.02(  1.93%)d 0.01(  0.55%)
                                         0.0002  0.9876  0.0011  0.0835 -0.0641
                                        -0.0302 -0.0636 -0.0367  0.0435 -0.0166
                                         0.0172  0.0660 -0.0102  0.0209
 551. (0.00011) RY ( 2) H 23            s(  1.66%)p41.30( 68.42%)d18.07( 29.93%)
                                         0.0027 -0.0466  0.1200  0.7009  0.0526
                                        -0.2749  0.0319  0.3369  0.0068  0.2752
                                         0.3755 -0.1242  0.1542  0.2082
 552. (0.00010) RY ( 3) H 23            s( 10.76%)p 5.62( 60.44%)d 2.68( 28.80%)
                                         0.0037 -0.0202  0.3274  0.3653  0.0454
                                         0.6207 -0.0594 -0.2827 -0.0108  0.1460
                                         0.1599  0.0608 -0.2019 -0.4435
 553. (0.00003) RY ( 4) H 23            s(  1.64%)p55.14( 90.37%)d 4.87(  7.99%)
 554. (0.00002) RY ( 5) H 23            s( 42.32%)p 0.96( 40.77%)d 0.40( 16.90%)
 555. (0.00001) RY ( 6) H 23            s(  5.26%)p17.18( 90.34%)d 0.84(  4.40%)
 556. (0.00000) RY ( 7) H 23            s( 19.18%)p 1.52( 29.15%)d 2.69( 51.68%)
 557. (0.00000) RY ( 8) H 23            s(  4.92%)p15.35( 75.56%)d 3.97( 19.52%)
 558. (0.00000) RY ( 9) H 23            s(  3.02%)p 9.10( 27.48%)d23.03( 69.51%)
 559. (0.00000) RY (10) H 23            s(  0.84%)p28.62( 24.16%)d88.84( 74.99%)
 560. (0.00000) RY (11) H 23            s(  3.24%)p 4.93( 15.97%)d24.93( 80.79%)
 561. (0.00000) RY (12) H 23            s(  0.18%)p99.99( 40.92%)d99.99( 58.90%)
 562. (0.00000) RY (13) H 23            s(  9.51%)p 3.62( 34.45%)d 5.89( 56.04%)
 563. (0.00022) RY ( 1) H 24            s( 82.76%)p 0.15( 12.09%)d 0.06(  5.15%)
                                        -0.0013  0.9081  0.0543  0.1286  0.0362
                                         0.2663 -0.1794 -0.0002  0.0001  0.0294
                                         0.0000  0.0001  0.2195 -0.0493
 564. (0.00009) RY ( 2) H 24            s(  0.00%)p 1.00( 64.26%)d 0.56( 35.74%)
 565. (0.00009) RY ( 3) H 24            s( 31.52%)p 1.42( 44.79%)d 0.75( 23.69%)
 566. (0.00003) RY ( 4) H 24            s(  3.66%)p25.87( 94.59%)d 0.48(  1.76%)
 567. (0.00001) RY ( 5) H 24            s( 43.98%)p 0.76( 33.50%)d 0.51( 22.51%)
 568. (0.00000) RY ( 6) H 24            s(  0.00%)p 1.00(  0.48%)d99.99( 99.52%)
 569. (0.00000) RY ( 7) H 24            s(  9.14%)p 8.81( 80.57%)d 1.13( 10.29%)
 570. (0.00000) RY ( 8) H 24            s( 26.06%)p 2.26( 58.99%)d 0.57( 14.95%)
 571. (0.00000) RY ( 9) H 24            s(  0.46%)p53.42( 24.41%)d99.99( 75.13%)
 572. (0.00000) RY (10) H 24            s(  0.42%)p19.42(  8.10%)d99.99( 91.48%)
 573. (0.00000) RY (11) H 24            s(  0.00%)p 1.00( 49.86%)d 1.01( 50.14%)
 574. (0.00000) RY (12) H 24            s(  2.07%)p20.75( 42.90%)d26.62( 55.04%)
 575. (0.00000) RY (13) H 24            s(  0.00%)p 1.00( 85.40%)d 0.17( 14.60%)
 576. (0.00067) RY ( 1) H 25            s( 97.53%)p 0.02(  1.93%)d 0.01(  0.55%)
                                         0.0002  0.9875  0.0011  0.0835 -0.0641
                                        -0.0303 -0.0637  0.0367 -0.0435 -0.0166
                                        -0.0172 -0.0660 -0.0101  0.0210
 577. (0.00011) RY ( 2) H 25            s(  1.68%)p40.79( 68.41%)d17.83( 29.91%)
                                         0.0027 -0.0466  0.1208  0.7019  0.0527
                                        -0.2735  0.0318 -0.3359 -0.0068  0.2753
                                        -0.3761  0.1244  0.1536  0.2069
 578. (0.00010) RY ( 3) H 25            s( 10.74%)p 5.63( 60.44%)d 2.68( 28.82%)
                                         0.0037 -0.0201  0.3271  0.3635  0.0453
                                         0.6216 -0.0595  0.2831  0.0108  0.1452
                                        -0.1590 -0.0618 -0.2022 -0.4439
 579. (0.00003) RY ( 4) H 25            s(  1.65%)p54.91( 90.35%)d 4.86(  8.00%)
 580. (0.00002) RY ( 5) H 25            s( 42.32%)p 0.96( 40.79%)d 0.40( 16.89%)
 581. (0.00001) RY ( 6) H 25            s(  5.26%)p17.18( 90.34%)d 0.84(  4.40%)
 582. (0.00000) RY ( 7) H 25            s( 19.18%)p 1.52( 29.15%)d 2.69( 51.66%)
 583. (0.00000) RY ( 8) H 25            s(  4.92%)p15.37( 75.57%)d 3.97( 19.51%)
 584. (0.00000) RY ( 9) H 25            s(  3.02%)p 9.07( 27.42%)d23.02( 69.56%)
 585. (0.00000) RY (10) H 25            s(  0.84%)p28.94( 24.20%)d89.64( 74.96%)
 586. (0.00000) RY (11) H 25            s(  3.24%)p 4.92( 15.97%)d24.91( 80.79%)
 587. (0.00000) RY (12) H 25            s(  0.18%)p99.99( 40.93%)d99.99( 58.89%)
 588. (0.00000) RY (13) H 25            s(  9.50%)p 3.62( 34.44%)d 5.90( 56.05%)


 NHO DIRECTIONALITY AND BOND BENDING (deviation from line of nuclear centers at
                                      the position of maximum hybrid amplitude)

         [Thresholds for printing:  angular deviation  >  1.0 degree]
                                    p- or d-character  > 25.0%
                                    orbital occupancy  >  0.10e

                        Line of Centers        Hybrid 1             Hybrid 2
                        ---------------  -------------------  ------------------
           NBO            Theta   Phi    Theta   Phi    Dev   Theta   Phi    Dev
 ===============================================================================
  15. LP ( 1) O  1          --     --     90.0   89.9   --      --     --    --
  16. LP ( 2) O  1          --     --     90.0  181.6   --      --     --    --
  17. LP ( 3) O  1          --     --      0.9  268.3   --      --     --    --
  18. LP ( 1) N  4          --     --     90.0   81.3   --      --     --    --
  19. LP ( 1) N 10          --     --     90.0  320.0   --      --     --    --
  20. LP ( 1) O 12          --     --     90.0  267.0   --      --     --    --
  21. LP ( 2) O 12          --     --      0.5   86.5   --      --     --    --
  22. BD ( 1) O  1- C  2   90.0  270.2     --     --    --     90.0   89.1   1.1
  23. BD ( 1) C  2- C  3   90.0  320.0    90.0  321.5   1.5    90.0  138.8   1.2
  24. BD ( 2) C  2- C  3   90.0  320.0   178.4  317.0  88.4     0.6   91.0  89.6
  25. BD ( 1) C  2- O 12   90.0  209.5    90.0  206.4   3.1     --     --    --
  26. BD ( 1) C  3- N  4   90.0   19.6    90.0   20.7   1.1     --     --    --
  29. BD ( 2) N  4- C  5   90.0  323.3   178.6  299.1  88.7   178.8  136.6  88.8
  32. BD ( 1) C  6- C  7   90.0   79.8    90.0   81.9   2.1     --     --    --
  33. BD ( 1) C  6- C 11   90.0  324.2    90.0  322.3   1.9     --     --    --
  34. BD ( 2) C  6- C 11   90.0  324.2     0.8  346.4  89.2     0.8  113.3  89.3
  35. BD ( 1) C  7- C  8   90.0   19.2    90.0   21.0   1.8    90.0  197.4   1.8
  36. BD ( 2) C  7- C  8   90.0   19.2     1.0    1.9  89.1     0.9  218.7  89.1
  37. BD ( 1) C  7- H 17   90.0  142.0    90.0  140.9   1.1     --     --    --
  38. BD ( 1) C  8- C  9   90.0  318.7    90.0  320.2   1.5    90.0  136.9   1.8
  40. BD ( 1) C  9- N 10   90.0  261.0    90.0  262.2   1.1    90.0   78.3   2.7
  41. BD ( 2) C  9- N 10   90.0  261.0   178.7  250.1  88.7     1.3  119.3  89.0
  43. BD ( 1) N 10- C 11   90.0  199.1    90.0  201.6   2.5     --     --    --
  47. BD ( 1) C 13- H 21  142.9   89.8   143.9   88.1   1.4     --     --    --
  48. BD ( 1) C 13- H 22   37.1   89.8    36.1   88.1   1.4     --     --    --


 3-Center, 4-Electron A:-B-:C Hyperbonds (A-B :C <=> A: B-C)
              [threshold for detection: 33.3%]

                                                  NBOs       3-center hybrids
                                              -------------  ----------------
       Hyperbond A:-B-:C   %A-B/%B-C   occ    BD(A-B) LP(C)  h(A)  h(B)  h(C)
      -------------------  ---------  ------  ------- -----  ----  ----  ----
   1.  C  3:- C  2-: O  1  45.5/54.5  3.6662      24     17    26    27    17


 SECOND ORDER PERTURBATION THEORY ANALYSIS OF FOCK MATRIX IN NBO BASIS

     Threshold for printing:   0.50 kcal/mol
                                                          E(2) E(NL)-E(L) F(L,NL)
      Donor (L) NBO              Acceptor (NL) NBO      kcal/mol   a.u.    a.u.
 ===============================================================================

 within unit  1
   15. LP ( 1) O  1            53. BD*( 1) C  2- C  3      3.30    1.18   0.056
   15. LP ( 1) O  1            55. BD*( 1) C  2- O 12      1.54    1.04   0.036
   15. LP ( 1) O  1           108. RY ( 1) C  2           14.32    1.91   0.148
   15. LP ( 1) O  1           109. RY ( 2) C  2            0.51    2.24   0.030
   16. LP ( 2) O  1            53. BD*( 1) C  2- C  3     20.85    0.85   0.119
   16. LP ( 2) O  1            55. BD*( 1) C  2- O 12     44.18    0.72   0.159
   16. LP ( 2) O  1            76. BD*( 1) C 13- C 14      1.13    0.73   0.026
   16. LP ( 2) O  1           109. RY ( 2) C  2            1.02    1.91   0.039
   16. LP ( 2) O  1           112. RY ( 5) C  2            1.64    3.70   0.069
   17. LP ( 3) O  1            54. BD*( 2) C  2- C  3    156.02    0.32   0.200
   17. LP ( 3) O  1            83. RY ( 2) O  1            0.74    1.09   0.025
   17. LP ( 3) O  1           110. RY ( 3) C  2            4.39    1.86   0.081
   17. LP ( 3) O  1           111. RY ( 4) C  2            1.84    2.27   0.058
   18. LP ( 1) N  4            53. BD*( 1) C  2- C  3      6.36    0.88   0.067
   18. LP ( 1) N  4            55. BD*( 1) C  2- O 12      0.53    0.75   0.018
   18. LP ( 1) N  4            57. BD*( 1) C  3- H 15     14.45    0.79   0.095
   18. LP ( 1) N  4            60. BD*( 1) C  5- C  6      4.93    0.90   0.059
   18. LP ( 1) N  4            61. BD*( 1) C  5- H 16     15.60    0.77   0.098
   18. LP ( 1) N  4            63. BD*( 1) C  6- C 11      0.53    0.91   0.020
   18. LP ( 1) N  4            65. BD*( 1) C  7- C  8      0.58    0.96   0.021
   18. LP ( 1) N  4           135. RY ( 2) C  3            3.92    1.87   0.076
   18. LP ( 1) N  4           186. RY ( 1) C  5            4.78    1.70   0.080
   19. LP ( 1) N 10            63. BD*( 1) C  6- C 11     12.65    0.94   0.097
   19. LP ( 1) N 10            68. BD*( 1) C  8- C  9     11.55    0.95   0.094
   19. LP ( 1) N 10            72. BD*( 1) C  9- H 19      5.62    0.82   0.061
   19. LP ( 1) N 10            74. BD*( 1) C 11- H 20      5.85    0.82   0.062
   19. LP ( 1) N 10           290. RY ( 1) C  9            3.27    1.76   0.068
   19. LP ( 1) N 10           342. RY ( 1) C 11            2.94    1.85   0.066
   19. LP ( 1) N 10           349. RY ( 8) C 11            0.62    2.38   0.034
   20. LP ( 1) O 12            52. BD*( 1) O  1- C  2      7.51    1.28   0.088
   20. LP ( 1) O 12            53. BD*( 1) C  2- C  3      0.56    1.13   0.022
   20. LP ( 1) O 12            56. BD*( 1) C  3- N  4      0.57    1.23   0.024
   20. LP ( 1) O 12            76. BD*( 1) C 13- C 14      1.35    1.00   0.033
   20. LP ( 1) O 12            77. BD*( 1) C 13- H 21      1.21    0.99   0.031
   20. LP ( 1) O 12            78. BD*( 1) C 13- H 22      1.21    0.99   0.031
   20. LP ( 1) O 12            80. BD*( 1) C 14- H 24      0.73    1.01   0.024
   20. LP ( 1) O 12           108. RY ( 1) C  2            1.45    1.86   0.046
   20. LP ( 1) O 12           109. RY ( 2) C  2            1.27    2.19   0.047
   20. LP ( 1) O 12           394. RY ( 1) C 13            2.42    1.97   0.062
   20. LP ( 1) O 12           395. RY ( 2) C 13            0.54    1.84   0.028
   21. LP ( 2) O 12            54. BD*( 2) C  2- C  3     43.09    0.42   0.119
   21. LP ( 2) O 12            77. BD*( 1) C 13- H 21      8.40    0.78   0.072
   21. LP ( 2) O 12            78. BD*( 1) C 13- H 22      8.39    0.78   0.072
   21. LP ( 2) O 12           111. RY ( 4) C  2            1.71    2.37   0.057
   21. LP ( 2) O 12           396. RY ( 3) C 13            0.98    2.08   0.040
   22. BD ( 1) O  1- C  2      53. BD*( 1) C  2- C  3      0.97    1.52   0.034
   22. BD ( 1) O  1- C  2      57. BD*( 1) C  3- H 15      0.66    1.43   0.028
   23. BD ( 1) C  2- C  3      52. BD*( 1) O  1- C  2      0.51    1.34   0.023
   23. BD ( 1) C  2- C  3      56. BD*( 1) C  3- N  4      0.59    1.29   0.025
   23. BD ( 1) C  2- C  3      58. BD*( 1) N  4- C  5      4.01    1.31   0.065
   23. BD ( 1) C  2- C  3      75. BD*( 1) O 12- C 13      3.36    1.02   0.052
   23. BD ( 1) C  2- C  3      82. RY ( 1) O  1            0.80    1.61   0.032
   23. BD ( 1) C  2- C  3     160. RY ( 1) N  4            1.31    1.56   0.040
   24. BD ( 2) C  2- C  3      54. BD*( 2) C  2- C  3     11.76    0.29   0.052
   24. BD ( 2) C  2- C  3      59. BD*( 2) N  4- C  5     63.59    0.31   0.126
   24. BD ( 2) C  2- C  3      83. RY ( 2) O  1            1.83    1.06   0.039
   24. BD ( 2) C  2- C  3     134. RY ( 1) C  3            0.56    0.82   0.019
   24. BD ( 2) C  2- C  3     162. RY ( 3) N  4            1.05    2.87   0.049
   24. BD ( 2) C  2- C  3     164. RY ( 5) N  4            0.55    1.01   0.021
   25. BD ( 1) C  2- O 12      56. BD*( 1) C  3- N  4      1.57    1.48   0.043
   25. BD ( 1) C  2- O 12      76. BD*( 1) C 13- C 14      1.99    1.25   0.044
   25. BD ( 1) C  2- O 12     136. RY ( 3) C  3            0.55    2.24   0.031
   25. BD ( 1) C  2- O 12     395. RY ( 2) C 13            1.21    2.09   0.045
   26. BD ( 1) C  3- N  4      53. BD*( 1) C  2- C  3      0.61    1.31   0.025
   26. BD ( 1) C  3- N  4      55. BD*( 1) C  2- O 12      1.74    1.18   0.040
   26. BD ( 1) C  3- N  4      58. BD*( 1) N  4- C  5      0.76    1.43   0.030
   26. BD ( 1) C  3- N  4      60. BD*( 1) C  5- C  6      2.81    1.33   0.055
   26. BD ( 1) C  3- N  4     108. RY ( 1) C  2            1.24    2.05   0.045
   26. BD ( 1) C  3- N  4     188. RY ( 3) C  5            1.90    2.30   0.059
   26. BD ( 1) C  3- N  4     189. RY ( 4) C  5            0.51    2.22   0.030
   27. BD ( 1) C  3- H 15      52. BD*( 1) O  1- C  2      4.94    1.22   0.069
   27. BD ( 1) C  3- H 15     109. RY ( 2) C  2            0.74    2.13   0.035
   27. BD ( 1) C  3- H 15     160. RY ( 1) N  4            1.15    1.44   0.036
   28. BD ( 1) N  4- C  5      53. BD*( 1) C  2- C  3      1.91    1.33   0.045
   28. BD ( 1) N  4- C  5      56. BD*( 1) C  3- N  4      0.78    1.43   0.030
   28. BD ( 1) N  4- C  5      60. BD*( 1) C  5- C  6      1.09    1.34   0.034
   28. BD ( 1) N  4- C  5      63. BD*( 1) C  6- C 11      2.06    1.35   0.047
   28. BD ( 1) N  4- C  5     136. RY ( 3) C  3            2.39    2.19   0.065
   28. BD ( 1) N  4- C  5     213. RY ( 2) C  6            0.99    2.16   0.041
   29. BD ( 2) N  4- C  5      54. BD*( 2) C  2- C  3     15.01    0.38   0.067
   29. BD ( 2) N  4- C  5      59. BD*( 2) N  4- C  5      3.60    0.40   0.034
   29. BD ( 2) N  4- C  5      64. BD*( 2) C  6- C 11     20.37    0.39   0.080
   29. BD ( 2) N  4- C  5     134. RY ( 1) C  3            2.86    0.91   0.045
   29. BD ( 2) N  4- C  5     216. RY ( 5) C  6            0.73    2.24   0.036
   30. BD ( 1) C  5- C  6      56. BD*( 1) C  3- N  4      3.82    1.28   0.062
   30. BD ( 1) C  5- C  6      58. BD*( 1) N  4- C  5      1.10    1.29   0.034
   30. BD ( 1) C  5- C  6      62. BD*( 1) C  6- C  7      0.87    1.21   0.029
   30. BD ( 1) C  5- C  6      63. BD*( 1) C  6- C 11      0.70    1.20   0.026
   30. BD ( 1) C  5- C  6      65. BD*( 1) C  7- C  8      2.06    1.25   0.045
   30. BD ( 1) C  5- C  6      73. BD*( 1) N 10- C 11      2.45    1.24   0.049
   30. BD ( 1) C  5- C  6     160. RY ( 1) N  4            1.03    1.54   0.036
   30. BD ( 1) C  5- C  6     238. RY ( 1) C  7            1.05    2.20   0.043
   30. BD ( 1) C  5- C  6     342. RY ( 1) C 11            0.66    2.11   0.033
   31. BD ( 1) C  5- H 16      62. BD*( 1) C  6- C  7      5.25    1.11   0.068
   31. BD ( 1) C  5- H 16     160. RY ( 1) N  4            1.03    1.44   0.034
   31. BD ( 1) C  5- H 16     161. RY ( 2) N  4            0.68    1.85   0.032
   31. BD ( 1) C  5- H 16     212. RY ( 1) C  6            0.75    1.86   0.033
   31. BD ( 1) C  5- H 16     213. RY ( 2) C  6            0.87    1.90   0.036
   32. BD ( 1) C  6- C  7      60. BD*( 1) C  5- C  6      0.98    1.20   0.031
   32. BD ( 1) C  6- C  7      61. BD*( 1) C  5- H 16      2.10    1.08   0.043
   32. BD ( 1) C  6- C  7      63. BD*( 1) C  6- C 11      0.79    1.22   0.028
   32. BD ( 1) C  6- C  7      65. BD*( 1) C  7- C  8      0.95    1.26   0.031
   32. BD ( 1) C  6- C  7      69. BD*( 1) C  8- H 18      3.03    1.12   0.052
   32. BD ( 1) C  6- C  7      74. BD*( 1) C 11- H 20      2.72    1.09   0.049
   32. BD ( 1) C  6- C  7     188. RY ( 3) C  5            0.90    2.18   0.040
   32. BD ( 1) C  6- C  7     189. RY ( 4) C  5            0.56    2.09   0.031
   32. BD ( 1) C  6- C  7     264. RY ( 1) C  8            1.16    2.17   0.045
   32. BD ( 1) C  6- C  7     265. RY ( 2) C  8            0.56    2.07   0.030
   32. BD ( 1) C  6- C  7     342. RY ( 1) C 11            0.79    2.12   0.037
   32. BD ( 1) C  6- C  7     345. RY ( 4) C 11            0.54    2.81   0.035
   33. BD ( 1) C  6- C 11      58. BD*( 1) N  4- C  5      1.69    1.32   0.042
   33. BD ( 1) C  6- C 11      60. BD*( 1) C  5- C  6      0.75    1.21   0.027
   33. BD ( 1) C  6- C 11      62. BD*( 1) C  6- C  7      0.75    1.24   0.027
   33. BD ( 1) C  6- C 11      67. BD*( 1) C  7- H 17      2.96    1.14   0.052
   33. BD ( 1) C  6- C 11     188. RY ( 3) C  5            1.44    2.19   0.050
   33. BD ( 1) C  6- C 11     238. RY ( 1) C  7            1.19    2.22   0.046
   33. BD ( 1) C  6- C 11     316. RY ( 1) N 10            1.11    1.61   0.038
   33. BD ( 1) C  6- C 11     317. RY ( 2) N 10            0.64    1.90   0.031
   34. BD ( 2) C  6- C 11      59. BD*( 2) N  4- C  5     19.81    0.34   0.073
   34. BD ( 2) C  6- C 11      66. BD*( 2) C  7- C  8     28.79    0.34   0.088
   34. BD ( 2) C  6- C 11      71. BD*( 2) C  9- N 10     34.27    0.31   0.092
   34. BD ( 2) C  6- C 11     187. RY ( 2) C  5            0.93    0.81   0.024
   34. BD ( 2) C  6- C 11     241. RY ( 4) C  7            1.41    0.85   0.031
   34. BD ( 2) C  6- C 11     318. RY ( 3) N 10            1.07    0.97   0.029
   35. BD ( 1) C  7- C  8      60. BD*( 1) C  5- C  6      3.39    1.23   0.058
   35. BD ( 1) C  7- C  8      62. BD*( 1) C  6- C  7      1.11    1.25   0.033
   35. BD ( 1) C  7- C  8      68. BD*( 1) C  8- C  9      0.93    1.25   0.030
   35. BD ( 1) C  7- C  8      69. BD*( 1) C  8- H 18      0.50    1.14   0.021
   35. BD ( 1) C  7- C  8      72. BD*( 1) C  9- H 19      2.42    1.12   0.046
   35. BD ( 1) C  7- C  8     212. RY ( 1) C  6            2.09    2.00   0.058
   35. BD ( 1) C  7- C  8     290. RY ( 1) C  9            1.07    2.05   0.042
   35. BD ( 1) C  7- C  8     293. RY ( 4) C  9            0.55    2.56   0.034
   36. BD ( 2) C  7- C  8      64. BD*( 2) C  6- C 11     23.88    0.35   0.082
   36. BD ( 2) C  7- C  8      71. BD*( 2) C  9- N 10     34.32    0.33   0.095
   36. BD ( 2) C  7- C  8     214. RY ( 3) C  6            1.05    1.22   0.032
   36. BD ( 2) C  7- C  8     292. RY ( 3) C  9            0.83    0.89   0.024
   37. BD ( 1) C  7- H 17      63. BD*( 1) C  6- C 11      4.68    1.11   0.064
   37. BD ( 1) C  7- H 17      68. BD*( 1) C  8- C  9      4.12    1.12   0.061
   37. BD ( 1) C  7- H 17      69. BD*( 1) C  8- H 18      0.70    1.01   0.024
   37. BD ( 1) C  7- H 17     212. RY ( 1) C  6            1.74    1.87   0.051
   37. BD ( 1) C  7- H 17     264. RY ( 1) C  8            1.42    2.06   0.048
   37. BD ( 1) C  7- H 17     270. RY ( 7) C  8            0.50    2.76   0.033
   38. BD ( 1) C  8- C  9      65. BD*( 1) C  7- C  8      0.90    1.29   0.030
   38. BD ( 1) C  8- C  9      67. BD*( 1) C  7- H 17      2.98    1.15   0.052
   38. BD ( 1) C  8- C  9     238. RY ( 1) C  7            1.25    2.23   0.047
   38. BD ( 1) C  8- C  9     239. RY ( 2) C  7            0.81    1.84   0.034
   38. BD ( 1) C  8- C  9     316. RY ( 1) N 10            1.02    1.62   0.036
   39. BD ( 1) C  8- H 18      62. BD*( 1) C  6- C  7      4.34    1.13   0.062
   39. BD ( 1) C  8- H 18      67. BD*( 1) C  7- H 17      0.59    1.03   0.022
   39. BD ( 1) C  8- H 18      70. BD*( 1) C  9- N 10      4.40    1.15   0.063
   39. BD ( 1) C  8- H 18      72. BD*( 1) C  9- H 19      0.60    1.00   0.022
   39. BD ( 1) C  8- H 18     238. RY ( 1) C  7            1.47    2.11   0.050
   39. BD ( 1) C  8- H 18     291. RY ( 2) C  9            1.11    1.89   0.041
   39. BD ( 1) C  8- H 18     295. RY ( 6) C  9            0.53    2.90   0.035
   40. BD ( 1) C  9- N 10      68. BD*( 1) C  8- C  9      0.65    1.37   0.027
   40. BD ( 1) C  9- N 10      69. BD*( 1) C  8- H 18      1.71    1.26   0.041
   40. BD ( 1) C  9- N 10      74. BD*( 1) C 11- H 20      2.73    1.23   0.052
   40. BD ( 1) C  9- N 10     343. RY ( 2) C 11            3.18    2.01   0.071
   41. BD ( 2) C  9- N 10      64. BD*( 2) C  6- C 11     32.68    0.40   0.102
   41. BD ( 2) C  9- N 10      66. BD*( 2) C  7- C  8     18.90    0.41   0.078
   41. BD ( 2) C  9- N 10     266. RY ( 3) C  8            0.64    1.05   0.023
   41. BD ( 2) C  9- N 10     344. RY ( 3) C 11            3.09    0.95   0.048
   42. BD ( 1) C  9- H 19      65. BD*( 1) C  7- C  8      3.88    1.17   0.060
   42. BD ( 1) C  9- H 19      69. BD*( 1) C  8- H 18      0.55    1.02   0.021
   42. BD ( 1) C  9- H 19      73. BD*( 1) N 10- C 11      5.08    1.16   0.068
   42. BD ( 1) C  9- H 19     264. RY ( 1) C  8            1.32    2.07   0.047
   42. BD ( 1) C  9- H 19     316. RY ( 1) N 10            1.04    1.50   0.035
   43. BD ( 1) N 10- C 11      60. BD*( 1) C  5- C  6      2.09    1.35   0.047
   43. BD ( 1) N 10- C 11      63. BD*( 1) C  6- C 11      0.77    1.36   0.029
   43. BD ( 1) N 10- C 11      72. BD*( 1) C  9- H 19      2.61    1.24   0.051
   43. BD ( 1) N 10- C 11     213. RY ( 2) C  6            0.50    2.16   0.029
   43. BD ( 1) N 10- C 11     291. RY ( 2) C  9            3.03    2.13   0.072
   44. BD ( 1) C 11- H 20      62. BD*( 1) C  6- C  7      4.78    1.12   0.065
   44. BD ( 1) C 11- H 20      70. BD*( 1) C  9- N 10      5.35    1.14   0.070
   44. BD ( 1) C 11- H 20     212. RY ( 1) C  6            1.04    1.88   0.039
   44. BD ( 1) C 11- H 20     316. RY ( 1) N 10            1.08    1.50   0.036
   45. BD ( 1) O 12- C 13      53. BD*( 1) C  2- C  3      2.00    1.37   0.047
   45. BD ( 1) O 12- C 13      80. BD*( 1) C 14- H 24      1.09    1.25   0.033
   45. BD ( 1) O 12- C 13     108. RY ( 1) C  2            1.02    2.10   0.041
   46. BD ( 1) C 13- C 14      55. BD*( 1) C  2- O 12      2.92    1.01   0.049
   46. BD ( 1) C 13- C 14     368. RY ( 1) O 12            1.30    1.49   0.039
   47. BD ( 1) C 13- H 21      81. BD*( 1) C 14- H 25      3.06    0.96   0.048
   47. BD ( 1) C 13- H 21     369. RY ( 2) O 12            0.75    1.28   0.028
   48. BD ( 1) C 13- H 22      79. BD*( 1) C 14- H 23      3.06    0.96   0.048
   48. BD ( 1) C 13- H 22     369. RY ( 2) O 12            0.75    1.28   0.028
   49. BD ( 1) C 14- H 23      75. BD*( 1) O 12- C 13      0.53    0.91   0.020
   49. BD ( 1) C 14- H 23      78. BD*( 1) C 13- H 22      2.85    0.94   0.046
   50. BD ( 1) C 14- H 24      75. BD*( 1) O 12- C 13      4.02    0.91   0.054
   51. BD ( 1) C 14- H 25      75. BD*( 1) O 12- C 13      0.53    0.91   0.020
   51. BD ( 1) C 14- H 25      77. BD*( 1) C 13- H 21      2.85    0.94   0.046


 NATURAL BOND ORBITALS (Summary):

                                                     Principal Delocalizations
           NBO                 Occupancy    Energy   (geminal,vicinal,remote)
 ===============================================================================
 Molecular unit  1  (C10H11N2O2)
 ------ Lewis --------------------------------------
    1. CR ( 1) O  1             2.00000   -19.56010
    2. CR ( 1) C  2             1.99999   -10.61471
    3. CR ( 1) C  3             1.99999   -10.50125
    4. CR ( 1) N  4             1.99999   -14.71866
    5. CR ( 1) C  5             1.99999   -10.51718
    6. CR ( 1) C  6             1.99999   -10.53009
    7. CR ( 1) C  7             1.99999   -10.52637
    8. CR ( 1) C  8             1.99999   -10.52784
    9. CR ( 1) C  9             1.99999   -10.54751
   10. CR ( 1) N 10             1.99999   -14.72976
   11. CR ( 1) C 11             1.99999   -10.54840
   12. CR ( 1) O 12             2.00000   -19.62140
   13. CR ( 1) C 13             1.99999   -10.56434
   14. CR ( 1) C 14             1.99999   -10.51435
   15. LP ( 1) O  1             1.97780    -0.62240  108(v),53(v),55(v),109(v)
   16. LP ( 2) O  1             1.85502    -0.29642  55(v),53(v),112(v),76(r)
                                                     109(v)
   17. LP ( 3) O  1             1.58249    -0.26537  54(v),110(v),111(v),83(g)
   18. LP ( 1) N  4             1.88743    -0.32726  61(v),57(v),53(v),60(v)
                                                     186(v),135(v),65(r),55(r)
                                                     63(r)
   19. LP ( 1) N 10             1.91662    -0.35979  63(v),68(v),74(v),72(v)
                                                     290(v),342(v),349(v)
   20. LP ( 1) O 12             1.96647    -0.57102  52(v),394(v),108(v),76(v)
                                                     109(v),78(v),77(v),80(r)
                                                     56(r),53(v),395(v)
   21. LP ( 2) O 12             1.84555    -0.36038  54(v),77(v),78(v),111(v)
                                                     396(v)
   22. BD ( 1) O  1- C  2       1.99695    -0.96574  53(g),57(v)
   23. BD ( 1) C  2- C  3       1.98181    -0.63372  58(v),75(v),160(v),82(v)
                                                     56(g),52(g)
   24. BD ( 2) C  2- C  3       1.60546    -0.23838  59(v),54(g),83(v),162(v)
                                                     134(g),164(v)
   25. BD ( 1) C  2- O 12       1.98945    -0.81912  76(v),56(v),395(v),136(v)
   26. BD ( 1) C  3- N  4       1.98594    -0.76010  60(v),188(v),55(v),108(v)
                                                     58(g),53(g),189(v)
   27. BD ( 1) C  3- H 15       1.98555    -0.51395  52(v),160(v),109(v)
   28. BD ( 1) N  4- C  5       1.98806    -0.77265  136(v),63(v),53(v),60(g)
                                                     213(v),56(g)
   29. BD ( 2) N  4- C  5       1.86520    -0.32404  64(v),54(v),59(g),134(v)
                                                     216(v)
   30. BD ( 1) C  5- C  6       1.98012    -0.61895  56(v),73(v),65(v),58(g)
                                                     238(v),160(v),62(g),63(g)
                                                     342(v)
   31. BD ( 1) C  5- H 16       1.98504    -0.51606  62(v),160(v),213(v),212(v)
                                                     161(v)
   32. BD ( 1) C  6- C  7       1.97688    -0.63428  69(v),74(v),61(v),264(v)
                                                     60(g),65(g),188(v),342(v)
                                                     63(g),265(v),189(v),345(v)
   33. BD ( 1) C  6- C 11       1.98469    -0.64428  67(v),58(v),188(v),238(v)
                                                     316(v),60(g),62(g),317(v)
   34. BD ( 2) C  6- C 11       1.57683    -0.26469  71(v),66(v),59(v),241(v)
                                                     318(v),187(v)
   35. BD ( 1) C  7- C  8       1.98452    -0.65672  60(v),72(v),212(v),62(g)
                                                     290(v),68(g),293(v),69(g)
   36. BD ( 2) C  7- C  8       1.69403    -0.28148  71(v),64(v),214(v),292(v)
   37. BD ( 1) C  7- H 17       1.98033    -0.52691  63(v),68(v),212(v),264(v)
                                                     69(v),270(v)
   38. BD ( 1) C  8- C  9       1.98884    -0.65651  67(v),238(v),316(v),65(g)
                                                     239(v)
   39. BD ( 1) C  8- H 18       1.98031    -0.53619  70(v),62(v),238(v),291(v)
                                                     72(v),67(v),295(v)
   40. BD ( 1) C  9- N 10       1.98744    -0.77227  343(v),74(v),69(v),68(g)
   41. BD ( 2) C  9- N 10       1.74451    -0.33166  64(v),66(v),344(v),266(v)
   42. BD ( 1) C  9- H 19       1.98244    -0.53670  73(v),65(v),264(v),316(v)
                                                     69(v)
   43. BD ( 1) N 10- C 11       1.98794    -0.77749  291(v),72(v),60(v),63(g)
                                                     213(v)
   44. BD ( 1) C 11- H 20       1.98075    -0.53194  70(v),62(v),316(v),212(v)
   45. BD ( 1) O 12- C 13       1.99204    -0.81068  53(v),80(v),108(v)
   46. BD ( 1) C 13- C 14       1.99232    -0.59351  55(v),368(v)
   47. BD ( 1) C 13- H 21       1.98685    -0.52222  81(v),369(v)
   48. BD ( 1) C 13- H 22       1.98685    -0.52222  79(v),369(v)
   49. BD ( 1) C 14- H 23       1.99034    -0.51935  78(v),75(v)
   50. BD ( 1) C 14- H 24       1.98720    -0.52143  75(v)
   51. BD ( 1) C 14- H 25       1.99034    -0.51936  77(v),75(v)
 ------ non-Lewis ----------------------------------
   52. BD*( 1) O  1- C  2       0.01962     0.70978
   53. BD*( 1) C  2- C  3       0.06041     0.55448
   54. BD*( 2) C  2- C  3       0.47821     0.05501
   55. BD*( 1) C  2- O 12       0.10763     0.41988
   56. BD*( 1) C  3- N  4       0.00970     0.65656
   57. BD*( 1) C  3- H 15       0.03809     0.46436
   58. BD*( 1) N  4- C  5       0.00919     0.67199
   59. BD*( 2) N  4- C  5       0.40984     0.07270
   60. BD*( 1) C  5- C  6       0.02382     0.56840
   61. BD*( 1) C  5- H 16       0.04355     0.44738
   62. BD*( 1) C  6- C  7       0.02356     0.59090
   63. BD*( 1) C  6- C 11       0.03374     0.58221
   64. BD*( 2) C  6- C 11       0.39165     0.06912
   65. BD*( 1) C  7- C  8       0.01198     0.62916
   66. BD*( 2) C  7- C  8       0.29844     0.07551
   67. BD*( 1) C  7- H 17       0.01526     0.49755
   68. BD*( 1) C  8- C  9       0.02724     0.59480
   69. BD*( 1) C  8- H 18       0.01310     0.48483
   70. BD*( 1) C  9- N 10       0.01515     0.60985
   71. BD*( 2) C  9- N 10       0.43614     0.04841
   72. BD*( 1) C  9- H 19       0.02358     0.46111
   73. BD*( 1) N 10- C 11       0.01216     0.61938
   74. BD*( 1) C 11- H 20       0.02597     0.45863
   75. BD*( 1) O 12- C 13       0.02292     0.38861
   76. BD*( 1) C 13- C 14       0.00920     0.43046
   77. BD*( 1) C 13- H 21       0.02893     0.42306
   78. BD*( 1) C 13- H 22       0.02893     0.42307
   79. BD*( 1) C 14- H 23       0.00859     0.44256
   80. BD*( 1) C 14- H 24       0.00394     0.44377
   81. BD*( 1) C 14- H 25       0.00859     0.44256
   82. RY ( 1) O  1             0.00211     0.98063
   83. RY ( 2) O  1             0.00210     0.82171
   84. RY ( 3) O  1             0.00023     2.19635
   85. RY ( 4) O  1             0.00014     2.00359
   86. RY ( 5) O  1             0.00010     1.78747
   87. RY ( 6) O  1             0.00005     2.12453
   88. RY ( 7) O  1             0.00004     2.52437
   89. RY ( 8) O  1             0.00001     3.98584
   90. RY ( 9) O  1             0.00001     3.57914
   91. RY (10) O  1             0.00000     3.92366
   92. RY (11) O  1             0.00000     7.99342
   93. RY (12) O  1             0.00000    15.34407
   94. RY (13) O  1             0.00000     3.08247
   95. RY (14) O  1             0.00000     6.07232
   96. RY (15) O  1             0.00000     3.97275
   97. RY (16) O  1             0.00000     6.02157
   98. RY (17) O  1             0.00000     5.03531
   99. RY (18) O  1             0.00000     4.53853
  100. RY (19) O  1             0.00000     5.77980
  101. RY (20) O  1             0.00000     5.74387
  102. RY (21) O  1             0.00000     5.12937
  103. RY (22) O  1             0.00000    18.38369
  104. RY (23) O  1             0.00000     5.66584
  105. RY (24) O  1             0.00000    13.28926
  106. RY (25) O  1             0.00000     6.29894
  107. RY (26) O  1             0.00000     7.41696
  108. RY ( 1) C  2             0.01671     1.28760
  109. RY ( 2) C  2             0.00599     1.61520
  110. RY ( 3) C  2             0.00497     1.59725
  111. RY ( 4) C  2             0.00226     2.00925
  112. RY ( 5) C  2             0.00223     3.40325
  113. RY ( 6) C  2             0.00075     2.01132
  114. RY ( 7) C  2             0.00043     1.22500
  115. RY ( 8) C  2             0.00040     3.43427
  116. RY ( 9) C  2             0.00013     1.95307
  117. RY (10) C  2             0.00005     2.91228
  118. RY (11) C  2             0.00004     2.33654
  119. RY (12) C  2             0.00002     2.71317
  120. RY (13) C  2             0.00001     3.10074
  121. RY (14) C  2             0.00001     4.47393
  122. RY (15) C  2             0.00000     2.62925
  123. RY (16) C  2             0.00000     3.99889
  124. RY (17) C  2             0.00000     3.47436
  125. RY (18) C  2             0.00000     3.04519
  126. RY (19) C  2             0.00000    14.48848
  127. RY (20) C  2             0.00000     3.59726
  128. RY (21) C  2             0.00000     2.96239
  129. RY (22) C  2             0.00000     4.89385
  130. RY (23) C  2             0.00000     1.95497
  131. RY (24) C  2             0.00000     6.04947
  132. RY (25) C  2             0.00000     3.28482
  133. RY (26) C  2             0.00000     3.09265
  134. RY ( 1) C  3             0.00553     0.58554
  135. RY ( 2) C  3             0.00507     1.54349
  136. RY ( 3) C  3             0.00288     1.42157
  137. RY ( 4) C  3             0.00098     1.25653
  138. RY ( 5) C  3             0.00027     2.44079
  139. RY ( 6) C  3             0.00023     2.62968
  140. RY ( 7) C  3             0.00020     2.40170
  141. RY ( 8) C  3             0.00016     1.81443
  142. RY ( 9) C  3             0.00013     2.72568
  143. RY (10) C  3             0.00004     2.63439
  144. RY (11) C  3             0.00003     3.63156
  145. RY (12) C  3             0.00002     1.72692
  146. RY (13) C  3             0.00001     3.44671
  147. RY (14) C  3             0.00000     2.91933
  148. RY (15) C  3             0.00000     3.41404
  149. RY (16) C  3             0.00000     3.10787
  150. RY (17) C  3             0.00000     3.09697
  151. RY (18) C  3             0.00000     3.39543
  152. RY (19) C  3             0.00000     2.99215
  153. RY (20) C  3             0.00000     8.98575
  154. RY (21) C  3             0.00000     7.14516
  155. RY (22) C  3             0.00000     2.01191
  156. RY (23) C  3             0.00000     3.57386
  157. RY (24) C  3             0.00000     3.25200
  158. RY (25) C  3             0.00000     7.69889
  159. RY (26) C  3             0.00000     5.52844
  160. RY ( 1) N  4             0.00678     0.92514
  161. RY ( 2) N  4             0.00191     1.33619
  162. RY ( 3) N  4             0.00100     2.63441
  163. RY ( 4) N  4             0.00064     1.31046
  164. RY ( 5) N  4             0.00049     0.77417
  165. RY ( 6) N  4             0.00019     2.78920
  166. RY ( 7) N  4             0.00010     3.69729
  167. RY ( 8) N  4             0.00007     3.35487
  168. RY ( 9) N  4             0.00002     2.85641
  169. RY (10) N  4             0.00002     2.31947
  170. RY (11) N  4             0.00001     5.66432
  171. RY (12) N  4             0.00001     3.96972
  172. RY (13) N  4             0.00001     3.11772
  173. RY (14) N  4             0.00001     2.94724
  174. RY (15) N  4             0.00000     4.93477
  175. RY (16) N  4             0.00000     3.25102
  176. RY (17) N  4             0.00000     4.46750
  177. RY (18) N  4             0.00000     4.47136
  178. RY (19) N  4             0.00000    19.02655
  179. RY (20) N  4             0.00000     4.39499
  180. RY (21) N  4             0.00000     4.61687
  181. RY (22) N  4             0.00000     3.95287
  182. RY (23) N  4             0.00000     9.80917
  183. RY (24) N  4             0.00000     8.14448
  184. RY (25) N  4             0.00000     2.92153
  185. RY (26) N  4             0.00000     5.63085
  186. RY ( 1) C  5             0.00668     1.37189
  187. RY ( 2) C  5             0.00423     0.54467
  188. RY ( 3) C  5             0.00394     1.54376
  189. RY ( 4) C  5             0.00107     1.45770
  190. RY ( 5) C  5             0.00049     2.43193
  191. RY ( 6) C  5             0.00026     2.79379
  192. RY ( 7) C  5             0.00011     2.23918
  193. RY ( 8) C  5             0.00007     3.05106
  194. RY ( 9) C  5             0.00005     3.53174
  195. RY (10) C  5             0.00004     1.83613
  196. RY (11) C  5             0.00003     3.38486
  197. RY (12) C  5             0.00001     2.74412
  198. RY (13) C  5             0.00001     2.16251
  199. RY (14) C  5             0.00001     2.65731
  200. RY (15) C  5             0.00001     2.27501
  201. RY (16) C  5             0.00000     3.55953
  202. RY (17) C  5             0.00000     3.15863
  203. RY (18) C  5             0.00000     3.42205
  204. RY (19) C  5             0.00000    11.13111
  205. RY (20) C  5             0.00000     2.96350
  206. RY (21) C  5             0.00000     3.12327
  207. RY (22) C  5             0.00000     7.41552
  208. RY (23) C  5             0.00000     8.72690
  209. RY (24) C  5             0.00000     3.41592
  210. RY (25) C  5             0.00000     1.91480
  211. RY (26) C  5             0.00000     3.41256
  212. RY ( 1) C  6             0.00698     1.34336
  213. RY ( 2) C  6             0.00253     1.38398
  214. RY ( 3) C  6             0.00150     0.93489
  215. RY ( 4) C  6             0.00071     2.07693
  216. RY ( 5) C  6             0.00069     1.92003
  217. RY ( 6) C  6             0.00035     3.57178
  218. RY ( 7) C  6             0.00023     3.51236
  219. RY ( 8) C  6             0.00023     3.32781
  220. RY ( 9) C  6             0.00013     3.16431
  221. RY (10) C  6             0.00007     3.34898
  222. RY (11) C  6             0.00005     2.62034
  223. RY (12) C  6             0.00002     2.17806
  224. RY (13) C  6             0.00001     3.77907
  225. RY (14) C  6             0.00001     3.21203
  226. RY (15) C  6             0.00001     3.06185
  227. RY (16) C  6             0.00000     3.28870
  228. RY (17) C  6             0.00000     2.69899
  229. RY (18) C  6             0.00000     1.98572
  230. RY (19) C  6             0.00000     4.82180
  231. RY (20) C  6             0.00000     2.47001
  232. RY (21) C  6             0.00000     1.73094
  233. RY (22) C  6             0.00000     5.88088
  234. RY (23) C  6             0.00000    14.88336
  235. RY (24) C  6             0.00000     5.07135
  236. RY (25) C  6             0.00000     3.25070
  237. RY (26) C  6             0.00000     3.12395
  238. RY ( 1) C  7             0.00482     1.57716
  239. RY ( 2) C  7             0.00211     1.18798
  240. RY ( 3) C  7             0.00111     1.37946
  241. RY ( 4) C  7             0.00108     0.58378
  242. RY ( 5) C  7             0.00033     3.57399
  243. RY ( 6) C  7             0.00027     3.27856
  244. RY ( 7) C  7             0.00020     1.32845
  245. RY ( 8) C  7             0.00016     2.31664
  246. RY ( 9) C  7             0.00005     2.97971
  247. RY (10) C  7             0.00003     2.84667
  248. RY (11) C  7             0.00002     3.58783
  249. RY (12) C  7             0.00001     3.38317
  250. RY (13) C  7             0.00001     3.55617
  251. RY (14) C  7             0.00001     3.66730
  252. RY (15) C  7             0.00000     1.47294
  253. RY (16) C  7             0.00000     2.81817
  254. RY (17) C  7             0.00000     3.37124
  255. RY (18) C  7             0.00000     3.23840
  256. RY (19) C  7             0.00000     3.34044
  257. RY (20) C  7             0.00000    10.52938
  258. RY (21) C  7             0.00000     1.53390
  259. RY (22) C  7             0.00000     3.26002
  260. RY (23) C  7             0.00000     8.94494
  261. RY (24) C  7             0.00000     6.08588
  262. RY (25) C  7             0.00000     2.73505
  263. RY (26) C  7             0.00000     3.25085
  264. RY ( 1) C  8             0.00399     1.53147
  265. RY ( 2) C  8             0.00113     1.43347
  266. RY ( 3) C  8             0.00098     0.71507
  267. RY ( 4) C  8             0.00057     1.90534
  268. RY ( 5) C  8             0.00036     2.51519
  269. RY ( 6) C  8             0.00029     3.59214
  270. RY ( 7) C  8             0.00017     2.23732
  271. RY ( 8) C  8             0.00004     1.80887
  272. RY ( 9) C  8             0.00002     3.00229
  273. RY (10) C  8             0.00001     3.82676
  274. RY (11) C  8             0.00001     2.78981
  275. RY (12) C  8             0.00001     2.37943
  276. RY (13) C  8             0.00000     2.66187
  277. RY (14) C  8             0.00000     3.26817
  278. RY (15) C  8             0.00000     2.86262
  279. RY (16) C  8             0.00000     4.64689
  280. RY (17) C  8             0.00000     3.21699
  281. RY (18) C  8             0.00000     3.46703
  282. RY (19) C  8             0.00000     2.94643
  283. RY (20) C  8             0.00000     1.86899
  284. RY (21) C  8             0.00000     3.55519
  285. RY (22) C  8             0.00000     3.10507
  286. RY (23) C  8             0.00000     7.52780
  287. RY (24) C  8             0.00000    13.67972
  288. RY (25) C  8             0.00000     1.64041
  289. RY (26) C  8             0.00000     3.19403
  290. RY ( 1) C  9             0.00611     1.39640
  291. RY ( 2) C  9             0.00444     1.35331
  292. RY ( 3) C  9             0.00329     0.60699
  293. RY ( 4) C  9             0.00060     1.90369
  294. RY ( 5) C  9             0.00049     2.70555
  295. RY ( 6) C  9             0.00031     2.36030
  296. RY ( 7) C  9             0.00007     2.38117
  297. RY ( 8) C  9             0.00004     3.87733
  298. RY ( 9) C  9             0.00001     2.56549
  299. RY (10) C  9             0.00001     3.01725
  300. RY (11) C  9             0.00001     2.59938
  301. RY (12) C  9             0.00000     2.38857
  302. RY (13) C  9             0.00000     1.71211
  303. RY (14) C  9             0.00000     6.34881
  304. RY (15) C  9             0.00000     3.20986
  305. RY (16) C  9             0.00000     4.13099
  306. RY (17) C  9             0.00000     3.26735
  307. RY (18) C  9             0.00000     3.35593
  308. RY (19) C  9             0.00000     2.48363
  309. RY (20) C  9             0.00000     3.35772
  310. RY (21) C  9             0.00000     2.16601
  311. RY (22) C  9             0.00000     4.07279
  312. RY (23) C  9             0.00000    13.11112
  313. RY (24) C  9             0.00000     5.47634
  314. RY (25) C  9             0.00000     1.65108
  315. RY (26) C  9             0.00000     3.06511
  316. RY ( 1) N 10             0.00499     0.96814
  317. RY ( 2) N 10             0.00107     1.25733
  318. RY ( 3) N 10             0.00085     0.70126
  319. RY ( 4) N 10             0.00035     1.75925
  320. RY ( 5) N 10             0.00034     3.47820
  321. RY ( 6) N 10             0.00013     4.47049
  322. RY ( 7) N 10             0.00008     3.08746
  323. RY ( 8) N 10             0.00003     1.88616
  324. RY ( 9) N 10             0.00003     2.56994
  325. RY (10) N 10             0.00001     4.74294
  326. RY (11) N 10             0.00001     3.39082
  327. RY (12) N 10             0.00000     3.45026
  328. RY (13) N 10             0.00000     3.58129
  329. RY (14) N 10             0.00000     3.20226
  330. RY (15) N 10             0.00000     6.05193
  331. RY (16) N 10             0.00000     4.77213
  332. RY (17) N 10             0.00000     4.50256
  333. RY (18) N 10             0.00000     4.74678
  334. RY (19) N 10             0.00000     4.18819
  335. RY (20) N 10             0.00000     3.85639
  336. RY (21) N 10             0.00000    10.74182
  337. RY (22) N 10             0.00000     3.01252
  338. RY (23) N 10             0.00000    15.25709
  339. RY (24) N 10             0.00000     8.02400
  340. RY (25) N 10             0.00000     5.95093
  341. RY (26) N 10             0.00000     2.66230
  342. RY ( 1) C 11             0.00617     1.48797
  343. RY ( 2) C 11             0.00412     1.23854
  344. RY ( 3) C 11             0.00194     0.61832
  345. RY ( 4) C 11             0.00076     2.18036
  346. RY ( 5) C 11             0.00053     2.44634
  347. RY ( 6) C 11             0.00028     2.47863
  348. RY ( 7) C 11             0.00023     1.56755
  349. RY ( 8) C 11             0.00009     2.02424
  350. RY ( 9) C 11             0.00005     3.56408
  351. RY (10) C 11             0.00003     3.57413
  352. RY (11) C 11             0.00002     3.24201
  353. RY (12) C 11             0.00001     2.97716
  354. RY (13) C 11             0.00000     2.69803
  355. RY (14) C 11             0.00001     2.49767
  356. RY (15) C 11             0.00000     3.58323
  357. RY (16) C 11             0.00000     3.39954
  358. RY (17) C 11             0.00000     3.39756
  359. RY (18) C 11             0.00000     2.67027
  360. RY (19) C 11             0.00000     2.74675
  361. RY (20) C 11             0.00000     2.75288
  362. RY (21) C 11             0.00000     3.59451
  363. RY (22) C 11             0.00000    17.06032
  364. RY (23) C 11             0.00000     5.31512
  365. RY (24) C 11             0.00000     3.90930
  366. RY (25) C 11             0.00000     1.78598
  367. RY (26) C 11             0.00000     2.36519
  368. RY ( 1) O 12             0.00362     0.89864
  369. RY ( 2) O 12             0.00302     0.75779
  370. RY ( 3) O 12             0.00088     2.04028
  371. RY ( 4) O 12             0.00058     2.14189
  372. RY ( 5) O 12             0.00014     2.27128
  373. RY ( 6) O 12             0.00011     3.70650
  374. RY ( 7) O 12             0.00006     2.67081
  375. RY ( 8) O 12             0.00006     4.45955
  376. RY ( 9) O 12             0.00003     3.83852
  377. RY (10) O 12             0.00002     4.89939
  378. RY (11) O 12             0.00001     4.14112
  379. RY (12) O 12             0.00001     3.29812
  380. RY (13) O 12             0.00000     4.46217
  381. RY (14) O 12             0.00000     3.47457
  382. RY (15) O 12             0.00000     5.93833
  383. RY (16) O 12             0.00000     5.65036
  384. RY (17) O 12             0.00000     5.84680
  385. RY (18) O 12             0.00000     5.47571
  386. RY (19) O 12             0.00000     5.91367
  387. RY (20) O 12             0.00000     5.65541
  388. RY (21) O 12             0.00000    37.66523
  389. RY (22) O 12             0.00000     7.09482
  390. RY (23) O 12             0.00000     5.52808
  391. RY (24) O 12             0.00000     6.93371
  392. RY (25) O 12             0.00000     6.28155
  393. RY (26) O 12             0.00000     5.34814
  394. RY ( 1) C 13             0.00392     1.40107
  395. RY ( 2) C 13             0.00202     1.27174
  396. RY ( 3) C 13             0.00163     1.72249
  397. RY ( 4) C 13             0.00084     1.57819
  398. RY ( 5) C 13             0.00076     1.73265
  399. RY ( 6) C 13             0.00026     2.81811
  400. RY ( 7) C 13             0.00014     2.50698
  401. RY ( 8) C 13             0.00013     2.79847
  402. RY ( 9) C 13             0.00005     3.10801
  403. RY (10) C 13             0.00004     1.91694
  404. RY (11) C 13             0.00003     1.72807
  405. RY (12) C 13             0.00001     2.09199
  406. RY (13) C 13             0.00000     2.53958
  407. RY (14) C 13             0.00000     5.24725
  408. RY (15) C 13             0.00000     6.29632
  409. RY (16) C 13             0.00000     3.45052
  410. RY (17) C 13             0.00000     3.66299
  411. RY (18) C 13             0.00000     3.37589
  412. RY (19) C 13             0.00000     1.65582
  413. RY (20) C 13             0.00000     3.29920
  414. RY (21) C 13             0.00000     3.82772
  415. RY (22) C 13             0.00000     6.81391
  416. RY (23) C 13             0.00000     9.37258
  417. RY (24) C 13             0.00000     4.03833
  418. RY (25) C 13             0.00000     3.35852
  419. RY (26) C 13             0.00000     4.05876
  420. RY ( 1) C 14             0.00167     1.11920
  421. RY ( 2) C 14             0.00058     1.03943
  422. RY ( 3) C 14             0.00021     2.16419
  423. RY ( 4) C 14             0.00016     2.09762
  424. RY ( 5) C 14             0.00011     1.87154
  425. RY ( 6) C 14             0.00005     2.47318
  426. RY ( 7) C 14             0.00002     2.05276
  427. RY ( 8) C 14             0.00001     1.65570
  428. RY ( 9) C 14             0.00000     1.66621
  429. RY (10) C 14             0.00000     1.82343
  430. RY (11) C 14             0.00000     3.76087
  431. RY (12) C 14             0.00000     2.73668
  432. RY (13) C 14             0.00000     6.83214
  433. RY (14) C 14             0.00000     2.91149
  434. RY (15) C 14             0.00000     6.36134
  435. RY (16) C 14             0.00000     3.91985
  436. RY (17) C 14             0.00000     5.91467
  437. RY (18) C 14             0.00000     2.56486
  438. RY (19) C 14             0.00000     7.81959
  439. RY (20) C 14             0.00000     3.64367
  440. RY (21) C 14             0.00000     3.28850
  441. RY (22) C 14             0.00000     3.28357
  442. RY (23) C 14             0.00000     3.64006
  443. RY (24) C 14             0.00000     4.20034
  444. RY (25) C 14             0.00000     3.00223
  445. RY (26) C 14             0.00000     3.42212
  446. RY ( 1) H 15             0.00255     0.61470
  447. RY ( 2) H 15             0.00022     1.85117
  448. RY ( 3) H 15             0.00019     2.59883
  449. RY ( 4) H 15             0.00014     2.82458
  450. RY ( 5) H 15             0.00002     2.98120
  451. RY ( 6) H 15             0.00001     3.02597
  452. RY ( 7) H 15             0.00001     3.31883
  453. RY ( 8) H 15             0.00000     4.59178
  454. RY ( 9) H 15             0.00000     3.82037
  455. RY (10) H 15             0.00000     4.32279
  456. RY (11) H 15             0.00000     3.96645
  457. RY (12) H 15             0.00000     4.19630
  458. RY (13) H 15             0.00000     3.37514
  459. RY ( 1) H 16             0.00350     0.53867
  460. RY ( 2) H 16             0.00021     1.75390
  461. RY ( 3) H 16             0.00015     2.64797
  462. RY ( 4) H 16             0.00009     2.27535
  463. RY ( 5) H 16             0.00004     3.59717
  464. RY ( 6) H 16             0.00001     3.35128
  465. RY ( 7) H 16             0.00000     3.82576
  466. RY ( 8) H 16             0.00000     3.98046
  467. RY ( 9) H 16             0.00000     3.43423
  468. RY (10) H 16             0.00000     4.30312
  469. RY (11) H 16             0.00000     4.13872
  470. RY (12) H 16             0.00000     3.94386
  471. RY (13) H 16             0.00000     3.60343
  472. RY ( 1) H 17             0.00119     0.76920
  473. RY ( 2) H 17             0.00021     2.80606
  474. RY ( 3) H 17             0.00012     2.86441
  475. RY ( 4) H 17             0.00008     3.33967
  476. RY ( 5) H 17             0.00004     2.91560
  477. RY ( 6) H 17             0.00002     2.47440
  478. RY ( 7) H 17             0.00001     4.57302
  479. RY ( 8) H 17             0.00000     2.05491
  480. RY ( 9) H 17             0.00000     4.25592
  481. RY (10) H 17             0.00000     3.98745
  482. RY (11) H 17             0.00000     3.89215
  483. RY (12) H 17             0.00000     4.55655
  484. RY (13) H 17             0.00000     3.26816
  485. RY ( 1) H 18             0.00037     0.85842
  486. RY ( 2) H 18             0.00013     3.24467
  487. RY ( 3) H 18             0.00010     3.09471
  488. RY ( 4) H 18             0.00010     2.46711
  489. RY ( 5) H 18             0.00002     2.10101
  490. RY ( 6) H 18             0.00001     2.81742
  491. RY ( 7) H 18             0.00001     3.15187
  492. RY ( 8) H 18             0.00000     4.35245
  493. RY ( 9) H 18             0.00000     4.26099
  494. RY (10) H 18             0.00000     3.67673
  495. RY (11) H 18             0.00000     3.64681
  496. RY (12) H 18             0.00000     4.18956
  497. RY (13) H 18             0.00000     3.32532
  498. RY ( 1) H 19             0.00052     0.70746
  499. RY ( 2) H 19             0.00016     1.59955
  500. RY ( 3) H 19             0.00015     2.81771
  501. RY ( 4) H 19             0.00006     3.65903
  502. RY ( 5) H 19             0.00003     3.35715
  503. RY ( 6) H 19             0.00002     2.35599
  504. RY ( 7) H 19             0.00001     2.36165
  505. RY ( 8) H 19             0.00000     3.50220
  506. RY ( 9) H 19             0.00000     4.56033
  507. RY (10) H 19             0.00000     4.32036
  508. RY (11) H 19             0.00000     3.65376
  509. RY (12) H 19             0.00000     3.87760
  510. RY (13) H 19             0.00000     4.12709
  511. RY ( 1) H 20             0.00073     0.78518
  512. RY ( 2) H 20             0.00016     2.66631
  513. RY ( 3) H 20             0.00011     2.26001
  514. RY ( 4) H 20             0.00009     2.92633
  515. RY ( 5) H 20             0.00003     2.64764
  516. RY ( 6) H 20             0.00002     2.78548
  517. RY ( 7) H 20             0.00001     4.62998
  518. RY ( 8) H 20             0.00000     4.27669
  519. RY ( 9) H 20             0.00000     3.37223
  520. RY (10) H 20             0.00000     4.16098
  521. RY (11) H 20             0.00000     3.88831
  522. RY (12) H 20             0.00000     3.47329
  523. RY (13) H 20             0.00000     3.31421
  524. RY ( 1) H 21             0.00146     0.68458
  525. RY ( 2) H 21             0.00025     1.72088
  526. RY ( 3) H 21             0.00009     3.91174
  527. RY ( 4) H 21             0.00005     3.31108
  528. RY ( 5) H 21             0.00003     3.13676
  529. RY ( 6) H 21             0.00002     2.20856
  530. RY ( 7) H 21             0.00001     3.69927
  531. RY ( 8) H 21             0.00001     3.37255
  532. RY ( 9) H 21             0.00000     3.71761
  533. RY (10) H 21             0.00000     3.22571
  534. RY (11) H 21             0.00000     3.79210
  535. RY (12) H 21             0.00000     4.13675
  536. RY (13) H 21             0.00000     4.11127
  537. RY ( 1) H 22             0.00146     0.68461
  538. RY ( 2) H 22             0.00025     1.72081
  539. RY ( 3) H 22             0.00009     3.91154
  540. RY ( 4) H 22             0.00005     3.31068
  541. RY ( 5) H 22             0.00003     3.13698
  542. RY ( 6) H 22             0.00002     2.20646
  543. RY ( 7) H 22             0.00001     3.70078
  544. RY ( 8) H 22             0.00001     3.37296
  545. RY ( 9) H 22             0.00000     3.71681
  546. RY (10) H 22             0.00000     3.22630
  547. RY (11) H 22             0.00000     3.79314
  548. RY (12) H 22             0.00000     4.13680
  549. RY (13) H 22             0.00000     4.11088
  550. RY ( 1) H 23             0.00067     0.79598
  551. RY ( 2) H 23             0.00011     3.70530
  552. RY ( 3) H 23             0.00010     3.60692
  553. RY ( 4) H 23             0.00003     2.06639
  554. RY ( 5) H 23             0.00002     2.83067
  555. RY ( 6) H 23             0.00001     2.13936
  556. RY ( 7) H 23             0.00000     3.45533
  557. RY ( 8) H 23             0.00000     2.26324
  558. RY ( 9) H 23             0.00000     4.29687
  559. RY (10) H 23             0.00000     4.26606
  560. RY (11) H 23             0.00000     3.73318
  561. RY (12) H 23             0.00000     4.19088
  562. RY (13) H 23             0.00000     3.24000
  563. RY ( 1) H 24             0.00022     1.38181
  564. RY ( 2) H 24             0.00009     3.92636
  565. RY ( 3) H 24             0.00009     2.79778
  566. RY ( 4) H 24             0.00003     1.90591
  567. RY ( 5) H 24             0.00001     3.32628
  568. RY ( 6) H 24             0.00000     3.61126
  569. RY ( 7) H 24             0.00000     2.58518
  570. RY ( 8) H 24             0.00000     3.49263
  571. RY ( 9) H 24             0.00000     4.28625
  572. RY (10) H 24             0.00000     3.47403
  573. RY (11) H 24             0.00000     4.32778
  574. RY (12) H 24             0.00000     4.02808
  575. RY (13) H 24             0.00000     1.44304
  576. RY ( 1) H 25             0.00067     0.79593
  577. RY ( 2) H 25             0.00011     3.70459
  578. RY ( 3) H 25             0.00010     3.60771
  579. RY ( 4) H 25             0.00003     2.06714
  580. RY ( 5) H 25             0.00002     2.83004
  581. RY ( 6) H 25             0.00001     2.13949
  582. RY ( 7) H 25             0.00000     3.45540
  583. RY ( 8) H 25             0.00000     2.26278
  584. RY ( 9) H 25             0.00000     4.29672
  585. RY (10) H 25             0.00000     4.26591
  586. RY (11) H 25             0.00000     3.73286
  587. RY (12) H 25             0.00000     4.19127
  588. RY (13) H 25             0.00000     3.24040
          -------------------------------
                 Total Lewis   99.17027  ( 97.2258%)
           Valence non-Lewis    2.63913  (  2.5874%)
           Rydberg non-Lewis    0.19059  (  0.1869%)
          -------------------------------
               Total unit  1  102.00000  (100.0000%)
              Charge unit  1   -1.00000

 $CHOOSE
   LONE 1 3 4 1 10 1 12 2 END
   BOND S 1 2 D 2 3 S 2 12 S 3 4 S 3 15 D 4 5 S 5 6 S 5 16 S 6 7 D 6 11 D 7 8
        S 7 17 S 8 9 S 8 18 D 9 10 S 9 19 S 10 11 S 11 20 S 12 13 S 13 14
        S 13 21 S 13 22 S 14 23 S 14 24 S 14 25 END
 $END

 NBO analysis completed in 19.51 CPU seconds (33 wall seconds)
 Maximum scratch memory used by NBO was 3292951 words (25.12 MB)
 Maximum scratch memory used by G16NBO was 531151 words (4.05 MB)

 Opening RunExU unformatted file "/scratch/general/vast/u6067110/5269538-notchpeak.peaks/Gau-3929557.EUF"
 Read unf file /scratch/general/vast/u6067110/5269538-notchpeak.peaks/Gau-3929557.EUF:
 Label Gaussian matrix elements                                         IVers= 2 NLab= 2 Version=ES64L-G16RevC.01
 Title A12_crest_conformers_censo-1                                    
 NAtoms=    25 NBasis=   588 NBsUse=   588 ICharg=    -1 Multip=     1 NE=   102 Len12L=8 Len4L=8 IOpCl= 0 ICGU=111
 GAUSSIAN SCALARS                    NI= 1 NR= 1 NTot=       1 LenBuf=    2 NRI=1 N=    1000
 NPA CHARGES                         NI= 0 NR= 1 NTot=      25 LenBuf= 4000 NRI=1 N=      25
 Recovered energy= -647.725529407     dipole=     -0.706065560579     -0.240553730813      0.000033425914

 ----------------------------------------------------------------------

 Electric dipole moment (input orientation):
 (Debye = 10**-18 statcoulomb cm , SI units = C m)
                  (au)            (Debye)         (10**-30 SI)
   Tot        0.745919D+00      0.189594D+01      0.632416D+01
   x          0.702857D+00      0.178648D+01      0.595907D+01
   y          0.236907D+00      0.602157D+00      0.200858D+01
   z         -0.791350D-01     -0.201141D+00     -0.670935D+00

 Dipole polarizability, Alpha (input orientation).
 (esu units = cm**3 , SI units = C**2 m**2 J**-1)
 Alpha(0;0):
               (au)            (10**-24 esu)      (10**-40 SI)
   iso        0.260971D+03      0.386720D+02      0.430284D+02
   aniso      0.336279D+03      0.498314D+02      0.554449D+02
   xx         0.480625D+03      0.712213D+02      0.792443D+02
   yx        -0.161108D+01     -0.238737D+00     -0.265631D+00
   yy         0.183008D+03      0.271190D+02      0.301740D+02
   zx        -0.221500D+01     -0.328230D+00     -0.365205D+00
   zy        -0.220459D+02     -0.326687D+01     -0.363488D+01
   zz         0.119281D+03      0.176756D+02      0.196668D+02

 First dipole hyperpolarizability, Beta (input orientation).
 ||, _|_  parallel and perpendicular components, (z) with respect to z axis,
 vector components x,y,z.  Values do not include the 1/n! factor of 1/2.
 (esu units = statvolt**-1 cm**4 , SI units = C**3 m**3 J**-2)
 Beta(0;0,0):
               (au)            (10**-30 esu)      (10**-50 SI)
   || (z)     0.510505D+03      0.441037D+01      0.163686D+01
   _|_(z)     0.170168D+03      0.147012D+01      0.545621D+00
   x         -0.307501D+05     -0.265657D+03     -0.985958D+02
   y         -0.744746D+04     -0.643402D+02     -0.238792D+02
   z          0.255253D+04      0.220518D+02      0.818432D+01
   ||         0.634837D+04      0.548450D+02      0.203552D+02
   xxx       -0.101925D+05     -0.880549D+02     -0.326807D+02
   xxy       -0.269116D+04     -0.232495D+02     -0.862882D+01
   yxy       -0.689666D+02     -0.595818D+00     -0.221132D+00
   yyy        0.186820D+03      0.161398D+01      0.599013D+00
   xxz        0.916099D+03      0.791438D+01      0.293735D+01
   yxz        0.522638D+02      0.451519D+00      0.167577D+00
   yyz       -0.540935D+02     -0.467325D+00     -0.173443D+00
   zxz        0.114054D+02      0.985337D-01      0.365698D-01
   zyz        0.218508D+02      0.188774D+00      0.700616D-01
   zzz       -0.111638D+02     -0.964461D-01     -0.357950D-01

 ----------------------------------------------------------------------

 Dipole orientation:
     8          2.37914253          3.37722789          3.38995555
     6          1.13293039          1.59095727          4.12325147
     6         -0.19351754         -0.31076010          2.72176604
     7         -0.17478001         -0.28403540          0.22183114
     6         -1.34017055         -1.95458264         -1.17752096
     6         -1.24801955         -1.82275421         -3.89650692
     6          0.08827762          0.09244839         -5.19403848
     6          0.09959641          0.10846238         -7.81275496
     6         -1.21317609         -1.77320015         -9.13041125
     7         -2.48888830         -3.60158377         -7.95523124
     6         -2.49612497         -3.61177234         -5.44595416
     8          0.85446881          1.19215850          6.70523264
     6          2.08597372          2.95778556          8.25345474
     6          1.58190191          2.23426219         10.97827824
     1         -1.20858863         -1.76589157          3.80746696
     1         -2.43189323         -3.51928252         -0.32435045
     1          1.07632489          1.50870334         -4.06545373
     1          1.12052447          1.57166583         -8.85212491
     1         -1.23060818         -1.79832444        -11.20028376
     1         -3.56161414         -5.13884863         -4.53207486
     1          1.40182733          4.88445704          7.84360599
     1          4.13026100          2.98196862          7.84308172
     1         -0.46031067          2.24093827         11.35931117
     1          2.50720914          3.56143208         12.28317191
     1          2.29462222          0.32039646         11.35908603

 Electric dipole moment (dipole orientation):
 (Debye = 10**-18 statcoulomb cm , SI units = C m)
                  (au)            (Debye)         (10**-30 SI)
   Tot        0.745919D+00      0.189594D+01      0.632416D+01
   x          0.000000D+00      0.000000D+00      0.000000D+00
   y          0.000000D+00      0.000000D+00      0.000000D+00
   z          0.745919D+00      0.189594D+01      0.632416D+01

 Dipole polarizability, Alpha (dipole orientation).
 (esu units = cm**3 , SI units = C**2 m**2 J**-1)
 Alpha(0;0):
               (au)            (10**-24 esu)      (10**-40 SI)
   iso        0.260971D+03      0.386720D+02      0.430284D+02
   aniso      0.336279D+03      0.498314D+02      0.554449D+02
   xx         0.148600D+03      0.220203D+02      0.245008D+02
   yx         0.519232D+02      0.769422D+01      0.856098D+01
   yy         0.186813D+03      0.276829D+02      0.308013D+02
   zx         0.528561D+02      0.783246D+01      0.871479D+01
   zy         0.757944D+02      0.112316D+02      0.124968D+02
   zz         0.447501D+03      0.663128D+02      0.737829D+02

 First dipole hyperpolarizability, Beta (dipole orientation).
 ||, _|_  parallel and perpendicular components, (z) with respect to z axis,
 vector components x,y,z.  Values do not include the 1/n! factor of 1/2.
 (esu units = statvolt**-1 cm**4 , SI units = C**3 m**3 J**-2)
 Beta(0;0,0):
               (au)            (10**-30 esu)      (10**-50 SI)
   || (z)    -0.632220D+04     -0.546189D+02     -0.202713D+02
   _|_(z)    -0.210740D+04     -0.182063D+02     -0.675708D+01
   x         -0.164643D+04     -0.142239D+02     -0.527904D+01
   y         -0.236229D+04     -0.204083D+02     -0.757435D+01
   z         -0.316110D+05     -0.273094D+03     -0.101356D+03
   ||         0.634837D+04      0.548450D+02      0.203552D+02
   xxx        0.548015D+02      0.473443D+00      0.175714D+00
   xxy        0.694768D+02      0.600226D+00      0.222768D+00
   yxy        0.962913D+02      0.831882D+00      0.308745D+00
   yyy        0.147220D+03      0.127187D+01      0.472042D+00
   xxz        0.191038D+03      0.165042D+01      0.612536D+00
   yxz        0.224153D+03      0.193650D+01      0.718714D+00
   yyz        0.355950D+03      0.307513D+01      0.114131D+01
   zxz       -0.699902D+03     -0.604661D+01     -0.224414D+01
   zyz       -0.100413D+04     -0.867488D+01     -0.321959D+01
   zzz       -0.110840D+05     -0.957570D+02     -0.355393D+02

 ----------------------------------------------------------------------
 Unable to Open any file for archive entry.
 1\1\GINC-NOTCH123\SP\RM062X\def2TZVPP\C10H11N2O2(1-)\U6067110\18-Jul-2
 025\0\\#N Guess=Read Geom=Check Integral(Ultrafine) Density Pop=NBO7 P
 op=Hirshfeld Pop=(ChelpG,ReadRadii) Polar Prop=(Potential,EFG) Volume 
 M062X EmpiricalDispersion=GD3 def2TZVPP SCRF(IEFPCM,solvent=thf)\\A12_
 crest_conformers_censo-1\\-1,1\O,0,2.4222484668,-1.3950603087,0.428384
 9601\C,0,2.4020333573,-0.2343386071,0.0660376075\C,0,1.2924511888,0.63
 46011953,-0.1970662256\N,0,0.0516968905,0.1989049515,-0.0518664429\C,0
 ,-1.0069089797,0.9339698532,-0.2736348498\C,0,-2.3341754416,0.40040062
 08,-0.0971960383\C,0,-2.5674389423,-0.9300552298,0.320077402\C,0,-3.86
 97290653,-1.3795017998,0.470046623\C,0,-4.9332126025,-0.5080756552,0.2
 056849094\N,0,-4.7422014596,0.7513895855,-0.1891018352\C,0,-3.49322061
 43,1.1790567892,-0.3318706561\O,0,3.6033106898,0.4312704604,-0.1507398
 809\C,0,4.7566628233,-0.3339656347,0.0796573544\C,0,5.959118616,0.5441
 18682,-0.2030588581\H,0,1.5194975045,1.6622065295,-0.5195987033\H,0,-0
 .9194988381,1.9861621734,-0.6029184582\H,0,-1.6987685276,-1.5629426158
 ,0.5113572329\H,0,-4.0719062903,-2.404040881,0.7915418387\H,0,-5.97072
 55444,-0.8413780878,0.3174196757\H,0,-3.3674137912,2.2196024924,-0.657
 8051016\H,0,4.7567298634,-1.2314652892,-0.5622811593\H,0,4.7689259891,
 -0.7072604554,1.1179699113\H,0,5.9368605673,0.8973445905,-1.2438761976
 \H,0,6.8963965819,-0.0073111899,-0.0379886462\H,0,5.9493875582,1.42648
 78306,0.4526055382\\Version=ES64L-G16RevC.01\State=1-A\HF=-647.7255294
 \RMSD=6.287e-09\Dipole=0.7028567,0.2369068,-0.079135\Polar=480.6248845
 ,-1.6110771,183.0081384,-2.2150036,-22.0459249,119.281064\HyperPolar=-
 10192.4576345,-2691.1571693,-68.9665783,186.820223,916.0991891,52.2638
 049,-54.0934535,11.405387,21.8508046,-11.16375\Quadrupole=-15.8321287,
 7.6155451,8.2165835,8.9372367,-2.6138655,0.128021\PG=C01 [X(C10H11N2O2
 )]\\@
 The archive entry for this job was punched.


                                                                                    A
                                                                                  AA
                                                                                 AAA
                                                                                AAAA
                                                                               AAAAA
                                                                              AAAAAA   KKKKKKKK
                                                                             AAAAAAA   KKKKKKKK
                                                                            AAAAAAAA   KKKKKKKK
                                       ZZZZZZZZZZZZZZZZZZZZ                AAAA  AAA   KKKKKKKK
                                       ZZZZZZZZZZZZZZZZZZZ                AAAA   AAA   KKKKKKKK          K
                                       ZZZZZZZZZZZZZZZZZZ                AAAA    AAA   KKKKKKKK         KKK
                                       ZZZZZZZZZZZZZZZZZ                AAAA     AAA   KKKKKKKK        KKKKK
                                       ZZZZZZZZZZZZZZZZ                AAAA      AAA   KKKKKKKK       KKKKKKK
                                                ZZZZZZ                AAAA       AAA   KKKKKKKK      KKKKKKK
                                               ZZZZZZ                AAAA        AAA   KKKKKKKK     KKKKKKK
                                              ZZZZZZ                AAAA         AAA   KKKKKKKK    KKKKKKK
                                             ZZZZZZ                AAAA          AAA   KKKKKKKK   KKKKKKK
                                            ZZZZZZ                AAAAAAAAAAAAAAAAAA   KKKKKKKK  KKKKKKK
                                           ZZZZZZ                AAAAAAAAAAAAAAAAAAA   KKKKKKKK KKKKKKK
                                          ZZZZZZ                AAAAAAAAAAAAAAAAAAAA   KKKKKKKKKKKKKKK
                                         ZZZZZZ                AAAAAAAAAAAAAAAAAAAAA   KKKKKKKKKKKKKK
                                        ZZZZZZ                AAAAAA        AAAAAAAA   KKKKKKKKKKKKK
                                       ZZZZZZ                AAAAAA         AAAAAAAA   KKKKKKKKKKKK
                                      ZZZZZZ                AAAAAA          AAAAAAAA   KKKKKKKKKKK
                                     ZZZZZZ                AAAAAA           AAAAAAAA   KKKKKKKKKKKK
                                    ZZZZZZ                AAAAAA            AAAAAAAA   KKKKKKKKKKKKK
                                   ZZZZZZ                AAAAAA             AAAAAAAA   KKKKKKKKKKKKKK
                                  ZZZZZZ                AAAAAA              AAAAAAAA   KKKKKKKKKKKKKKK
                                 ZZZZZZ                AAAAAA               AAAAAAAA   KKKKK KKKKKKKKKK
                                ZZZZZZ                AAAAAA                AAAAAAAA   KKKKK  KKKKKKKKKK
                               ZZZZZZ                AAAAAA                            KKKKK   KKKKKKKKKK
                              ZZZZZZ                AAAAAA                             KKKKK    KKKKKKKKKK
                             ZZZZZZ                                                    KKKKK     KKKKKKKKKK
                            ZZZZZZ                                                     KKKKK      KKKKKKKKKK
                           ZZZZZZ                                                      KKKKK       KKKKKKKKKK
                          ZZZZZZ                                                       KKKKK        KKKKKKKKKK
                         ZZZZZZZZZZZZZZZZZZZZZZZZZZZZZZZZZZZZZZZZ                      KKKKK         KKKKKKKKKK
                        ZZZZZZZZZZZZZZZZZZZZZZZZZZZZZZZZZZZZZZZZZ                      KKKKK          KKKKKKKKKK
                       ZZZZZZZZZZZZZZZZZZZZZZZZZZZZZZZZZZZZZZZZZZ                      KKKKK           KKKKKKKKKK
                       ZZZZZZZZZZZZZZZZZZZZZZZZZZZZZZZZZZZZZZZZZZ                      KKKKK            KKKKKKKKKK
                       ZZZZZZZZZZZZZZZZZZZZZZZZZZZZZZZZZZZZZZZZZZ                      KKKKK             KKKKKKKKKK
                       ZZZZZZZZZZZZZZZZZZZZZZZZZZZZZZZZZZZZZZZZZZ                      KKKKK              KKKKKKKKKK
                       ZZZZZZZZZZZZZZZZZZZZZZZZZZZZZZZZZZZZZZZZZZ                      KKKKK               KKKKKKKKKK
                       ZZZZZZZZZZZZZZZZZZZZZZZZZZZZZZZZZZZZZZZZZZ                      KKKKK                KKKKKKKKKK
                       ZZZZZZZZZZZZZZZZZZZZZZZZZZZZZZZZZZZZZZZZZZ                      KKKKK
                                                                                       KKKKK
                                                                                          (J.P.)
 Job cpu time:       0 days  6 hours  1 minutes 51.5 seconds.
 Elapsed time:       0 days  0 hours 22 minutes 50.0 seconds.
 File lengths (MBytes):  RWF=    274 Int=      0 D2E=      0 Chk=     26 Scr=      2
 Normal termination of Gaussian 16 at Fri Jul 18 10:13:44 2025.
 Initial command:
 /uufs/chpc.utah.edu/sys/installdir/gaussian16/C01/AVX/g16/l1.exe "/scratch/general/vast/u6067110/5269538-notchpeak.peaks/Gau-3924795.inp" -scrdir="/scratch/general/vast/u6067110/5269538-notchpeak.peaks/"
 Entering Link 1 = /uufs/chpc.utah.edu/sys/installdir/gaussian16/C01/AVX/g16/l1.exe PID=   3930536.
  
 Copyright (c) 1988-2019, Gaussian, Inc.  All Rights Reserved.
  
 This is part of the Gaussian(R) 16 program.  It is based on
 the Gaussian(R) 09 system (copyright 2009, Gaussian, Inc.),
 the Gaussian(R) 03 system (copyright 2003, Gaussian, Inc.),
 the Gaussian(R) 98 system (copyright 1998, Gaussian, Inc.),
 the Gaussian(R) 94 system (copyright 1995, Gaussian, Inc.),
 the Gaussian 92(TM) system (copyright 1992, Gaussian, Inc.),
 the Gaussian 90(TM) system (copyright 1990, Gaussian, Inc.),
 the Gaussian 88(TM) system (copyright 1988, Gaussian, Inc.),
 the Gaussian 86(TM) system (copyright 1986, Carnegie Mellon
 University), and the Gaussian 82(TM) system (copyright 1983,
 Carnegie Mellon University). Gaussian is a federally registered
 trademark of Gaussian, Inc.
  
 This software contains proprietary and confidential information,
 including trade secrets, belonging to Gaussian, Inc.
  
 This software is provided under written license and may be
 used, copied, transmitted, or stored only in accord with that
 written license.
  
 The following legend is applicable only to US Government
 contracts under FAR:
  
                    RESTRICTED RIGHTS LEGEND
  
 Use, reproduction and disclosure by the US Government is
 subject to restrictions as set forth in subparagraphs (a)
 and (c) of the Commercial Computer Software - Restricted
 Rights clause in FAR 52.227-19.
  
 Gaussian, Inc.
 340 Quinnipiac St., Bldg. 40, Wallingford CT 06492
  
  
 ---------------------------------------------------------------
 Warning -- This program may not be used in any manner that
 competes with the business of Gaussian, Inc. or will provide
 assistance to any competitor of Gaussian, Inc.  The licensee
 of this program is prohibited from giving any competitor of
 Gaussian, Inc. access to this program.  By using this program,
 the user acknowledges that Gaussian, Inc. is engaged in the
 business of creating and licensing software in the field of
 computational chemistry and represents and warrants to the
 licensee that it is not a competitor of Gaussian, Inc. and that
 it will not use this program in any manner prohibited above.
 ---------------------------------------------------------------
  

 Cite this work as:
 Gaussian 16, Revision C.01,
 M. J. Frisch, G. W. Trucks, H. B. Schlegel, G. E. Scuseria, 
 M. A. Robb, J. R. Cheeseman, G. Scalmani, V. Barone, 
 G. A. Petersson, H. Nakatsuji, X. Li, M. Caricato, A. V. Marenich, 
 J. Bloino, B. G. Janesko, R. Gomperts, B. Mennucci, H. P. Hratchian, 
 J. V. Ortiz, A. F. Izmaylov, J. L. Sonnenberg, D. Williams-Young, 
 F. Ding, F. Lipparini, F. Egidi, J. Goings, B. Peng, A. Petrone, 
 T. Henderson, D. Ranasinghe, V. G. Zakrzewski, J. Gao, N. Rega, 
 G. Zheng, W. Liang, M. Hada, M. Ehara, K. Toyota, R. Fukuda, 
 J. Hasegawa, M. Ishida, T. Nakajima, Y. Honda, O. Kitao, H. Nakai, 
 T. Vreven, K. Throssell, J. A. Montgomery, Jr., J. E. Peralta, 
 F. Ogliaro, M. J. Bearpark, J. J. Heyd, E. N. Brothers, K. N. Kudin, 
 V. N. Staroverov, T. A. Keith, R. Kobayashi, J. Normand, 
 K. Raghavachari, A. P. Rendell, J. C. Burant, S. S. Iyengar, 
 J. Tomasi, M. Cossi, J. M. Millam, M. Klene, C. Adamo, R. Cammi, 
 J. W. Ochterski, R. L. Martin, K. Morokuma, O. Farkas, 
 J. B. Foresman, and D. J. Fox, Gaussian, Inc., Wallingford CT, 2019.
 
 ******************************************
 Gaussian 16:  ES64L-G16RevC.01  3-Jul-2019
                18-Jul-2025 
 ******************************************
 %NProcShared=32
 Will use up to   32 processors via shared memory.
 %Mem=48GB
 %chk=A12_crest_conformers_censo-1.chk
 ----------------------------------------------------------------------
 #N Guess=Read Geom=Check Integral(Ultrafine) Density NMR M062X Empiric
 alDispersion=GD3 def2TZVPP SCRF(IEFPCM,solvent=thf)
 ----------------------------------------------------------------------
 1/29=2,38=1,172=1/1;
 2/12=2,40=1/2;
 3/5=44,7=202,11=2,14=-4,25=1,30=1,70=2201,72=20,74=-55,75=-5,116=-2,124=31/1,2,3,8;
 4/5=1/1;
 5/5=2,38=6,53=20/2;
 8/6=1,10=90,11=11/1;
 10/13=100,45=16/2;
 6/7=2,8=2,9=2,10=2,22=-1,28=1/1;
 99/9=1/99;
 ----------------------------
 A12_crest_conformers_censo-1
 ----------------------------
 Structure from the checkpoint file:  "A12_crest_conformers_censo-1.chk"
 Charge = -1 Multiplicity = 1
 Redundant internal coordinates found in file.  (old form).
 O,0,2.4222484668,-1.3950603087,0.4283849601
 C,0,2.4020333573,-0.2343386071,0.0660376075
 C,0,1.2924511888,0.6346011953,-0.1970662256
 N,0,0.0516968905,0.1989049515,-0.0518664429
 C,0,-1.0069089797,0.9339698532,-0.2736348498
 C,0,-2.3341754416,0.4004006208,-0.0971960383
 C,0,-2.5674389423,-0.9300552298,0.320077402
 C,0,-3.8697290653,-1.3795017998,0.470046623
 C,0,-4.9332126025,-0.5080756552,0.2056849094
 N,0,-4.7422014596,0.7513895855,-0.1891018352
 C,0,-3.4932206143,1.1790567892,-0.3318706561
 O,0,3.6033106898,0.4312704604,-0.1507398809
 C,0,4.7566628233,-0.3339656347,0.0796573544
 C,0,5.959118616,0.544118682,-0.2030588581
 H,0,1.5194975045,1.6622065295,-0.5195987033
 H,0,-0.9194988381,1.9861621734,-0.6029184582
 H,0,-1.6987685276,-1.5629426158,0.5113572329
 H,0,-4.0719062903,-2.404040881,0.7915418387
 H,0,-5.9707255444,-0.8413780878,0.3174196757
 H,0,-3.3674137912,2.2196024924,-0.6578051016
 H,0,4.7567298634,-1.2314652892,-0.5622811593
 H,0,4.7689259891,-0.7072604554,1.1179699113
 H,0,5.9368605673,0.8973445905,-1.2438761976
 H,0,6.8963965819,-0.0073111899,-0.0379886462
 H,0,5.9493875582,1.4264878306,0.4526055382
 Recover connectivity data from disk.
                           ----------------------------
                           !    Current Parameters    !
                           ! (Angstroms and Degrees)  !
 --------------------------                            --------------------------
 ! Name  Definition              Value                                          !
 --------------------------------------------------------------------------------
 ! R1    R(1,2)                  1.2161                                         !
 ! R2    R(2,3)                  1.4337                                         !
 ! R3    R(2,12)                 1.3904                                         !
 ! R4    R(3,4)                  1.323                                          !
 ! R5    R(3,15)                 1.1007                                         !
 ! R6    R(4,5)                  1.3077                                         !
 ! R7    R(5,6)                  1.4413                                         !
 ! R8    R(5,16)                 1.106                                          !
 ! R9    R(6,7)                  1.4137                                         !
 ! R10   R(6,11)                 1.4159                                         !
 ! R11   R(7,8)                  1.3858                                         !
 ! R12   R(7,17)                 1.0917                                         !
 ! R13   R(8,9)                  1.4001                                         !
 ! R14   R(8,18)                 1.0927                                         !
 ! R15   R(9,10)                 1.3336                                         !
 ! R16   R(9,19)                 1.0954                                         !
 ! R17   R(10,11)                1.3279                                         !
 ! R18   R(11,20)                1.0976                                         !
 ! R19   R(12,13)                1.4032                                         !
 ! R20   R(13,14)                1.5155                                         !
 ! R21   R(13,21)                1.1034                                         !
 ! R22   R(13,22)                1.1034                                         !
 ! R23   R(14,23)                1.0993                                         !
 ! R24   R(14,24)                1.0999                                         !
 ! R25   R(14,25)                1.0993                                         !
 ! A1    A(1,2,3)              130.2419                                         !
 ! A2    A(1,2,12)             119.2757                                         !
 ! A3    A(3,2,12)             110.4824                                         !
 ! A4    A(2,3,4)              120.4028                                         !
 ! A5    A(2,3,15)             117.3851                                         !
 ! A6    A(4,3,15)             122.2121                                         !
 ! A7    A(3,4,5)              123.7414                                         !
 ! A8    A(4,5,6)              121.104                                          !
 ! A9    A(4,5,16)             121.4176                                         !
 ! A10   A(6,5,16)             117.4784                                         !
 ! A11   A(5,6,7)              122.4426                                         !
 ! A12   A(5,6,11)             122.0012                                         !
 ! A13   A(7,6,11)             115.5563                                         !
 ! A14   A(6,7,8)              119.4862                                         !
 ! A15   A(6,7,17)             117.7762                                         !
 ! A16   A(8,7,17)             122.7376                                         !
 ! A17   A(7,8,9)              119.44                                           !
 ! A18   A(7,8,18)             120.652                                          !
 ! A19   A(9,8,18)             119.908                                          !
 ! A20   A(8,9,10)             122.3365                                         !
 ! A21   A(8,9,19)             120.7154                                         !
 ! A22   A(10,9,19)            116.9481                                         !
 ! A23   A(9,10,11)            118.0798                                         !
 ! A24   A(6,11,10)            125.1013                                         !
 ! A25   A(6,11,20)            118.472                                          !
 ! A26   A(10,11,20)           116.4268                                         !
 ! A27   A(2,12,13)            115.0555                                         !
 ! A28   A(12,13,14)           107.7914                                         !
 ! A29   A(12,13,21)           110.3713                                         !
 ! A30   A(12,13,22)           110.3733                                         !
 ! A31   A(14,13,21)           111.2648                                         !
 ! A32   A(14,13,22)           111.2675                                         !
 ! A33   A(21,13,22)           105.7987                                         !
 ! A34   A(13,14,23)           110.2862                                         !
 ! A35   A(13,14,24)           110.955                                          !
 ! A36   A(13,14,25)           110.2888                                         !
 ! A37   A(23,14,24)           108.6884                                         !
 ! A38   A(23,14,25)           107.8539                                         !
 ! A39   A(24,14,25)           108.6886                                         !
 ! D1    D(1,2,3,4)             -0.0056                                         !
 ! D2    D(1,2,3,15)           179.9952                                         !
 ! D3    D(12,2,3,4)           179.9964                                         !
 ! D4    D(12,2,3,15)           -0.0027                                         !
 ! D5    D(1,2,12,13)            0.0016                                         !
 ! D6    D(3,2,12,13)          179.9999                                         !
 ! D7    D(2,3,4,5)           -179.9956                                         !
 ! D8    D(15,3,4,5)             0.0035                                         !
 ! D9    D(3,4,5,6)           -179.9984                                         !
 ! D10   D(3,4,5,16)             0.0024                                         !
 ! D11   D(4,5,6,7)              0.0009                                         !
 ! D12   D(4,5,6,11)          -179.9985                                         !
 ! D13   D(16,5,6,7)          -179.9999                                         !
 ! D14   D(16,5,6,11)            0.0007                                         !
 ! D15   D(5,6,7,8)           -179.9995                                         !
 ! D16   D(5,6,7,17)             0.0004                                         !
 ! D17   D(11,6,7,8)            -0.0001                                         !
 ! D18   D(11,6,7,17)          179.9998                                         !
 ! D19   D(5,6,11,10)          179.9993                                         !
 ! D20   D(5,6,11,20)           -0.0004                                         !
 ! D21   D(7,6,11,10)           -0.0002                                         !
 ! D22   D(7,6,11,20)         -179.9998                                         !
 ! D23   D(6,7,8,9)              0.0004                                         !
 ! D24   D(6,7,8,18)          -179.9999                                         !
 ! D25   D(17,7,8,9)          -179.9995                                         !
 ! D26   D(17,7,8,18)            0.0001                                         !
 ! D27   D(7,8,9,10)            -0.0006                                         !
 ! D28   D(7,8,9,19)           179.9995                                         !
 ! D29   D(18,8,9,10)          179.9998                                         !
 ! D30   D(18,8,9,19)           -0.0001                                         !
 ! D31   D(8,9,10,11)            0.0003                                         !
 ! D32   D(19,9,10,11)        -179.9998                                         !
 ! D33   D(9,10,11,6)            0.0001                                         !
 ! D34   D(9,10,11,20)         179.9997                                         !
 ! D35   D(2,12,13,14)        -179.984                                          !
 ! D36   D(2,12,13,21)          58.3164                                         !
 ! D37   D(2,12,13,22)         -58.28                                           !
 ! D38   D(12,13,14,23)        -59.502                                          !
 ! D39   D(12,13,14,24)       -179.9902                                         !
 ! D40   D(12,13,14,25)         59.5194                                         !
 ! D41   D(21,13,14,23)         61.6415                                         !
 ! D42   D(21,13,14,24)        -58.8467                                         !
 ! D43   D(21,13,14,25)       -179.3371                                         !
 ! D44   D(22,13,14,23)        179.3504                                         !
 ! D45   D(22,13,14,24)         58.8622                                         !
 ! D46   D(22,13,14,25)        -61.6282                                         !
 --------------------------------------------------------------------------------
                          Input orientation:                          
 ---------------------------------------------------------------------
 Center     Atomic      Atomic             Coordinates (Angstroms)
 Number     Number       Type             X           Y           Z
 ---------------------------------------------------------------------
      1          8           0        2.422248   -1.395060    0.428385
      2          6           0        2.402033   -0.234339    0.066038
      3          6           0        1.292451    0.634601   -0.197066
      4          7           0        0.051697    0.198905   -0.051866
      5          6           0       -1.006909    0.933970   -0.273635
      6          6           0       -2.334175    0.400401   -0.097196
      7          6           0       -2.567439   -0.930055    0.320077
      8          6           0       -3.869729   -1.379502    0.470047
      9          6           0       -4.933213   -0.508076    0.205685
     10          7           0       -4.742201    0.751390   -0.189102
     11          6           0       -3.493221    1.179057   -0.331871
     12          8           0        3.603311    0.431270   -0.150740
     13          6           0        4.756663   -0.333966    0.079657
     14          6           0        5.959119    0.544119   -0.203059
     15          1           0        1.519498    1.662207   -0.519599
     16          1           0       -0.919499    1.986162   -0.602918
     17          1           0       -1.698769   -1.562943    0.511357
     18          1           0       -4.071906   -2.404041    0.791542
     19          1           0       -5.970726   -0.841378    0.317420
     20          1           0       -3.367414    2.219602   -0.657805
     21          1           0        4.756730   -1.231465   -0.562281
     22          1           0        4.768926   -0.707260    1.117970
     23          1           0        5.936861    0.897345   -1.243876
     24          1           0        6.896397   -0.007311   -0.037989
     25          1           0        5.949388    1.426488    0.452606
 ---------------------------------------------------------------------
                    Distance matrix (angstroms):
                    1          2          3          4          5
     1  O    0.000000
     2  C    1.216133   0.000000
     3  C    2.405651   1.433685   0.000000
     4  N    2.896702   2.392840   1.323021   0.000000
     5  C    4.204323   3.619559   2.320031   1.307726   0.000000
     6  C    5.111114   4.781340   3.635553   2.394795   1.441341
     7  C    5.012478   5.024362   4.196944   2.876242   2.502466
     8  C    6.292135   6.388241   5.581197   4.259266   3.755123
     9  C    7.412094   7.341680   6.342461   5.041376   4.210119
    10  N    7.504524   7.216429   6.035788   4.827581   3.740707
    11  C    6.495910   6.075363   4.818429   3.688569   2.499041
    12  O    2.250728   1.390358   2.320250   3.560580   4.639174
    13  C    2.587861   2.356776   3.607695   4.736872   5.911957
    14  C    4.082718   3.651200   4.667548   5.919431   6.977285
    15  H    3.325735   2.172262   1.100704   2.124727   2.640749
    16  H    4.864517   4.051012   2.623768   2.107408   1.105973
    17  H    4.125270   4.333598   3.778685   2.546656   2.707296
    18  H    6.582095   6.866284   6.243959   4.948815   4.655226
    19  H    8.411949   8.398499   7.429465   6.122755   5.304779
    20  H    6.911280   6.311283   4.943567   4.017549   2.715220
    21  H    2.541257   2.633181   3.951811   4.944069   6.163762
    22  H    2.540766   2.632945   3.951682   4.943875   6.163641
    23  H    4.517087   3.935935   4.768164   6.045152   7.011323
    24  H    4.707585   4.501296   5.642833   6.847819   7.962649
    25  H    4.516905   3.935924   4.768251   6.045180   7.011424
                    6          7          8          9         10
     6  C    0.000000
     7  C    1.413733   0.000000
     8  C    2.418210   1.385804   0.000000
     9  C    2.769848   2.405834   1.400096   0.000000
    10  N    2.435206   2.795731   2.395075   1.333640   0.000000
    11  C    1.415897   2.393838   2.707592   2.282314   1.327869
    12  O    5.937808   6.336642   7.714311   8.595443   8.351738
    13  C    7.130958   7.352251   8.698286   9.692259   9.564447
    14  C    8.295215   8.668855  10.037910  10.950665  10.703336
    15  H    4.076932   4.912019   6.266989   6.846432   6.336220
    16  H    2.184423   3.474471   4.602478   4.794263   4.038436
    17  H    2.151464   1.091661   2.179089   3.415817   3.887063
    18  H    3.416790   2.158317   1.092664   2.163276   3.371602
    19  H    3.865025   3.404443   2.174180   1.095449   2.074306
    20  H    2.165955   3.393605   3.804986   3.261529   2.065278
    21  H    7.291106   7.383282   8.689270   9.747207   9.710853
    22  H    7.290925   7.382989   8.688963   9.746970   9.710697
    23  H    8.364919   8.837899  10.212285  11.055990  10.732018
    24  H    9.239762   9.515453  10.865103  11.842711  11.664280
    25  H    8.364960   8.837827  10.212195  11.055971  10.732084
                   11         12         13         14         15
    11  C    0.000000
    12  O    7.138119   0.000000
    13  C    8.397569   1.403172   0.000000
    14  C    9.474516   2.359089   1.515540   0.000000
    15  H    5.039446   2.448170   3.850071   4.589178   0.000000
    16  H    2.710891   4.803953   6.169904   7.039514   2.461827
    17  H    3.383733   5.703271   6.585540   7.974543   4.671370
    18  H    3.799411   8.236252   9.095912  10.502492   7.036850
    19  H    3.262172   9.669590  10.742014  12.021301   7.941787
    20  H    1.097632   7.214308   8.547817   9.486741   4.920538
    21  H    8.597987   2.065050   1.103445   2.174276   4.342215
    22  H    8.597866   2.065075   1.103446   2.174310   4.342210
    23  H    9.478267   2.618707   2.158873   1.099347   4.541221
    24  H   10.461261   3.324076   2.167719   1.099915   5.650689
    25  H    9.478369   2.618885   2.158907   1.099348   4.541439
                   16         17         18         19         20
    16  H    0.000000
    17  H    3.800660   0.000000
    18  H    5.581763   2.533324   0.000000
    19  H    5.861476   4.336806   2.504440   0.000000
    20  H    2.459633   4.296390   4.896427   4.134960   0.000000
    21  H    6.524902   6.552560   9.008473  10.770531   8.827270
    22  H    6.524888   6.552194   9.008104  10.770282   8.827227
    23  H    6.971801   8.211984  10.733941  12.134719   9.416016
    24  H    8.085871   8.752065  11.257713  12.899024  10.520890
    25  H    6.972013   8.211847  10.733786  12.134685   9.416200
                   21         22         23         24         25
    21  H    0.000000
    22  H    1.760166   0.000000
    23  H    2.527669   3.084987   0.000000
    24  H    2.520240   2.520377   1.786974   0.000000
    25  H    3.084987   2.527663   1.777132   1.786977   0.000000
 Stoichiometry    C10H11N2O2(1-)
 Framework group  C1[X(C10H11N2O2)]
 Deg. of freedom    69
 Full point group                 C1      NOp   1
 Largest Abelian subgroup         C1      NOp   1
 Largest concise Abelian subgroup C1      NOp   1
                         Standard orientation:                         
 ---------------------------------------------------------------------
 Center     Atomic      Atomic             Coordinates (Angstroms)
 Number     Number       Type             X           Y           Z
 ---------------------------------------------------------------------
      1          8           0       -2.339443    1.509885   -0.000034
      2          6           0       -2.335060    0.293761   -0.000041
      3          6           0       -1.237364   -0.628473    0.000033
      4          7           0        0.009294   -0.185495    0.000015
      5          6           0        1.057841   -0.966967   -0.000004
      6          6           0        2.392344   -0.422389    0.000011
      7          6           0        2.643747    0.968812    0.000065
      8          6           0        3.952127    1.425534    0.000066
      9          6           0        5.003690    0.501152    0.000006
     10          7           0        4.795506   -0.816138   -0.000043
     11          6           0        3.540731   -1.250621   -0.000039
     12          8           0       -3.545379   -0.390508   -0.000087
     13          6           0       -4.688258    0.423566   -0.000159
     14          6           0       -5.902649   -0.483140    0.000201
     15          1           0       -1.478418   -1.702458    0.000091
     16          1           0        0.956082   -2.068249   -0.000045
     17          1           0        1.783737    1.641199    0.000102
     18          1           0        4.168272    2.496607    0.000108
     19          1           0        6.045717    0.839071   -0.000002
     20          1           0        3.400735   -2.339288   -0.000085
     21          1           0       -4.685861    1.088926   -0.880432
     22          1           0       -4.685656    1.089431    0.879733
     23          1           0       -5.895076   -1.130725   -0.888135
     24          1           0       -6.832379    0.104581   -0.000014
     25          1           0       -5.895081   -1.130093    0.888998
 ---------------------------------------------------------------------
 Rotational constants (GHZ):           3.1442170           0.2091285           0.1965673
 Standard basis: def2TZVPP (5D, 7F)
 There are   669 symmetry adapted cartesian basis functions of A   symmetry.
 There are   588 symmetry adapted basis functions of A   symmetry.
   588 basis functions,   901 primitive gaussians,   669 cartesian basis functions
    51 alpha electrons       51 beta electrons
       nuclear repulsion energy       781.5497465125 Hartrees.
 NAtoms=   25 NActive=   25 NUniq=   25 SFac= 1.00D+00 NAtFMM=   60 NAOKFM=F Big=F
 Integral buffers will be    131072 words long.
 Raffenetti 2 integral format.
 Two-electron integral symmetry is turned on.
 Nuclear repulsion after empirical dispersion term =      781.5489055436 Hartrees.
 ------------------------------------------------------------------------------
 Polarizable Continuum Model (PCM)
 =================================
 Model                : PCM.
 Atomic radii         : UFF (Universal Force Field).
 Polarization charges : Total charges.
 Charge compensation  : None.
 Solution method      : On-the-fly selection.
 Cavity type          : Scaled VdW (van der Waals Surface) (Alpha=1.100).
 Cavity algorithm     : GePol (No added spheres)
                        Default sphere list used, NSphG=   25.
                        Lebedev-Laikov grids with approx.  5.0 points / Ang**2.
                        Smoothing algorithm: York/Karplus (Gamma=1.0000).
                        Polarization charges: spherical gaussians, with
                                              point-specific exponents (IZeta= 3).
                        Self-potential: point-specific (ISelfS= 7).
                        Self-field    : sphere-specific E.n sum rule (ISelfD= 2).
 Solvent              : TetraHydroFuran, Eps=   7.425700 Eps(inf)=   1.974025
 ------------------------------------------------------------------------------
 One-electron integrals computed using PRISM.
   1 Symmetry operations used in ECPInt.
 ECPInt:  NShTT=   24310 NPrTT=   68237 LenC2=   19830 LenP2D=   41832.
 LDataN:  DoStor=T MaxTD1= 6 Len=  172
 NBasis=   588 RedAO= T EigKep=  4.48D-05  NBF=   588
 NBsUse=   588 1.00D-06 EigRej= -1.00D+00 NBFU=   588
 Initial guess from the checkpoint file:  "A12_crest_conformers_censo-1.chk"
 B after Tr=     0.000000   -0.000000   -0.000000
         Rot=    1.000000   -0.000000   -0.000000    0.000000 Ang=   0.00 deg.
 Requested convergence on RMS density matrix=1.00D-08 within 128 cycles.
 Requested convergence on MAX density matrix=1.00D-06.
 Requested convergence on             energy=1.00D-06.
 No special actions if energy rises.
 Inv3:  Mode=1 IEnd=    13623483.
 Iteration    1 A*A^-1 deviation from unit magnitude is 3.66D-15 for   2130.
 Iteration    1 A*A^-1 deviation from orthogonality  is 1.64D-15 for   2104   1664.
 Iteration    1 A^-1*A deviation from unit magnitude is 3.44D-15 for   2130.
 Iteration    1 A^-1*A deviation from orthogonality  is 2.73D-15 for   2118    858.
 Error on total polarization charges =  0.01501
 SCF Done:  E(RM062X) =  -647.725529407     A.U. after    1 cycles
            NFock=  1  Conv=0.21D-08     -V/T= 2.0051
 DoSCS=F DFT=T ScalE2(SS,OS)=  1.000000  1.000000
 Range of M.O.s used for correlation:     1   588
 NBasis=   588 NAE=    51 NBE=    51 NFC=     0 NFV=     0
 NROrb=    588 NOA=    51 NOB=    51 NVA=   537 NVB=   537

 **** Warning!!: The largest alpha MO coefficient is  0.24575597D+02

 NEqPCM:  Using equilibrium solvation (IEInf=0, Eps=   7.4257, EpsInf=   1.9740)
          Differentiating once with respect to magnetic field using GIAOs.
          Electric field/nuclear overlap derivatives assumed to be zero.
   1 Symmetry operations used in ECPInt.
 ECPInt:  NShTT=   24310 NPrTT=   68237 LenC2=   24311 LenP2D=   68237.
 LDataN:  DoStor=T MaxTD1= 7 Len=  274
 FoFJK:  IHMeth= 1 ICntrl=    6127 DoSepK=F KAlg= 0 I1Cent=           0 FoldK=F
 IRaf=         1 NMat=       1 IRICut=       1 DoRegI=T DoRafI=F ISym2E= 0 IDoP0=0 IntGTp=1.
          There are     3 degrees of freedom in the 1st order CPHF.  IDoFFX=0 NUNeed=     3.
      3 vectors produced by pass  0 Test12= 9.13D-13 3.33D-08 XBig12= 4.61D+01 1.66D+00.
 AX will form     3 AO Fock derivatives at one time.
      3 vectors produced by pass  1 Test12= 9.13D-13 3.33D-08 XBig12= 5.53D-01 3.57D-01.
      3 vectors produced by pass  2 Test12= 9.13D-13 3.33D-08 XBig12= 1.04D-02 4.58D-02.
      3 vectors produced by pass  3 Test12= 9.13D-13 3.33D-08 XBig12= 1.51D-04 5.89D-03.
      3 vectors produced by pass  4 Test12= 9.13D-13 3.33D-08 XBig12= 3.25D-06 6.81D-04.
      3 vectors produced by pass  5 Test12= 9.13D-13 3.33D-08 XBig12= 5.26D-08 9.46D-05.
      3 vectors produced by pass  6 Test12= 9.13D-13 3.33D-08 XBig12= 6.17D-10 8.86D-06.
      3 vectors produced by pass  7 Test12= 9.13D-13 3.33D-08 XBig12= 6.83D-12 7.37D-07.
      2 vectors produced by pass  8 Test12= 9.13D-13 3.33D-08 XBig12= 6.20D-14 5.61D-08.
 InvSVY:  IOpt=1 It=  1 EMax= 1.78D-15
 Solved reduced A of dimension    26 with     3 vectors.
 Calculating GIAO nuclear magnetic shielding tensors.
 SCF GIAO Magnetic shielding tensor (ppm):
      1  O    Isotropic =    -5.1610   Anisotropy =   509.3939
   XX=  -129.6659   YX=   -39.9730   ZX=    -0.0266
   XY=   -31.5050   YY=  -220.2520   ZY=    -0.0001
   XZ=    -0.0232   YZ=     0.0110   ZZ=   334.4349
   Eigenvalues:  -232.6542  -117.2637   334.4349
      2  C    Isotropic =     2.8474   Anisotropy =    98.1814
   XX=   -79.5159   YX=   -20.4799   ZX=    -0.0085
   XY=   -54.1049   YY=    19.7565   ZY=    -0.0023
   XZ=    -0.0069   YZ=     0.0026   ZZ=    68.3016
   Eigenvalues:   -91.9641    32.2047    68.3016
      3  C    Isotropic =    78.2582   Anisotropy =    68.7906
   XX=   121.5992   YX=    29.3107   ZX=    -0.0017
   XY=     4.7090   YY=     9.2768   ZY=     0.0078
   XZ=     0.0064   YZ=     0.0040   ZZ=   103.8985
   Eigenvalues:     6.7574   103.8985   124.1186
      4  N    Isotropic =  -176.3286   Anisotropy =   681.9916
   XX=  -570.6926   YX=    42.4939   ZX=     0.0141
   XY=    29.9303   YY=  -236.6256   ZY=     0.0009
   XZ=    -0.0020   YZ=     0.0058   ZZ=   278.3325
   Eigenvalues:  -574.5729  -232.7454   278.3325
      5  C    Isotropic =    62.6856   Anisotropy =    63.0304
   XX=    64.5538   YX=   -57.2893   ZX=    -0.0035
   XY=   -48.6993   YY=    18.7971   ZY=    -0.0037
   XZ=     0.0070   YZ=    -0.0012   ZZ=   104.7059
   Eigenvalues:   -16.0465    99.3973   104.7059
      6  C    Isotropic =    21.1247   Anisotropy =   225.5568
   XX=   -82.5680   YX=   -26.1081   ZX=     0.0009
   XY=    -0.8402   YY=   -25.5538   ZY=    -0.0085
   XZ=     0.0021   YZ=    -0.0089   ZZ=   171.4959
   Eigenvalues:   -85.5920   -22.5298   171.4959
      7  C    Isotropic =    36.7408   Anisotropy =   219.5247
   XX=   -35.8439   YX=    47.3139   ZX=     0.0051
   XY=    53.1455   YY=   -37.0243   ZY=    -0.0098
   XZ=     0.0007   YZ=    -0.0149   ZZ=   183.0906
   Eigenvalues:   -86.6673    13.7991   183.0906
      8  C    Isotropic =    41.8916   Anisotropy =   201.2837
   XX=    40.1469   YX=    -3.2075   ZX=     0.0021
   XY=   -21.7798   YY=   -90.5529   ZY=    -0.0114
   XZ=     0.0018   YZ=    -0.0108   ZZ=   176.0808
   Eigenvalues:   -91.7364    41.3305   176.0808
      9  C    Isotropic =    25.6588   Anisotropy =   173.9916
   XX=   -72.3622   YX=   -38.1418   ZX=     0.0030
   XY=   -57.6725   YY=     7.6855   ZY=    -0.0043
   XZ=     0.0040   YZ=    -0.0033   ZZ=   141.6532
   Eigenvalues:   -94.7643    30.0876   141.6532
     10  N    Isotropic =  -126.0925   Anisotropy =   640.5330
   XX=  -323.5546   YX=  -110.3175   ZX=     0.0072
   XY=  -112.9125   YY=  -355.6524   ZY=    -0.0247
   XZ=     0.0067   YZ=    -0.0276   ZZ=   300.9296
   Eigenvalues:  -452.3664  -226.8406   300.9296
     11  C    Isotropic =    20.8646   Anisotropy =   167.7338
   XX=    10.7749   YX=   -37.7806   ZX=     0.0005
   XY=   -16.5778   YY=   -80.8683   ZY=    -0.0087
   XZ=    -0.0008   YZ=    -0.0114   ZZ=   132.6871
   Eigenvalues:   -88.3227    18.2292   132.6871
     12  O    Isotropic =   143.1080   Anisotropy =   219.2888
   XX=   216.1969   YX=    81.4547   ZX=    -0.0022
   XY=   181.5533   YY=    52.7422   ZY=     0.0113
   XZ=    -0.0074   YZ=    -0.0090   ZZ=   160.3850
   Eigenvalues:   -20.3615   160.3850   289.3006
     13  C    Isotropic =   127.5436   Anisotropy =    46.9682
   XX=   145.4726   YX=   -28.7817   ZX=     0.0034
   XY=   -13.5652   YY=   125.3574   ZY=    -0.0078
   XZ=    -0.0028   YZ=    -0.0076   ZZ=   111.8009
   Eigenvalues:   111.8007   111.9744   158.8558
     14  C    Isotropic =   169.3717   Anisotropy =    24.5004
   XX=   181.8044   YX=     3.1099   ZX=    -0.0031
   XY=    11.8813   YY=   171.3021   ZY=    -0.0064
   XZ=    -0.0033   YZ=    -0.0071   ZZ=   155.0085
   Eigenvalues:   155.0085   167.4013   185.7052
     15  H    Isotropic =    24.7763   Anisotropy =     7.5480
   XX=    29.7717   YX=     2.3361   ZX=     0.0000
   XY=    -3.4231   YY=    21.7289   ZY=     0.0002
   XZ=    -0.0002   YZ=     0.0000   ZZ=    22.8282
   Eigenvalues:    21.6923    22.8282    29.8083
     16  H    Isotropic =    23.9269   Anisotropy =     5.6463
   XX=    26.8354   YX=    -4.3003   ZX=    -0.0001
   XY=     0.2574   YY=    22.9160   ZY=    -0.0000
   XZ=    -0.0005   YZ=     0.0006   ZZ=    22.0294
   Eigenvalues:    22.0294    22.0602    27.6911
     17  H    Isotropic =    22.4341   Anisotropy =     8.7980
   XX=    25.1599   YX=     3.8919   ZX=     0.0001
   XY=     4.0000   YY=    23.3400   ZY=     0.0001
   XZ=     0.0002   YZ=     0.0008   ZZ=    18.8025
   Eigenvalues:    18.8025    20.2004    28.2994
     18  H    Isotropic =    23.8918   Anisotropy =     6.5401
   XX=    28.2472   YX=     0.5425   ZX=    -0.0001
   XY=    -0.8961   YY=    21.5581   ZY=    -0.0000
   XZ=    -0.0002   YZ=    -0.0001   ZZ=    21.8701
   Eigenvalues:    21.5534    21.8701    28.2519
     19  H    Isotropic =    23.0531   Anisotropy =     6.3312
   XX=    23.4965   YX=    -3.0594   ZX=    -0.0002
   XY=    -1.8664   YY=    25.6680   ZY=     0.0003
   XZ=    -0.0000   YZ=     0.0003   ZZ=    19.9947
   Eigenvalues:    19.9947    21.8906    27.2739
     20  H    Isotropic =    22.8641   Anisotropy =     8.0113
   XX=    27.7178   YX=    -1.8468   ZX=    -0.0002
   XY=    -1.8269   YY=    21.2787   ZY=     0.0001
   XZ=    -0.0002   YZ=    -0.0001   ZZ=    19.5957
   Eigenvalues:    19.5957    20.7916    28.2049
     21  H    Isotropic =    27.8370   Anisotropy =     5.9060
   XX=    28.9077   YX=    -1.1594   ZX=     1.6052
   XY=     0.3164   YY=    28.1405   ZY=    -3.8038
   XZ=     1.0936   YZ=    -3.9734   ZZ=    26.4629
   Eigenvalues:    23.2121    28.5246    31.7744
     22  H    Isotropic =    27.8358   Anisotropy =     5.9025
   XX=    28.9077   YX=    -1.1584   ZX=    -1.6046
   XY=     0.3188   YY=    28.1429   ZY=     3.8019
   XZ=    -1.0933   YZ=     3.9719   ZZ=    26.4567
   Eigenvalues:    23.2106    28.5260    31.7708
     23  H    Isotropic =    30.3569   Anisotropy =     8.1297
   XX=    29.1056   YX=     2.1235   ZX=     1.3546
   XY=     1.3462   YY=    30.4802   ZY=     4.2625
   XZ=     1.3310   YZ=     3.8675   ZZ=    31.4849
   Eigenvalues:    26.7906    28.5034    35.7767
     24  H    Isotropic =    30.4326   Anisotropy =     9.7946
   XX=    36.1437   YX=    -2.9511   ZX=     0.0011
   XY=    -2.2558   YY=    28.6821   ZY=    -0.0007
   XZ=     0.0008   YZ=    -0.0009   ZZ=    26.4719
   Eigenvalues:    26.4719    27.8636    36.9623
     25  H    Isotropic =    30.3570   Anisotropy =     8.1302
   XX=    29.1050   YX=     2.1226   ZX=    -1.3562
   XY=     1.3460   YY=    30.4747   ZY=    -4.2615
   XZ=    -1.3325   YZ=    -3.8667   ZZ=    31.4914
   Eigenvalues:    26.7911    28.5028    35.7772
 End of Minotr F.D. properties file   721 does not exist.
 End of Minotr F.D. properties file   722 does not exist.
 End of Minotr F.D. properties file   788 does not exist.

 **********************************************************************

            Population analysis using the SCF Density.

 **********************************************************************

 Orbital symmetries:
       Occupied  (A) (A) (A) (A) (A) (A) (A) (A) (A) (A) (A) (A)
                 (A) (A) (A) (A) (A) (A) (A) (A) (A) (A) (A) (A)
                 (A) (A) (A) (A) (A) (A) (A) (A) (A) (A) (A) (A)
                 (A) (A) (A) (A) (A) (A) (A) (A) (A) (A) (A) (A)
                 (A) (A) (A)
       Virtual   (A) (A) (A) (A) (A) (A) (A) (A) (A) (A) (A) (A)
                 (A) (A) (A) (A) (A) (A) (A) (A) (A) (A) (A) (A)
                 (A) (A) (A) (A) (A) (A) (A) (A) (A) (A) (A) (A)
                 (A) (A) (A) (A) (A) (A) (A) (A) (A) (A) (A) (A)
                 (A) (A) (A) (A) (A) (A) (A) (A) (A) (A) (A) (A)
                 (A) (A) (A) (A) (A) (A) (A) (A) (A) (A) (A) (A)
                 (A) (A) (A) (A) (A) (A) (A) (A) (A) (A) (A) (A)
                 (A) (A) (A) (A) (A) (A) (A) (A) (A) (A) (A) (A)
                 (A) (A) (A) (A) (A) (A) (A) (A) (A) (A) (A) (A)
                 (A) (A) (A) (A) (A) (A) (A) (A) (A) (A) (A) (A)
                 (A) (A) (A) (A) (A) (A) (A) (A) (A) (A) (A) (A)
                 (A) (A) (A) (A) (A) (A) (A) (A) (A) (A) (A) (A)
                 (A) (A) (A) (A) (A) (A) (A) (A) (A) (A) (A) (A)
                 (A) (A) (A) (A) (A) (A) (A) (A) (A) (A) (A) (A)
                 (A) (A) (A) (A) (A) (A) (A) (A) (A) (A) (A) (A)
                 (A) (A) (A) (A) (A) (A) (A) (A) (A) (A) (A) (A)
                 (A) (A) (A) (A) (A) (A) (A) (A) (A) (A) (A) (A)
                 (A) (A) (A) (A) (A) (A) (A) (A) (A) (A) (A) (A)
                 (A) (A) (A) (A) (A) (A) (A) (A) (A) (A) (A) (A)
                 (A) (A) (A) (A) (A) (A) (A) (A) (A) (A) (A) (A)
                 (A) (A) (A) (A) (A) (A) (A) (A) (A) (A) (A) (A)
                 (A) (A) (A) (A) (A) (A) (A) (A) (A) (A) (A) (A)
                 (A) (A) (A) (A) (A) (A) (A) (A) (A) (A) (A) (A)
                 (A) (A) (A) (A) (A) (A) (A) (A) (A) (A) (A) (A)
                 (A) (A) (A) (A) (A) (A) (A) (A) (A) (A) (A) (A)
                 (A) (A) (A) (A) (A) (A) (A) (A) (A) (A) (A) (A)
                 (A) (A) (A) (A) (A) (A) (A) (A) (A) (A) (A) (A)
                 (A) (A) (A) (A) (A) (A) (A) (A) (A) (A) (A) (A)
                 (A) (A) (A) (A) (A) (A) (A) (A) (A) (A) (A) (A)
                 (A) (A) (A) (A) (A) (A) (A) (A) (A) (A) (A) (A)
                 (A) (A) (A) (A) (A) (A) (A) (A) (A) (A) (A) (A)
                 (A) (A) (A) (A) (A) (A) (A) (A) (A) (A) (A) (A)
                 (A) (A) (A) (A) (A) (A) (A) (A) (A) (A) (A) (A)
                 (A) (A) (A) (A) (A) (A) (A) (A) (A) (A) (A) (A)
                 (A) (A) (A) (A) (A) (A) (A) (A) (A) (A) (A) (A)
                 (A) (A) (A) (A) (A) (A) (A) (A) (A) (A) (A) (A)
                 (A) (A) (A) (A) (A) (A) (A) (A) (A) (A) (A) (A)
                 (A) (A) (A) (A) (A) (A) (A) (A) (A) (A) (A) (A)
                 (A) (A) (A) (A) (A) (A) (A) (A) (A) (A) (A) (A)
                 (A) (A) (A) (A) (A) (A) (A) (A) (A) (A) (A) (A)
                 (A) (A) (A) (A) (A) (A) (A) (A) (A) (A) (A) (A)
                 (A) (A) (A) (A) (A) (A) (A) (A) (A) (A) (A) (A)
                 (A) (A) (A) (A) (A) (A) (A) (A) (A) (A) (A) (A)
                 (A) (A) (A) (A) (A) (A) (A) (A) (A) (A) (A) (A)
                 (A) (A) (A) (A) (A) (A) (A) (A) (A)
 The electronic state is 1-A.
 Alpha  occ. eigenvalues --  -19.62149 -19.56030 -14.72985 -14.71875 -10.61480
 Alpha  occ. eigenvalues --  -10.56444 -10.54850 -10.54761 -10.53025 -10.52804
 Alpha  occ. eigenvalues --  -10.52634 -10.51727 -10.51449 -10.50134  -1.18279
 Alpha  occ. eigenvalues --   -1.08924  -1.03121  -0.99744  -0.88146  -0.84751
 Alpha  occ. eigenvalues --   -0.83966  -0.77494  -0.71785  -0.68795  -0.67525
 Alpha  occ. eigenvalues --   -0.63105  -0.59179  -0.56972  -0.55077  -0.54101
 Alpha  occ. eigenvalues --   -0.53562  -0.50708  -0.50168  -0.48043  -0.46487
 Alpha  occ. eigenvalues --   -0.46188  -0.45640  -0.44131  -0.44080  -0.43132
 Alpha  occ. eigenvalues --   -0.41084  -0.39749  -0.38858  -0.38709  -0.33505
 Alpha  occ. eigenvalues --   -0.32349  -0.31518  -0.30538  -0.30017  -0.28782
 Alpha  occ. eigenvalues --   -0.17787
 Alpha virt. eigenvalues --    0.00735   0.03237   0.09192   0.09580   0.11342
 Alpha virt. eigenvalues --    0.12523   0.13089   0.14393   0.14601   0.14711
 Alpha virt. eigenvalues --    0.15383   0.15877   0.15908   0.16832   0.17682
 Alpha virt. eigenvalues --    0.18274   0.18660   0.19367   0.20015   0.21560
 Alpha virt. eigenvalues --    0.22582   0.23572   0.24817   0.26077   0.26317
 Alpha virt. eigenvalues --    0.26797   0.27387   0.27560   0.28687   0.28729
 Alpha virt. eigenvalues --    0.30222   0.30562   0.30789   0.32595   0.33444
 Alpha virt. eigenvalues --    0.33472   0.34978   0.35847   0.36275   0.36364
 Alpha virt. eigenvalues --    0.37515   0.38420   0.38532   0.39271   0.40168
 Alpha virt. eigenvalues --    0.40681   0.42392   0.42663   0.42806   0.43836
 Alpha virt. eigenvalues --    0.44733   0.44999   0.46189   0.46596   0.47538
 Alpha virt. eigenvalues --    0.47749   0.47914   0.48681   0.50275   0.50719
 Alpha virt. eigenvalues --    0.51339   0.51535   0.51810   0.52588   0.53312
 Alpha virt. eigenvalues --    0.53543   0.53789   0.55087   0.55209   0.56308
 Alpha virt. eigenvalues --    0.56985   0.58093   0.59500   0.60679   0.60922
 Alpha virt. eigenvalues --    0.62579   0.62865   0.63971   0.64416   0.65165
 Alpha virt. eigenvalues --    0.65645   0.65990   0.66841   0.68350   0.69408
 Alpha virt. eigenvalues --    0.70318   0.70513   0.71027   0.72594   0.74910
 Alpha virt. eigenvalues --    0.74948   0.75722   0.76510   0.77591   0.78030
 Alpha virt. eigenvalues --    0.78155   0.80869   0.81822   0.82661   0.83575
 Alpha virt. eigenvalues --    0.83583   0.84300   0.85187   0.85646   0.87242
 Alpha virt. eigenvalues --    0.88639   0.89111   0.90307   0.91582   0.93157
 Alpha virt. eigenvalues --    0.93303   0.93367   0.95951   0.96094   0.96635
 Alpha virt. eigenvalues --    0.99048   0.99615   1.00096   1.01666   1.01980
 Alpha virt. eigenvalues --    1.03457   1.04736   1.05064   1.06464   1.07586
 Alpha virt. eigenvalues --    1.09016   1.09210   1.09967   1.11680   1.13552
 Alpha virt. eigenvalues --    1.14153   1.15890   1.16193   1.17863   1.19092
 Alpha virt. eigenvalues --    1.19096   1.19327   1.20315   1.21574   1.22291
 Alpha virt. eigenvalues --    1.24222   1.24939   1.25298   1.27899   1.29277
 Alpha virt. eigenvalues --    1.30138   1.31962   1.32151   1.32615   1.34979
 Alpha virt. eigenvalues --    1.35078   1.35802   1.37490   1.38132   1.40026
 Alpha virt. eigenvalues --    1.43562   1.43566   1.44656   1.45263   1.45371
 Alpha virt. eigenvalues --    1.46294   1.46694   1.47279   1.47825   1.49211
 Alpha virt. eigenvalues --    1.49687   1.50046   1.50644   1.50811   1.52077
 Alpha virt. eigenvalues --    1.52353   1.53877   1.54572   1.55966   1.56979
 Alpha virt. eigenvalues --    1.57046   1.57321   1.58523   1.60546   1.60790
 Alpha virt. eigenvalues --    1.61808   1.63133   1.63774   1.66014   1.66763
 Alpha virt. eigenvalues --    1.68202   1.69106   1.69199   1.69361   1.72428
 Alpha virt. eigenvalues --    1.74323   1.77445   1.78339   1.79509   1.80837
 Alpha virt. eigenvalues --    1.81377   1.82767   1.82902   1.83465   1.85106
 Alpha virt. eigenvalues --    1.85286   1.86369   1.90837   1.92062   1.93122
 Alpha virt. eigenvalues --    1.93764   1.96573   1.98555   2.01204   2.03237
 Alpha virt. eigenvalues --    2.03711   2.05541   2.05797   2.08481   2.09571
 Alpha virt. eigenvalues --    2.10168   2.10854   2.12680   2.14492   2.15285
 Alpha virt. eigenvalues --    2.19533   2.21789   2.23211   2.25321   2.26044
 Alpha virt. eigenvalues --    2.28288   2.30259   2.31206   2.34360   2.35030
 Alpha virt. eigenvalues --    2.36671   2.38371   2.41141   2.43739   2.45203
 Alpha virt. eigenvalues --    2.46609   2.48543   2.48860   2.50488   2.53468
 Alpha virt. eigenvalues --    2.54695   2.55434   2.56365   2.57262   2.57500
 Alpha virt. eigenvalues --    2.59560   2.61650   2.63582   2.65042   2.68857
 Alpha virt. eigenvalues --    2.70403   2.70502   2.72336   2.73013   2.75209
 Alpha virt. eigenvalues --    2.75576   2.76137   2.78798   2.79783   2.81043
 Alpha virt. eigenvalues --    2.81934   2.83261   2.84419   2.85445   2.86235
 Alpha virt. eigenvalues --    2.86847   2.87260   2.89367   2.90164   2.90474
 Alpha virt. eigenvalues --    2.92029   2.93029   2.93852   2.94035   2.94053
 Alpha virt. eigenvalues --    2.95707   2.97006   2.97971   2.98881   2.99833
 Alpha virt. eigenvalues --    3.00478   3.00742   3.02723   3.03239   3.03240
 Alpha virt. eigenvalues --    3.04017   3.04566   3.05816   3.07116   3.07263
 Alpha virt. eigenvalues --    3.07324   3.09813   3.10016   3.10737   3.11818
 Alpha virt. eigenvalues --    3.12315   3.13834   3.14786   3.15159   3.15450
 Alpha virt. eigenvalues --    3.18018   3.18398   3.19190   3.20051   3.20336
 Alpha virt. eigenvalues --    3.20434   3.22130   3.22206   3.22628   3.22846
 Alpha virt. eigenvalues --    3.25102   3.26766   3.27364   3.27932   3.29428
 Alpha virt. eigenvalues --    3.31406   3.31655   3.31997   3.32770   3.35462
 Alpha virt. eigenvalues --    3.35591   3.35620   3.37128   3.37801   3.38533
 Alpha virt. eigenvalues --    3.41345   3.41435   3.42870   3.43143   3.44061
 Alpha virt. eigenvalues --    3.44605   3.44671   3.45902   3.47841   3.48664
 Alpha virt. eigenvalues --    3.48811   3.51402   3.51815   3.52928   3.54747
 Alpha virt. eigenvalues --    3.55577   3.56485   3.57284   3.58091   3.59435
 Alpha virt. eigenvalues --    3.61737   3.62090   3.62411   3.63756   3.64125
 Alpha virt. eigenvalues --    3.65952   3.66812   3.67065   3.68350   3.69819
 Alpha virt. eigenvalues --    3.72800   3.72851   3.75282   3.76472   3.77245
 Alpha virt. eigenvalues --    3.79442   3.80249   3.81060   3.81574   3.82129
 Alpha virt. eigenvalues --    3.82526   3.83294   3.85156   3.85592   3.88193
 Alpha virt. eigenvalues --    3.88610   3.88630   3.88822   3.89759   3.91092
 Alpha virt. eigenvalues --    3.92312   3.92423   3.94526   3.95679   3.96026
 Alpha virt. eigenvalues --    3.96256   3.97248   3.97559   4.01335   4.01460
 Alpha virt. eigenvalues --    4.01895   4.02987   4.03671   4.04800   4.05519
 Alpha virt. eigenvalues --    4.06873   4.08574   4.09354   4.10134   4.13128
 Alpha virt. eigenvalues --    4.13969   4.15552   4.16422   4.17250   4.17332
 Alpha virt. eigenvalues --    4.19586   4.21650   4.22502   4.23069   4.24600
 Alpha virt. eigenvalues --    4.25898   4.27173   4.28434   4.31010   4.32166
 Alpha virt. eigenvalues --    4.32963   4.33610   4.33631   4.36118   4.36645
 Alpha virt. eigenvalues --    4.39715   4.41036   4.42808   4.44954   4.48349
 Alpha virt. eigenvalues --    4.49135   4.51783   4.52259   4.52908   4.56036
 Alpha virt. eigenvalues --    4.57911   4.61264   4.62074   4.64279   4.66352
 Alpha virt. eigenvalues --    4.68198   4.69408   4.74343   4.74872   4.75374
 Alpha virt. eigenvalues --    4.77167   4.80814   4.81370   4.81626   4.82010
 Alpha virt. eigenvalues --    4.83514   4.86828   4.87062   4.89676   4.89973
 Alpha virt. eigenvalues --    4.90688   4.90760   4.92747   4.93528   4.94751
 Alpha virt. eigenvalues --    4.96748   4.98483   4.99990   5.01374   5.02297
 Alpha virt. eigenvalues --    5.05682   5.08327   5.12035   5.13403   5.13787
 Alpha virt. eigenvalues --    5.14041   5.15155   5.20419   5.21595   5.22494
 Alpha virt. eigenvalues --    5.24151   5.25380   5.25711   5.26765   5.27602
 Alpha virt. eigenvalues --    5.28225   5.29173   5.31335   5.31818   5.33296
 Alpha virt. eigenvalues --    5.35050   5.36766   5.37857   5.38196   5.39921
 Alpha virt. eigenvalues --    5.39999   5.41905   5.45164   5.46076   5.48804
 Alpha virt. eigenvalues --    5.49003   5.55076   5.55219   5.56729   5.58510
 Alpha virt. eigenvalues --    5.59268   5.61938   5.62990   5.63783   5.69878
 Alpha virt. eigenvalues --    5.71517   5.75311   5.81074   5.83584   5.87790
 Alpha virt. eigenvalues --    5.90118   5.94037   6.03835   6.05940   6.08383
 Alpha virt. eigenvalues --    6.14961   6.19558   6.24135   6.32394   6.41248
 Alpha virt. eigenvalues --    6.42358   6.49298   6.62161   6.72051   6.77600
 Alpha virt. eigenvalues --    6.77826   6.84453   6.96638   6.96707   7.14714
 Alpha virt. eigenvalues --    7.19154   7.41316   7.46132  23.05389  23.20462
 Alpha virt. eigenvalues --   23.25054  23.34809  23.37815  23.45088  23.53027
 Alpha virt. eigenvalues --   23.58331  23.69219  23.78529  32.65520  32.89488
 Alpha virt. eigenvalues --   44.16407  44.50911
          Condensed to atoms (all electrons):
               1          2          3          4          5          6
     1  O    8.028263   0.651934  -0.102455  -0.003720   0.003278  -0.000715
     2  C    0.651934   4.456789   0.497444  -0.084045  -0.005669   0.003075
     3  C   -0.102455   0.497444   5.195647   0.510376  -0.202414   0.011654
     4  N   -0.003720  -0.084045   0.510376   6.389971   0.626570  -0.174616
     5  C    0.003278  -0.005669  -0.202414   0.626570   5.017561   0.400231
     6  C   -0.000715   0.003075   0.011654  -0.174616   0.400231   5.499927
     7  C   -0.000842  -0.001194   0.000671   0.038876  -0.083813   0.063620
     8  C   -0.000006  -0.000043   0.000022  -0.003042   0.006406   0.006399
     9  C    0.000002   0.000001  -0.000029   0.000857  -0.000243  -0.060053
    10  N   -0.000000  -0.000003  -0.000019  -0.000634   0.005276  -0.062148
    11  C   -0.000006   0.000033   0.000040   0.001587  -0.080694   0.496699
    12  O   -0.101214   0.293624  -0.092817   0.004065   0.000843  -0.000036
    13  C   -0.015684  -0.054632   0.005855  -0.000310   0.000083  -0.000008
    14  C    0.007308   0.005354   0.002207   0.000013  -0.000007   0.000000
    15  H    0.004870  -0.063705   0.416130  -0.049907  -0.004507  -0.006057
    16  H    0.000021  -0.004870  -0.011890  -0.059518   0.427906  -0.092984
    17  H    0.002945   0.000104  -0.001644   0.032003  -0.004275  -0.088177
    18  H   -0.000002  -0.000002   0.000001  -0.000227  -0.000179   0.016333
    19  H   -0.000000  -0.000000  -0.000000  -0.000002   0.000043  -0.001191
    20  H    0.000000  -0.000010  -0.000101  -0.000471  -0.003314  -0.073194
    21  H    0.007584  -0.005847   0.001640  -0.000014  -0.000010   0.000002
    22  H    0.007599  -0.005860   0.001638  -0.000014  -0.000010   0.000002
    23  H   -0.000130  -0.000434  -0.000075   0.000001   0.000002   0.000000
    24  H    0.000202  -0.000101  -0.000026  -0.000000  -0.000000  -0.000000
    25  H   -0.000130  -0.000433  -0.000075   0.000001   0.000002   0.000000
               7          8          9         10         11         12
     1  O   -0.000842  -0.000006   0.000002  -0.000000  -0.000006  -0.101214
     2  C   -0.001194  -0.000043   0.000001  -0.000003   0.000033   0.293624
     3  C    0.000671   0.000022  -0.000029  -0.000019   0.000040  -0.092817
     4  N    0.038876  -0.003042   0.000857  -0.000634   0.001587   0.004065
     5  C   -0.083813   0.006406  -0.000243   0.005276  -0.080694   0.000843
     6  C    0.063620   0.006399  -0.060053  -0.062148   0.496699  -0.000036
     7  C    5.425009   0.410076  -0.006177  -0.081286  -0.039084   0.000010
     8  C    0.410076   4.992966   0.474324  -0.050280  -0.016317  -0.000000
     9  C   -0.006177   0.474324   4.894948   0.491237  -0.139899   0.000000
    10  N   -0.081286  -0.050280   0.491237   6.498825   0.537853  -0.000000
    11  C   -0.039084  -0.016317  -0.139899   0.537853   4.874088  -0.000001
    12  O    0.000010  -0.000000   0.000000  -0.000000  -0.000001   8.101834
    13  C    0.000004  -0.000000   0.000000  -0.000000   0.000000   0.224001
    14  C    0.000000   0.000000  -0.000000   0.000000   0.000000  -0.046456
    15  H    0.002219  -0.000035   0.000010  -0.000003  -0.000253   0.014845
    16  H    0.039928  -0.002468   0.000884  -0.000664  -0.010336   0.000098
    17  H    0.456804  -0.035034   0.008788  -0.002184   0.004261   0.000053
    18  H   -0.054264   0.422872  -0.033234   0.009055  -0.002682  -0.000000
    19  H    0.001676  -0.054963   0.435862  -0.024671   0.005284  -0.000000
    20  H    0.011005  -0.002505   0.007731  -0.025220   0.438483   0.000000
    21  H    0.000000   0.000000  -0.000000   0.000000   0.000000  -0.045322
    22  H    0.000000   0.000000  -0.000000   0.000000   0.000000  -0.045320
    23  H    0.000000  -0.000000   0.000000   0.000000  -0.000000   0.002560
    24  H    0.000000   0.000000  -0.000000  -0.000000   0.000000   0.004672
    25  H    0.000000  -0.000000   0.000000   0.000000  -0.000000   0.002561
              13         14         15         16         17         18
     1  O   -0.015684   0.007308   0.004870   0.000021   0.002945  -0.000002
     2  C   -0.054632   0.005354  -0.063705  -0.004870   0.000104  -0.000002
     3  C    0.005855   0.002207   0.416130  -0.011890  -0.001644   0.000001
     4  N   -0.000310   0.000013  -0.049907  -0.059518   0.032003  -0.000227
     5  C    0.000083  -0.000007  -0.004507   0.427906  -0.004275  -0.000179
     6  C   -0.000008   0.000000  -0.006057  -0.092984  -0.088177   0.016333
     7  C    0.000004   0.000000   0.002219   0.039928   0.456804  -0.054264
     8  C   -0.000000   0.000000  -0.000035  -0.002468  -0.035034   0.422872
     9  C    0.000000  -0.000000   0.000010   0.000884   0.008788  -0.033234
    10  N   -0.000000   0.000000  -0.000003  -0.000664  -0.002184   0.009055
    11  C    0.000000   0.000000  -0.000253  -0.010336   0.004261  -0.002682
    12  O    0.224001  -0.046456   0.014845   0.000098   0.000053  -0.000000
    13  C    4.840843   0.275264   0.001629   0.000020  -0.000002   0.000000
    14  C    0.275264   4.946065  -0.000652  -0.000001  -0.000000   0.000000
    15  H    0.001629  -0.000652   0.596535   0.022532   0.000521  -0.000001
    16  H    0.000020  -0.000001   0.022532   0.647934   0.002508  -0.000015
    17  H   -0.000002  -0.000000   0.000521   0.002508   0.486368  -0.006828
    18  H    0.000000   0.000000  -0.000001  -0.000015  -0.006828   0.515890
    19  H   -0.000000   0.000000   0.000000   0.000002  -0.000177   0.000003
    20  H    0.000000  -0.000000   0.000065   0.007050  -0.000061   0.000083
    21  H    0.423207  -0.036850  -0.000032  -0.000002  -0.000002   0.000000
    22  H    0.423212  -0.036863  -0.000032  -0.000002  -0.000002   0.000000
    23  H   -0.034973   0.407232   0.000061  -0.000000   0.000000  -0.000000
    24  H   -0.041059   0.412004   0.000012  -0.000000  -0.000000   0.000000
    25  H   -0.034978   0.407240   0.000061  -0.000000   0.000000  -0.000000
              19         20         21         22         23         24
     1  O   -0.000000   0.000000   0.007584   0.007599  -0.000130   0.000202
     2  C   -0.000000  -0.000010  -0.005847  -0.005860  -0.000434  -0.000101
     3  C   -0.000000  -0.000101   0.001640   0.001638  -0.000075  -0.000026
     4  N   -0.000002  -0.000471  -0.000014  -0.000014   0.000001  -0.000000
     5  C    0.000043  -0.003314  -0.000010  -0.000010   0.000002  -0.000000
     6  C   -0.001191  -0.073194   0.000002   0.000002   0.000000  -0.000000
     7  C    0.001676   0.011005   0.000000   0.000000   0.000000   0.000000
     8  C   -0.054963  -0.002505   0.000000   0.000000  -0.000000   0.000000
     9  C    0.435862   0.007731  -0.000000  -0.000000   0.000000  -0.000000
    10  N   -0.024671  -0.025220   0.000000   0.000000   0.000000  -0.000000
    11  C    0.005284   0.438483   0.000000   0.000000  -0.000000   0.000000
    12  O   -0.000000   0.000000  -0.045322  -0.045320   0.002560   0.004672
    13  C   -0.000000   0.000000   0.423207   0.423212  -0.034973  -0.041059
    14  C    0.000000  -0.000000  -0.036850  -0.036863   0.407232   0.412004
    15  H    0.000000   0.000065  -0.000032  -0.000032   0.000061   0.000012
    16  H    0.000002   0.007050  -0.000002  -0.000002  -0.000000  -0.000000
    17  H   -0.000177  -0.000061  -0.000002  -0.000002   0.000000  -0.000000
    18  H    0.000003   0.000083   0.000000   0.000000  -0.000000   0.000000
    19  H    0.514857  -0.000123   0.000000   0.000000  -0.000000   0.000000
    20  H   -0.000123   0.540060  -0.000000  -0.000000   0.000000  -0.000000
    21  H    0.000000  -0.000000   0.618497  -0.056479  -0.010501  -0.000897
    22  H    0.000000  -0.000000  -0.056479   0.618507   0.008852  -0.000895
    23  H   -0.000000   0.000000  -0.010501   0.008852   0.572682  -0.021145
    24  H    0.000000  -0.000000  -0.000897  -0.000895  -0.021145   0.562025
    25  H   -0.000000   0.000000   0.008851  -0.010501  -0.032006  -0.021142
              25
     1  O   -0.000130
     2  C   -0.000433
     3  C   -0.000075
     4  N    0.000001
     5  C    0.000002
     6  C    0.000000
     7  C    0.000000
     8  C   -0.000000
     9  C    0.000000
    10  N    0.000000
    11  C   -0.000000
    12  O    0.002561
    13  C   -0.034978
    14  C    0.407240
    15  H    0.000061
    16  H   -0.000000
    17  H    0.000000
    18  H   -0.000000
    19  H   -0.000000
    20  H    0.000000
    21  H    0.008851
    22  H   -0.010501
    23  H   -0.032006
    24  H   -0.021142
    25  H    0.572667
 Mulliken charges:
               1
     1  O   -0.489100
     2  C    0.318490
     3  C   -0.231780
     4  N   -0.227798
     5  C   -0.103065
     6  C    0.061236
     7  C   -0.183237
     8  C   -0.148372
     9  C   -0.075009
    10  N   -0.295134
    11  C   -0.069057
    12  O   -0.317999
    13  C   -0.012471
    14  C   -0.341858
    15  H    0.065692
    16  H    0.033868
    17  H    0.144030
    18  H    0.133198
    19  H    0.123399
    20  H    0.100520
    21  H    0.096175
    22  H    0.096169
    23  H    0.107875
    24  H    0.106351
    25  H    0.107881
 Sum of Mulliken charges =  -1.00000
 Mulliken charges with hydrogens summed into heavy atoms:
               1
     1  O   -0.489100
     2  C    0.318490
     3  C   -0.166089
     4  N   -0.227798
     5  C   -0.069197
     6  C    0.061236
     7  C   -0.039207
     8  C   -0.015174
     9  C    0.048389
    10  N   -0.295134
    11  C    0.031463
    12  O   -0.317999
    13  C    0.179872
    14  C   -0.019751
 Electronic spatial extent (au):  <R**2>=           5285.2226
 Charge=             -1.0000 electrons
 Dipole moment (field-independent basis, Debye):
    X=             -1.7946    Y=             -0.6114    Z=              0.0001  Tot=              1.8959
 Quadrupole moment (field-independent basis, Debye-Ang):
   XX=           -120.8369   YY=            -89.9863   ZZ=            -88.7926
   XY=             12.9287   XZ=              0.0005   YZ=              0.0003
 Traceless Quadrupole moment (field-independent basis, Debye-Ang):
   XX=            -20.9649   YY=              9.8856   ZZ=             11.0793
   XY=             12.9287   XZ=              0.0005   YZ=              0.0003
 Octapole moment (field-independent basis, Debye-Ang**2):
  XXX=           -188.3551  YYY=             -4.2436  ZZZ=             -0.0007  XYY=              9.3895
  XXY=             60.2718  XXZ=              0.0004  XZZ=            -21.1814  YZZ=              2.0643
  YYZ=              0.0004  XYZ=              0.0001
 Hexadecapole moment (field-independent basis, Debye-Ang**3):
 XXXX=          -7255.5358 YYYY=           -534.7481 ZZZZ=           -112.7356 XXXY=            266.9447
 XXXZ=              0.0266 YYYX=             40.2029 YYYZ=              0.0045 ZZZX=             -0.0008
 ZZZY=             -0.0019 XXYY=          -1258.3931 XXZZ=          -1172.5496 YYZZ=           -115.7603
 XXYZ=             -0.0002 YYXZ=              0.0017 ZZXY=             -5.8049
 N-N= 7.815489055436D+02 E-N=-3.088986923675D+03  KE= 6.444261062316D+02
 Unable to Open any file for archive entry.
 1\1\GINC-NOTCH123\SP\RM062X\def2TZVPP\C10H11N2O2(1-)\U6067110\18-Jul-2
 025\0\\#N Guess=Read Geom=Check Integral(Ultrafine) Density NMR M062X 
 EmpiricalDispersion=GD3 def2TZVPP SCRF(IEFPCM,solvent=thf)\\A12_crest_
 conformers_censo-1\\-1,1\O,0,2.4222484668,-1.3950603087,0.4283849601\C
 ,0,2.4020333573,-0.2343386071,0.0660376075\C,0,1.2924511888,0.63460119
 53,-0.1970662256\N,0,0.0516968905,0.1989049515,-0.0518664429\C,0,-1.00
 69089797,0.9339698532,-0.2736348498\C,0,-2.3341754416,0.4004006208,-0.
 0971960383\C,0,-2.5674389423,-0.9300552298,0.320077402\C,0,-3.86972906
 53,-1.3795017998,0.470046623\C,0,-4.9332126025,-0.5080756552,0.2056849
 094\N,0,-4.7422014596,0.7513895855,-0.1891018352\C,0,-3.4932206143,1.1
 790567892,-0.3318706561\O,0,3.6033106898,0.4312704604,-0.1507398809\C,
 0,4.7566628233,-0.3339656347,0.0796573544\C,0,5.959118616,0.544118682,
 -0.2030588581\H,0,1.5194975045,1.6622065295,-0.5195987033\H,0,-0.91949
 88381,1.9861621734,-0.6029184582\H,0,-1.6987685276,-1.5629426158,0.511
 3572329\H,0,-4.0719062903,-2.404040881,0.7915418387\H,0,-5.9707255444,
 -0.8413780878,0.3174196757\H,0,-3.3674137912,2.2196024924,-0.657805101
 6\H,0,4.7567298634,-1.2314652892,-0.5622811593\H,0,4.7689259891,-0.707
 2604554,1.1179699113\H,0,5.9368605673,0.8973445905,-1.2438761976\H,0,6
 .8963965819,-0.0073111899,-0.0379886462\H,0,5.9493875582,1.4264878306,
 0.4526055382\\Version=ES64L-G16RevC.01\State=1-A\HF=-647.7255294\RMSD=
 2.138e-09\Dipole=0.7028514,0.2369118,-0.0791366\Quadrupole=-15.8321042
 ,7.6155306,8.2165736,8.9372229,-2.6138614,0.1280227\PG=C01 [X(C10H11N2
 O2)]\\@
 The archive entry for this job was punched.


 A people that values its privileges above its principles soon loses both.
 -- Dwight D. Eisenhower
 Job cpu time:       0 days  1 hours 58 minutes 39.6 seconds.
 Elapsed time:       0 days  0 hours  7 minutes 44.1 seconds.
 File lengths (MBytes):  RWF=    287 Int=      0 D2E=      0 Chk=     32 Scr=      2
 Normal termination of Gaussian 16 at Fri Jul 18 10:21:29 2025.
