 Entering Gaussian System, Link 0=g16
 Input=A18_crest_conformers_censo-18.com
 Output=A18_crest_conformers_censo-18.log
 Initial command:
 /uufs/chpc.utah.edu/sys/installdir/gaussian16/C01/AVX/g16/l1.exe "/scratch/general/vast/u6067110/5269608-notchpeak.peaks/Gau-1425730.inp" -scrdir="/scratch/general/vast/u6067110/5269608-notchpeak.peaks/"
 Entering Link 1 = /uufs/chpc.utah.edu/sys/installdir/gaussian16/C01/AVX/g16/l1.exe PID=   1425731.
  
 Copyright (c) 1988-2019, Gaussian, Inc.  All Rights Reserved.
  
 This is part of the Gaussian(R) 16 program.  It is based on
 the Gaussian(R) 09 system (copyright 2009, Gaussian, Inc.),
 the Gaussian(R) 03 system (copyright 2003, Gaussian, Inc.),
 the Gaussian(R) 98 system (copyright 1998, Gaussian, Inc.),
 the Gaussian(R) 94 system (copyright 1995, Gaussian, Inc.),
 the Gaussian 92(TM) system (copyright 1992, Gaussian, Inc.),
 the Gaussian 90(TM) system (copyright 1990, Gaussian, Inc.),
 the Gaussian 88(TM) system (copyright 1988, Gaussian, Inc.),
 the Gaussian 86(TM) system (copyright 1986, Carnegie Mellon
 University), and the Gaussian 82(TM) system (copyright 1983,
 Carnegie Mellon University). Gaussian is a federally registered
 trademark of Gaussian, Inc.
  
 This software contains proprietary and confidential information,
 including trade secrets, belonging to Gaussian, Inc.
  
 This software is provided under written license and may be
 used, copied, transmitted, or stored only in accord with that
 written license.
  
 The following legend is applicable only to US Government
 contracts under FAR:
  
                    RESTRICTED RIGHTS LEGEND
  
 Use, reproduction and disclosure by the US Government is
 subject to restrictions as set forth in subparagraphs (a)
 and (c) of the Commercial Computer Software - Restricted
 Rights clause in FAR 52.227-19.
  
 Gaussian, Inc.
 340 Quinnipiac St., Bldg. 40, Wallingford CT 06492
  
  
 ---------------------------------------------------------------
 Warning -- This program may not be used in any manner that
 competes with the business of Gaussian, Inc. or will provide
 assistance to any competitor of Gaussian, Inc.  The licensee
 of this program is prohibited from giving any competitor of
 Gaussian, Inc. access to this program.  By using this program,
 the user acknowledges that Gaussian, Inc. is engaged in the
 business of creating and licensing software in the field of
 computational chemistry and represents and warrants to the
 licensee that it is not a competitor of Gaussian, Inc. and that
 it will not use this program in any manner prohibited above.
 ---------------------------------------------------------------
  

 Cite this work as:
 Gaussian 16, Revision C.01,
 M. J. Frisch, G. W. Trucks, H. B. Schlegel, G. E. Scuseria, 
 M. A. Robb, J. R. Cheeseman, G. Scalmani, V. Barone, 
 G. A. Petersson, H. Nakatsuji, X. Li, M. Caricato, A. V. Marenich, 
 J. Bloino, B. G. Janesko, R. Gomperts, B. Mennucci, H. P. Hratchian, 
 J. V. Ortiz, A. F. Izmaylov, J. L. Sonnenberg, D. Williams-Young, 
 F. Ding, F. Lipparini, F. Egidi, J. Goings, B. Peng, A. Petrone, 
 T. Henderson, D. Ranasinghe, V. G. Zakrzewski, J. Gao, N. Rega, 
 G. Zheng, W. Liang, M. Hada, M. Ehara, K. Toyota, R. Fukuda, 
 J. Hasegawa, M. Ishida, T. Nakajima, Y. Honda, O. Kitao, H. Nakai, 
 T. Vreven, K. Throssell, J. A. Montgomery, Jr., J. E. Peralta, 
 F. Ogliaro, M. J. Bearpark, J. J. Heyd, E. N. Brothers, K. N. Kudin, 
 V. N. Staroverov, T. A. Keith, R. Kobayashi, J. Normand, 
 K. Raghavachari, A. P. Rendell, J. C. Burant, S. S. Iyengar, 
 J. Tomasi, M. Cossi, J. M. Millam, M. Klene, C. Adamo, R. Cammi, 
 J. W. Ochterski, R. L. Martin, K. Morokuma, O. Farkas, 
 J. B. Foresman, and D. J. Fox, Gaussian, Inc., Wallingford CT, 2019.
 
 ******************************************
 Gaussian 16:  ES64L-G16RevC.01  3-Jul-2019
                18-Jul-2025 
 ******************************************
 %NProcShared=32
 Will use up to   32 processors via shared memory.
 %Mem=48GB
 %chk=A18_crest_conformers_censo-18.chk
 ----------------------------------------------------------------------
 #N OPT FREQ=NORAMAN Integral(Ultrafine) M062X EmpiricalDispersion=GD3 
 def2SVP
 ----------------------------------------------------------------------
 1/18=20,19=15,26=4,38=1/1,3;
 2/9=110,12=2,17=6,18=5,40=1/2;
 3/5=43,7=101,11=2,25=1,30=1,71=1,74=-55,75=-5,124=31/1,2,3;
 4//1;
 5/5=2,38=5/2;
 6/7=2,8=2,9=2,10=2,28=1/1;
 7//1,2,3,16;
 1/18=20,19=15,26=4/3(2);
 2/9=110/2;
 99//99;
 2/9=110/2;
 3/5=43,7=101,11=2,25=1,30=1,71=1,74=-55,75=-5,124=31/1,2,3;
 4/5=5,16=3,69=1/1;
 5/5=2,38=5/2;
 7//1,2,3,16;
 1/18=20,19=15,26=4/3(-5);
 2/9=110/2;
 6/7=2,8=2,9=2,10=2,19=2,28=1/1;
 99/9=1/99;
 -----------------------------
 A18_crest_conformers_censo-18
 -----------------------------
 Symbolic Z-matrix:
 Charge = -1 Multiplicity = 1
 O                     1.42649  -1.24742   0.58203 
 C                     1.30783  -0.06969   0.24187 
 C                     0.19695   0.68194  -0.10284 
 N                    -1.03696   0.1611   -0.11461 
 C                    -2.07734   0.83188  -0.43368 
 C                    -3.44655   0.20757  -0.38339 
 C                    -3.36401  -1.29521  -0.63603 
 C                    -4.09829   0.47485   0.98183 
 O                     2.4905    0.75063   0.17839 
 C                     3.69085   0.08399   0.44121 
 C                     4.37655  -0.39307  -0.8409 
 H                     0.36405   1.73443  -0.36563 
 H                    -2.04701   1.90453  -0.70296 
 H                    -4.07965   0.67279  -1.15523 
 H                    -3.02801  -1.48669  -1.65251 
 H                    -4.33272  -1.7749   -0.4867 
 H                    -2.63226  -1.72176   0.04289 
 H                    -5.10644   0.05831   1.02774 
 H                    -4.1571    1.54582   1.17183 
 H                    -3.49321   0.02079   1.76266 
 H                     4.34151   0.78681   0.98023 
 H                     3.47936  -0.78603   1.08007 
 H                     3.72537  -1.10114  -1.34707 
 H                     5.32266  -0.87924  -0.60614 
 H                     4.56003   0.4496   -1.50527 
 

 GradGradGradGradGradGradGradGradGradGradGradGradGradGradGradGradGradGrad
 Berny optimization.
 Initialization pass.
                           ----------------------------
                           !    Initial Parameters    !
                           ! (Angstroms and Degrees)  !
 --------------------------                            --------------------------
 ! Name  Definition              Value          Derivative Info.                !
 --------------------------------------------------------------------------------
 ! R1    R(1,2)                  1.2316         estimate D2E/DX2                !
 ! R2    R(2,3)                  1.3849         estimate D2E/DX2                !
 ! R3    R(2,9)                  1.4407         estimate D2E/DX2                !
 ! R4    R(3,4)                  1.3394         estimate D2E/DX2                !
 ! R5    R(3,12)                 1.0976         estimate D2E/DX2                !
 ! R6    R(4,5)                  1.2783         estimate D2E/DX2                !
 ! R7    R(5,6)                  1.5057         estimate D2E/DX2                !
 ! R8    R(5,13)                 1.1063         estimate D2E/DX2                !
 ! R9    R(6,7)                  1.5261         estimate D2E/DX2                !
 ! R10   R(6,8)                  1.5362         estimate D2E/DX2                !
 ! R11   R(6,14)                 1.1014         estimate D2E/DX2                !
 ! R12   R(7,15)                 1.0876         estimate D2E/DX2                !
 ! R13   R(7,16)                 1.0912         estimate D2E/DX2                !
 ! R14   R(7,17)                 1.0855         estimate D2E/DX2                !
 ! R15   R(8,18)                 1.0918         estimate D2E/DX2                !
 ! R16   R(8,19)                 1.0893         estimate D2E/DX2                !
 ! R17   R(8,20)                 1.0872         estimate D2E/DX2                !
 ! R18   R(9,10)                 1.398          estimate D2E/DX2                !
 ! R19   R(10,11)                1.5302         estimate D2E/DX2                !
 ! R20   R(10,21)                1.099          estimate D2E/DX2                !
 ! R21   R(10,22)                1.0999         estimate D2E/DX2                !
 ! R22   R(11,23)                1.087          estimate D2E/DX2                !
 ! R23   R(11,24)                1.0893         estimate D2E/DX2                !
 ! R24   R(11,25)                1.0886         estimate D2E/DX2                !
 ! A1    A(1,2,3)              131.6857         estimate D2E/DX2                !
 ! A2    A(1,2,9)              118.5261         estimate D2E/DX2                !
 ! A3    A(3,2,9)              109.7848         estimate D2E/DX2                !
 ! A4    A(2,3,4)              122.0139         estimate D2E/DX2                !
 ! A5    A(2,3,12)             117.2529         estimate D2E/DX2                !
 ! A6    A(4,3,12)             120.7328         estimate D2E/DX2                !
 ! A7    A(3,4,5)              123.2238         estimate D2E/DX2                !
 ! A8    A(4,5,6)              120.9431         estimate D2E/DX2                !
 ! A9    A(4,5,13)             123.1741         estimate D2E/DX2                !
 ! A10   A(6,5,13)             115.7898         estimate D2E/DX2                !
 ! A11   A(5,6,7)              110.7071         estimate D2E/DX2                !
 ! A12   A(5,6,8)              110.0803         estimate D2E/DX2                !
 ! A13   A(5,6,14)             108.9163         estimate D2E/DX2                !
 ! A14   A(7,6,8)              109.9614         estimate D2E/DX2                !
 ! A15   A(7,6,14)             109.3311         estimate D2E/DX2                !
 ! A16   A(8,6,14)             107.7841         estimate D2E/DX2                !
 ! A17   A(6,7,15)             110.1701         estimate D2E/DX2                !
 ! A18   A(6,7,16)             111.2353         estimate D2E/DX2                !
 ! A19   A(6,7,17)             108.6547         estimate D2E/DX2                !
 ! A20   A(15,7,16)            108.9513         estimate D2E/DX2                !
 ! A21   A(15,7,17)            107.8853         estimate D2E/DX2                !
 ! A22   A(16,7,17)            109.8826         estimate D2E/DX2                !
 ! A23   A(6,8,18)             111.2685         estimate D2E/DX2                !
 ! A24   A(6,8,19)             110.4245         estimate D2E/DX2                !
 ! A25   A(6,8,20)             109.237          estimate D2E/DX2                !
 ! A26   A(18,8,19)            108.5373         estimate D2E/DX2                !
 ! A27   A(18,8,20)            108.928          estimate D2E/DX2                !
 ! A28   A(19,8,20)            108.3848         estimate D2E/DX2                !
 ! A29   A(2,9,10)             115.1536         estimate D2E/DX2                !
 ! A30   A(9,10,11)            112.0804         estimate D2E/DX2                !
 ! A31   A(9,10,21)            107.1933         estimate D2E/DX2                !
 ! A32   A(9,10,22)            108.7411         estimate D2E/DX2                !
 ! A33   A(11,10,21)           110.1821         estimate D2E/DX2                !
 ! A34   A(11,10,22)           109.0392         estimate D2E/DX2                !
 ! A35   A(21,10,22)           109.5604         estimate D2E/DX2                !
 ! A36   A(10,11,23)           108.9527         estimate D2E/DX2                !
 ! A37   A(10,11,24)           110.3509         estimate D2E/DX2                !
 ! A38   A(10,11,25)           110.214          estimate D2E/DX2                !
 ! A39   A(23,11,24)           109.2647         estimate D2E/DX2                !
 ! A40   A(23,11,25)           108.7234         estimate D2E/DX2                !
 ! A41   A(24,11,25)           109.3056         estimate D2E/DX2                !
 ! D1    D(1,2,3,4)             -0.1743         estimate D2E/DX2                !
 ! D2    D(1,2,3,12)           179.5772         estimate D2E/DX2                !
 ! D3    D(9,2,3,4)           -179.4682         estimate D2E/DX2                !
 ! D4    D(9,2,3,12)             0.2833         estimate D2E/DX2                !
 ! D5    D(1,2,9,10)             3.6841         estimate D2E/DX2                !
 ! D6    D(3,2,9,10)          -176.9161         estimate D2E/DX2                !
 ! D7    D(2,3,4,5)           -179.7275         estimate D2E/DX2                !
 ! D8    D(12,3,4,5)             0.5295         estimate D2E/DX2                !
 ! D9    D(3,4,5,6)           -177.8597         estimate D2E/DX2                !
 ! D10   D(3,4,5,13)            -1.5163         estimate D2E/DX2                !
 ! D11   D(4,5,6,7)            -29.0682         estimate D2E/DX2                !
 ! D12   D(4,5,6,8)             92.7192         estimate D2E/DX2                !
 ! D13   D(4,5,6,14)          -149.3089         estimate D2E/DX2                !
 ! D14   D(13,5,6,7)           154.3307         estimate D2E/DX2                !
 ! D15   D(13,5,6,8)           -83.8819         estimate D2E/DX2                !
 ! D16   D(13,5,6,14)           34.0901         estimate D2E/DX2                !
 ! D17   D(5,6,7,15)           -65.7172         estimate D2E/DX2                !
 ! D18   D(5,6,7,16)           173.3571         estimate D2E/DX2                !
 ! D19   D(5,6,7,17)            52.2737         estimate D2E/DX2                !
 ! D20   D(8,6,7,15)           172.4255         estimate D2E/DX2                !
 ! D21   D(8,6,7,16)            51.4999         estimate D2E/DX2                !
 ! D22   D(8,6,7,17)           -69.5836         estimate D2E/DX2                !
 ! D23   D(14,6,7,15)           54.2755         estimate D2E/DX2                !
 ! D24   D(14,6,7,16)          -66.6502         estimate D2E/DX2                !
 ! D25   D(14,6,7,17)          172.2664         estimate D2E/DX2                !
 ! D26   D(5,6,8,18)           178.1239         estimate D2E/DX2                !
 ! D27   D(5,6,8,19)            57.5271         estimate D2E/DX2                !
 ! D28   D(5,6,8,20)           -61.5776         estimate D2E/DX2                !
 ! D29   D(7,6,8,18)           -59.6465         estimate D2E/DX2                !
 ! D30   D(7,6,8,19)           179.7566         estimate D2E/DX2                !
 ! D31   D(7,6,8,20)            60.652          estimate D2E/DX2                !
 ! D32   D(14,6,8,18)           59.455          estimate D2E/DX2                !
 ! D33   D(14,6,8,19)          -61.1418         estimate D2E/DX2                !
 ! D34   D(14,6,8,20)          179.7536         estimate D2E/DX2                !
 ! D35   D(2,9,10,11)           94.614          estimate D2E/DX2                !
 ! D36   D(2,9,10,21)         -144.3719         estimate D2E/DX2                !
 ! D37   D(2,9,10,22)          -26.0083         estimate D2E/DX2                !
 ! D38   D(9,10,11,23)         -61.8574         estimate D2E/DX2                !
 ! D39   D(9,10,11,24)         178.1792         estimate D2E/DX2                !
 ! D40   D(9,10,11,25)          57.3597         estimate D2E/DX2                !
 ! D41   D(21,10,11,23)        178.8697         estimate D2E/DX2                !
 ! D42   D(21,10,11,24)         58.9063         estimate D2E/DX2                !
 ! D43   D(21,10,11,25)        -61.9132         estimate D2E/DX2                !
 ! D44   D(22,10,11,23)         58.592          estimate D2E/DX2                !
 ! D45   D(22,10,11,24)        -61.3714         estimate D2E/DX2                !
 ! D46   D(22,10,11,25)        177.8091         estimate D2E/DX2                !
 --------------------------------------------------------------------------------
 Trust Radius=3.00D-01 FncErr=1.00D-07 GrdErr=1.00D-06 EigMax=2.50D+02 EigMin=1.00D-04
 Number of steps in this run=    121 maximum allowed number of steps=    150.
 GradGradGradGradGradGradGradGradGradGradGradGradGradGradGradGradGradGrad

                          Input orientation:                          
 ---------------------------------------------------------------------
 Center     Atomic      Atomic             Coordinates (Angstroms)
 Number     Number       Type             X           Y           Z
 ---------------------------------------------------------------------
      1          8           0        1.426490   -1.247420    0.582030
      2          6           0        1.307830   -0.069690    0.241870
      3          6           0        0.196950    0.681940   -0.102840
      4          7           0       -1.036960    0.161100   -0.114610
      5          6           0       -2.077340    0.831880   -0.433680
      6          6           0       -3.446550    0.207570   -0.383390
      7          6           0       -3.364010   -1.295210   -0.636030
      8          6           0       -4.098290    0.474850    0.981830
      9          8           0        2.490500    0.750630    0.178390
     10          6           0        3.690850    0.083990    0.441210
     11          6           0        4.376550   -0.393070   -0.840900
     12          1           0        0.364050    1.734430   -0.365630
     13          1           0       -2.047010    1.904530   -0.702960
     14          1           0       -4.079650    0.672790   -1.155230
     15          1           0       -3.028010   -1.486690   -1.652510
     16          1           0       -4.332720   -1.774900   -0.486700
     17          1           0       -2.632260   -1.721760    0.042890
     18          1           0       -5.106440    0.058310    1.027740
     19          1           0       -4.157100    1.545820    1.171830
     20          1           0       -3.493210    0.020790    1.762660
     21          1           0        4.341510    0.786810    0.980230
     22          1           0        3.479360   -0.786030    1.080070
     23          1           0        3.725370   -1.101140   -1.347070
     24          1           0        5.322660   -0.879240   -0.606140
     25          1           0        4.560030    0.449600   -1.505270
 ---------------------------------------------------------------------
                    Distance matrix (angstroms):
                    1          2          3          4          5
     1  O    0.000000
     2  C    1.231599   0.000000
     3  C    2.388147   1.384856   0.000000
     4  N    2.921955   2.382936   1.339383   0.000000
     5  C    4.199045   3.567712   2.303114   1.278336   0.000000
     6  C    5.176442   4.803327   3.684946   2.424980   1.505665
     7  C    4.943161   4.909042   4.107779   2.794258   2.494189
     8  C    5.800797   5.483630   4.434916   3.266858   2.493066
     9  O    2.299401   1.440716   2.311748   3.588366   4.609381
    10  C    2.630553   2.396276   3.586206   4.760995   5.881903
    11  C    3.384893   3.270169   4.378291   5.490054   6.581719
    12  H    3.304280   2.124765   1.097596   2.121605   2.603769
    13  H    4.863249   4.005646   2.624924   2.099025   1.106350
    14  H    6.084641   5.614989   4.404193   3.256176   2.134289
    15  H    4.989287   4.939238   4.183874   3.007429   2.786591
    16  H    5.881234   5.937538   5.167332   3.840388   3.447441
    17  H    4.121786   4.277059   3.715298   2.472843   2.656338
    18  H    6.677032   6.463500   5.458303   4.228025   3.451030
    19  H    6.271087   5.774094   4.618314   3.647965   2.722641
    20  H    5.215908   5.036961   4.187420   3.094672   2.736140
    21  H    3.576870   3.237589   4.285022   5.524321   6.572884
    22  H    2.162221   2.435419   3.785291   4.766703   5.982139
    23  H    3.004609   3.071338   4.144542   5.078582   6.184035
    24  H    4.089920   4.182505   5.381775   6.462869   7.597215
    25  H    4.129863   3.728132   4.588819   5.774380   6.734176
                    6          7          8          9         10
     6  C    0.000000
     7  C    1.526102   0.000000
     8  C    1.536239   2.507937   0.000000
     9  O    5.988245   6.254920   6.643322   0.000000
    10  C    7.185939   7.268679   7.817656   1.397971   0.000000
    11  C    7.859451   7.795646   8.711977   2.429853   1.530221
    12  H    4.105154   4.811472   4.828527   2.405329   3.800334
    13  H    2.222726   3.460824   3.015004   4.764164   6.127522
    14  H    1.101355   2.157483   2.146288   6.704586   7.954620
    15  H    2.157860   1.087562   3.454401   6.229908   7.210671
    16  H    2.173973   1.091238   2.696834   7.305955   8.288194
    17  H    2.137077   1.085512   2.802846   5.689793   6.587952
    18  H    2.183759   2.763369   1.091778   7.675559   8.816858
    19  H    2.171291   3.459595   1.089282   6.768296   8.016300
    20  H    2.154668   2.739026   1.087193   6.232765   7.304857
    21  H    7.927727   8.143841   8.445564   2.017547   1.099025
    22  H    7.148230   7.073611   7.682464   2.037694   1.099911
    23  H    7.353763   7.127591   8.313674   2.698330   2.145616
    24  H    8.839107   8.696675   9.649327   3.360520   2.165077
    25  H    8.088419   8.160291   9.008485   2.684825   2.162852
                   11         12         13         14         15
    11  C    0.000000
    12  H    4.566431   0.000000
    13  H    6.823497   2.440479   0.000000
    14  H    8.528903   4.636488   2.419371   0.000000
    15  H    7.528760   4.851571   3.655732   2.452873   0.000000
    16  H    8.825321   5.864273   4.336986   2.549934   1.773259
    17  H    7.188179   4.592386   3.748171   3.043731   1.756775
    18  H    9.675880   5.888728   3.970386   2.489426   3.727014
    19  H    8.979619   4.779137   2.845345   2.486642   4.295097
    20  H    8.299574   4.727011   3.423339   3.046818   3.761953
    21  H    2.170221   4.304592   6.700419   8.688448   8.149230
    22  H    2.156268   4.260038   6.399928   8.016443   7.092516
    23  H    1.087017   4.505791   6.539824   8.006370   6.771269
    24  H    1.089311   5.610430   7.878501   9.545351   8.437866
    25  H    1.088644   4.533852   6.812745   8.649648   7.832576
                   16         17         18         19         20
    16  H    0.000000
    17  H    1.781812   0.000000
    18  H    2.500566   3.203146   0.000000
    19  H    3.716012   3.778455   1.770507   0.000000
    20  H    2.998149   2.595250   1.773140   1.765091   0.000000
    21  H    9.162778   7.470274   9.476114   8.534587   7.910867
    22  H    8.028775   6.269229   8.627376   7.985078   7.052207
    23  H    8.131851   6.537325   9.218726   8.688187   7.939587
    24  H    9.697569   8.025698  10.597863   9.945247   9.172831
    25  H    9.223171   7.670765  10.000494   9.184602   8.701604
                   21         22         23         24         25
    21  H    0.000000
    22  H    1.796412   0.000000
    23  H    3.059462   2.459842   0.000000
    24  H    2.500989   2.499949   1.774698   0.000000
    25  H    2.517771   3.062452   1.768185   1.776473   0.000000
 Stoichiometry    C8H14NO2(1-)
 Framework group  C1[X(C8H14NO2)]
 Deg. of freedom    69
 Full point group                 C1      NOp   1
 Largest Abelian subgroup         C1      NOp   1
 Largest concise Abelian subgroup C1      NOp   1
                         Standard orientation:                         
 ---------------------------------------------------------------------
 Center     Atomic      Atomic             Coordinates (Angstroms)
 Number     Number       Type             X           Y           Z
 ---------------------------------------------------------------------
      1          8           0       -1.480511    1.047567    0.873324
      2          6           0       -1.346892   -0.017895    0.270187
      3          6           0       -0.228079   -0.649802   -0.246318
      4          7           0        0.997170   -0.118041   -0.146615
      5          6           0        2.044494   -0.678459   -0.619042
      6          6           0        3.404059   -0.057866   -0.436083
      7          6           0        3.294788    1.460971   -0.335173
      8          6           0        4.075106   -0.620411    0.826165
      9          8           0       -2.516977   -0.822796    0.027909
     10          6           0       -3.724799   -0.256348    0.445790
     11          6           0       -4.432218    0.490564   -0.687020
     12          1           0       -0.381302   -1.616379   -0.743277
     13          1           0        2.028264   -1.660687   -1.127938
     14          1           0        4.035873   -0.321412   -1.298832
     15          1           0        2.944505    1.875190   -1.277784
     16          1           0        4.257333    1.910821   -0.086290
     17          1           0        2.563926    1.706499    0.428955
     18          1           0        5.076940   -0.207486    0.959584
     19          1           0        4.153076   -1.705115    0.763937
     20          1           0        3.471584   -0.369287    1.694892
     21          1           0       -4.358151   -1.076004    0.813059
     22          1           0       -3.520109    0.446924    1.266348
     23          1           0       -3.798065    1.307777   -1.021118
     24          1           0       -5.383285    0.892470   -0.339831
     25          1           0       -4.609622   -0.179719   -1.526302
 ---------------------------------------------------------------------
 Rotational constants (GHZ):           3.3708184           0.3732189           0.3620065
 Standard basis: def2SVP (5D, 7F)
 There are   235 symmetry adapted cartesian basis functions of A   symmetry.
 There are   224 symmetry adapted basis functions of A   symmetry.
   224 basis functions,   373 primitive gaussians,   235 cartesian basis functions
    43 alpha electrons       43 beta electrons
       nuclear repulsion energy       598.1507640628 Hartrees.
 NAtoms=   25 NActive=   25 NUniq=   25 SFac= 1.00D+00 NAtFMM=   60 NAOKFM=F Big=F
 Integral buffers will be    131072 words long.
 Raffenetti 2 integral format.
 Two-electron integral symmetry is turned on.
 Nuclear repulsion after empirical dispersion term =      598.1499564566 Hartrees.
 One-electron integrals computed using PRISM.
   1 Symmetry operations used in ECPInt.
 ECPInt:  NShTT=    5886 NPrTT=   20688 LenC2=    5346 LenP2D=   14039.
 LDataN:  DoStor=T MaxTD1= 4 Len=   56
 NBasis=   224 RedAO= T EigKep=  1.18D-03  NBF=   224
 NBsUse=   224 1.00D-06 EigRej= -1.00D+00 NBFU=   224
 ExpMin= 1.22D-01 ExpMax= 2.27D+03 ExpMxC= 3.41D+02 IAcc=3 IRadAn=         5 AccDes= 0.00D+00
 Harris functional with IExCor= 1009 and IRadAn=       5 diagonalized for initial guess.
 HarFok:  IExCor= 1009 AccDes= 0.00D+00 IRadAn=         5 IDoV= 1 UseB2=F ITyADJ=14
 ICtDFT=  3500011 ScaDFX=  1.000000  1.000000  1.000000  1.000000
 FoFCou: FMM=F IPFlag=           0 FMFlag=      100000 FMFlg1=           0
         NFxFlg=           0 DoJE=T BraDBF=F KetDBF=T FulRan=T
         wScrn=  0.000000 ICntrl=       500 IOpCl=  0 I1Cent=   200000004 NGrid=           0
         NMat0=    1 NMatS0=      1 NMatT0=    0 NMatD0=    1 NMtDS0=    0 NMtDT0=    0
 Petite list used in FoFCou.
 Requested convergence on RMS density matrix=1.00D-08 within 128 cycles.
 Requested convergence on MAX density matrix=1.00D-06.
 Requested convergence on             energy=1.00D-06.
 No special actions if energy rises.
 Integral accuracy reduced to 1.0D-05 until final iterations.
 Initial convergence to 1.0D-05 achieved.  Increase integral accuracy.
 SCF Done:  E(RM062X) =  -517.865952070     A.U. after   15 cycles
            NFock= 15  Conv=0.50D-08     -V/T= 2.0096

 **********************************************************************

            Population analysis using the SCF Density.

 **********************************************************************

 Orbital symmetries:
       Occupied  (A) (A) (A) (A) (A) (A) (A) (A) (A) (A) (A) (A)
                 (A) (A) (A) (A) (A) (A) (A) (A) (A) (A) (A) (A)
                 (A) (A) (A) (A) (A) (A) (A) (A) (A) (A) (A) (A)
                 (A) (A) (A) (A) (A) (A) (A)
       Virtual   (A) (A) (A) (A) (A) (A) (A) (A) (A) (A) (A) (A)
                 (A) (A) (A) (A) (A) (A) (A) (A) (A) (A) (A) (A)
                 (A) (A) (A) (A) (A) (A) (A) (A) (A) (A) (A) (A)
                 (A) (A) (A) (A) (A) (A) (A) (A) (A) (A) (A) (A)
                 (A) (A) (A) (A) (A) (A) (A) (A) (A) (A) (A) (A)
                 (A) (A) (A) (A) (A) (A) (A) (A) (A) (A) (A) (A)
                 (A) (A) (A) (A) (A) (A) (A) (A) (A) (A) (A) (A)
                 (A) (A) (A) (A) (A) (A) (A) (A) (A) (A) (A) (A)
                 (A) (A) (A) (A) (A) (A) (A) (A) (A) (A) (A) (A)
                 (A) (A) (A) (A) (A) (A) (A) (A) (A) (A) (A) (A)
                 (A) (A) (A) (A) (A) (A) (A) (A) (A) (A) (A) (A)
                 (A) (A) (A) (A) (A) (A) (A) (A) (A) (A) (A) (A)
                 (A) (A) (A) (A) (A) (A) (A) (A) (A) (A) (A) (A)
                 (A) (A) (A) (A) (A) (A) (A) (A) (A) (A) (A) (A)
                 (A) (A) (A) (A) (A) (A) (A) (A) (A) (A) (A) (A)
                 (A)
 The electronic state is 1-A.
 Alpha  occ. eigenvalues --  -19.47053 -19.40220 -14.57736 -10.46555 -10.45014
 Alpha  occ. eigenvalues --  -10.41508 -10.41499 -10.41290 -10.40180 -10.39142
 Alpha  occ. eigenvalues --  -10.35052  -0.99888  -0.90583  -0.84207  -0.74644
 Alpha  occ. eigenvalues --   -0.70500  -0.63677  -0.62894  -0.57421  -0.53255
 Alpha  occ. eigenvalues --   -0.47110  -0.43236  -0.42078  -0.39483  -0.37953
 Alpha  occ. eigenvalues --   -0.37295  -0.35952  -0.34466  -0.33733  -0.33365
 Alpha  occ. eigenvalues --   -0.31743  -0.31279  -0.29294  -0.28647  -0.26872
 Alpha  occ. eigenvalues --   -0.25796  -0.25327  -0.23218  -0.22468  -0.17843
 Alpha  occ. eigenvalues --   -0.15041  -0.13396  -0.03683
 Alpha virt. eigenvalues --    0.20711   0.22356   0.23188   0.26167   0.27119
 Alpha virt. eigenvalues --    0.27595   0.28370   0.28651   0.29728   0.30361
 Alpha virt. eigenvalues --    0.30679   0.32110   0.32938   0.34189   0.34500
 Alpha virt. eigenvalues --    0.35169   0.36537   0.37352   0.39903   0.40868
 Alpha virt. eigenvalues --    0.44643   0.46085   0.47898   0.51717   0.56492
 Alpha virt. eigenvalues --    0.58578   0.59461   0.60079   0.60678   0.62238
 Alpha virt. eigenvalues --    0.63751   0.64417   0.66456   0.68136   0.69142
 Alpha virt. eigenvalues --    0.71665   0.73457   0.75321   0.77357   0.78478
 Alpha virt. eigenvalues --    0.79563   0.80903   0.81302   0.82722   0.83250
 Alpha virt. eigenvalues --    0.83751   0.83885   0.84563   0.85397   0.86233
 Alpha virt. eigenvalues --    0.86674   0.87073   0.87422   0.87612   0.87729
 Alpha virt. eigenvalues --    0.88097   0.88987   0.89801   0.90206   0.91224
 Alpha virt. eigenvalues --    0.92428   0.93757   0.94966   0.99158   1.01565
 Alpha virt. eigenvalues --    1.04800   1.05350   1.08593   1.10070   1.11819
 Alpha virt. eigenvalues --    1.17316   1.18996   1.24641   1.25280   1.27773
 Alpha virt. eigenvalues --    1.31335   1.31903   1.35747   1.37378   1.41380
 Alpha virt. eigenvalues --    1.41601   1.43703   1.45534   1.47462   1.49743
 Alpha virt. eigenvalues --    1.53771   1.57046   1.58421   1.62403   1.65366
 Alpha virt. eigenvalues --    1.67314   1.70668   1.71203   1.72219   1.74638
 Alpha virt. eigenvalues --    1.75244   1.77821   1.79468   1.81351   1.87525
 Alpha virt. eigenvalues --    1.89642   1.90902   1.91903   1.94207   1.94832
 Alpha virt. eigenvalues --    1.95744   1.95953   1.97670   1.98558   1.98689
 Alpha virt. eigenvalues --    2.00311   2.01240   2.01642   2.02342   2.03248
 Alpha virt. eigenvalues --    2.05211   2.05609   2.06131   2.06652   2.08359
 Alpha virt. eigenvalues --    2.08885   2.13028   2.13730   2.14724   2.15389
 Alpha virt. eigenvalues --    2.17761   2.20014   2.21225   2.23418   2.28200
 Alpha virt. eigenvalues --    2.30105   2.31460   2.33685   2.37087   2.40046
 Alpha virt. eigenvalues --    2.41813   2.42745   2.46883   2.47323   2.52814
 Alpha virt. eigenvalues --    2.54080   2.55129   2.57943   2.60724   2.66219
 Alpha virt. eigenvalues --    2.66814   2.69672   2.70649   2.75704   2.77673
 Alpha virt. eigenvalues --    2.80644   2.84191   2.85408   2.87194   2.90354
 Alpha virt. eigenvalues --    2.93583   2.95099   2.96749   2.97214   3.00012
 Alpha virt. eigenvalues --    3.02256   3.02979   3.05093   3.06506   3.07845
 Alpha virt. eigenvalues --    3.08693   3.10315   3.13398   3.16293   3.17797
 Alpha virt. eigenvalues --    3.20134   3.22667   3.25308   3.29637   3.38057
 Alpha virt. eigenvalues --    3.44242   3.56512   3.58864   3.68004   3.82962
 Alpha virt. eigenvalues --    3.95502
          Condensed to atoms (all electrons):
               1          2          3          4          5          6
     1  O    7.866122   0.683818  -0.107501   0.000927   0.000334   0.000019
     2  C    0.683818   4.615890   0.307933  -0.065143   0.014002  -0.000042
     3  C   -0.107501   0.307933   5.394201   0.441615  -0.116910   0.016179
     4  N    0.000927  -0.065143   0.441615   6.265653   0.625713  -0.124459
     5  C    0.000334   0.014002  -0.116910   0.625713   5.085498   0.264917
     6  C    0.000019  -0.000042   0.016179  -0.124459   0.264917   5.088947
     7  C   -0.000078  -0.000128   0.000291  -0.004037  -0.047308   0.395256
     8  C   -0.000001   0.000068   0.000674  -0.008062  -0.085443   0.404203
     9  O   -0.091783   0.274807  -0.113797   0.002015  -0.000106   0.000000
    10  C   -0.011241  -0.037877   0.007205  -0.000189   0.000013  -0.000000
    11  C   -0.008618  -0.004965  -0.000167   0.000010  -0.000002   0.000000
    12  H    0.004089  -0.060954   0.373000  -0.047827  -0.016527  -0.001734
    13  H   -0.000018  -0.001598  -0.016441  -0.038950   0.403737  -0.126489
    14  H   -0.000000   0.000003  -0.000248   0.005647  -0.023019   0.344786
    15  H    0.000009  -0.000040  -0.000556   0.001703   0.002724  -0.023783
    16  H    0.000000  -0.000007   0.000010   0.001169   0.009660  -0.034330
    17  H    0.000425  -0.000165  -0.000969   0.030248  -0.018003  -0.024986
    18  H    0.000000  -0.000001  -0.000013   0.000010   0.010822  -0.019222
    19  H    0.000000  -0.000008  -0.000237  -0.000041   0.000861  -0.021207
    20  H    0.000000  -0.000098  -0.000575   0.006344   0.001379  -0.031943
    21  H    0.000615   0.006476   0.000074   0.000005  -0.000001   0.000000
    22  H    0.044411  -0.014722   0.004418  -0.000012   0.000002  -0.000000
    23  H    0.007955   0.004188  -0.000738  -0.000000   0.000002  -0.000000
    24  H   -0.000052  -0.000014  -0.000004  -0.000000   0.000000  -0.000000
    25  H    0.000233  -0.000518  -0.000203   0.000000   0.000000  -0.000000
               7          8          9         10         11         12
     1  O   -0.000078  -0.000001  -0.091783  -0.011241  -0.008618   0.004089
     2  C   -0.000128   0.000068   0.274807  -0.037877  -0.004965  -0.060954
     3  C    0.000291   0.000674  -0.113797   0.007205  -0.000167   0.373000
     4  N   -0.004037  -0.008062   0.002015  -0.000189   0.000010  -0.047827
     5  C   -0.047308  -0.085443  -0.000106   0.000013  -0.000002  -0.016527
     6  C    0.395256   0.404203   0.000000  -0.000000   0.000000  -0.001734
     7  C    4.592503  -0.064536  -0.000000   0.000000  -0.000000   0.000046
     8  C   -0.064536   4.712044  -0.000000   0.000000  -0.000000  -0.000097
     9  O   -0.000000  -0.000000   8.188338   0.294494  -0.057388   0.011381
    10  C    0.000000   0.000000   0.294494   4.478754   0.400689  -0.000088
    11  C   -0.000000  -0.000000  -0.057388   0.400689   4.751142   0.000013
    12  H    0.000046  -0.000097   0.011381  -0.000088   0.000013   0.787859
    13  H    0.010701   0.000209  -0.000006   0.000003  -0.000000   0.018360
    14  H   -0.028125  -0.049344  -0.000000  -0.000000   0.000000   0.000069
    15  H    0.383256   0.010301   0.000000   0.000000  -0.000000   0.000021
    16  H    0.373458  -0.003191   0.000000   0.000000  -0.000000   0.000007
    17  H    0.393962  -0.008338   0.000003  -0.000000   0.000000   0.000288
    18  H   -0.006525   0.350740   0.000000  -0.000000   0.000000  -0.000001
    19  H    0.010008   0.368169   0.000000  -0.000000   0.000000   0.000039
    20  H   -0.004609   0.382121   0.000000  -0.000000   0.000000   0.000083
    21  H    0.000000   0.000000  -0.033709   0.381363  -0.055186  -0.000204
    22  H    0.000000  -0.000000  -0.037063   0.371762  -0.035711  -0.000100
    23  H    0.000000   0.000000  -0.004226  -0.004842   0.371741  -0.000110
    24  H   -0.000000   0.000000   0.005334  -0.012465   0.343430   0.000001
    25  H    0.000000   0.000000   0.004036  -0.018178   0.370139   0.000108
              13         14         15         16         17         18
     1  O   -0.000018  -0.000000   0.000009   0.000000   0.000425   0.000000
     2  C   -0.001598   0.000003  -0.000040  -0.000007  -0.000165  -0.000001
     3  C   -0.016441  -0.000248  -0.000556   0.000010  -0.000969  -0.000013
     4  N   -0.038950   0.005647   0.001703   0.001169   0.030248   0.000010
     5  C    0.403737  -0.023019   0.002724   0.009660  -0.018003   0.010822
     6  C   -0.126489   0.344786  -0.023783  -0.034330  -0.024986  -0.019222
     7  C    0.010701  -0.028125   0.383256   0.373458   0.393962  -0.006525
     8  C    0.000209  -0.049344   0.010301  -0.003191  -0.008338   0.350740
     9  O   -0.000006  -0.000000   0.000000   0.000000   0.000003   0.000000
    10  C    0.000003  -0.000000   0.000000   0.000000  -0.000000  -0.000000
    11  C   -0.000000   0.000000  -0.000000  -0.000000   0.000000   0.000000
    12  H    0.018360   0.000069   0.000021   0.000007   0.000288  -0.000001
    13  H    0.806654  -0.003581   0.000743  -0.000367   0.001695  -0.000552
    14  H   -0.003581   0.781430  -0.010659  -0.005933   0.009349  -0.005388
    15  H    0.000743  -0.010659   0.670106  -0.028455  -0.017577  -0.000312
    16  H   -0.000367  -0.005933  -0.028455   0.732793  -0.026810   0.003478
    17  H    0.001695   0.009349  -0.017577  -0.026810   0.598234  -0.000942
    18  H   -0.000552  -0.005388  -0.000312   0.003478  -0.000942   0.728560
    19  H    0.005337  -0.006073  -0.000559  -0.000046   0.000198  -0.026766
    20  H    0.000747   0.011013  -0.000143  -0.001645   0.008004  -0.024652
    21  H    0.000000  -0.000000   0.000000   0.000000  -0.000000  -0.000000
    22  H   -0.000001   0.000000  -0.000000  -0.000000  -0.000001   0.000000
    23  H    0.000000  -0.000000   0.000000   0.000000  -0.000000  -0.000000
    24  H    0.000000  -0.000000   0.000000   0.000000  -0.000000  -0.000000
    25  H   -0.000000  -0.000000   0.000000   0.000000  -0.000000  -0.000000
              19         20         21         22         23         24
     1  O    0.000000   0.000000   0.000615   0.044411   0.007955  -0.000052
     2  C   -0.000008  -0.000098   0.006476  -0.014722   0.004188  -0.000014
     3  C   -0.000237  -0.000575   0.000074   0.004418  -0.000738  -0.000004
     4  N   -0.000041   0.006344   0.000005  -0.000012  -0.000000  -0.000000
     5  C    0.000861   0.001379  -0.000001   0.000002   0.000002   0.000000
     6  C   -0.021207  -0.031943   0.000000  -0.000000  -0.000000  -0.000000
     7  C    0.010008  -0.004609   0.000000   0.000000   0.000000  -0.000000
     8  C    0.368169   0.382121   0.000000  -0.000000   0.000000   0.000000
     9  O    0.000000   0.000000  -0.033709  -0.037063  -0.004226   0.005334
    10  C   -0.000000  -0.000000   0.381363   0.371762  -0.004842  -0.012465
    11  C    0.000000   0.000000  -0.055186  -0.035711   0.371741   0.343430
    12  H    0.000039   0.000083  -0.000204  -0.000100  -0.000110   0.000001
    13  H    0.005337   0.000747   0.000000  -0.000001   0.000000   0.000000
    14  H   -0.006073   0.011013  -0.000000   0.000000  -0.000000  -0.000000
    15  H   -0.000559  -0.000143   0.000000  -0.000000   0.000000   0.000000
    16  H   -0.000046  -0.001645   0.000000  -0.000000   0.000000   0.000000
    17  H    0.000198   0.008004  -0.000000  -0.000001  -0.000000  -0.000000
    18  H   -0.026766  -0.024652  -0.000000   0.000000  -0.000000  -0.000000
    19  H    0.689629  -0.021242  -0.000000   0.000000  -0.000000  -0.000000
    20  H   -0.021242   0.645389  -0.000000   0.000000  -0.000000  -0.000000
    21  H   -0.000000  -0.000000   0.750827  -0.034493   0.009312   0.000156
    22  H    0.000000   0.000000  -0.034493   0.676151  -0.010865  -0.000226
    23  H   -0.000000  -0.000000   0.009312  -0.010865   0.632236  -0.019973
    24  H   -0.000000  -0.000000   0.000156  -0.000226  -0.019973   0.711205
    25  H   -0.000000  -0.000000  -0.010824   0.009297  -0.025729  -0.023190
              25
     1  O    0.000233
     2  C   -0.000518
     3  C   -0.000203
     4  N    0.000000
     5  C    0.000000
     6  C   -0.000000
     7  C    0.000000
     8  C    0.000000
     9  O    0.004036
    10  C   -0.018178
    11  C    0.370139
    12  H    0.000108
    13  H   -0.000000
    14  H   -0.000000
    15  H    0.000000
    16  H    0.000000
    17  H   -0.000000
    18  H   -0.000000
    19  H   -0.000000
    20  H   -0.000000
    21  H   -0.010824
    22  H    0.009297
    23  H   -0.025729
    24  H   -0.023190
    25  H    0.678811
 Mulliken charges:
               1
     1  O   -0.389664
     2  C    0.279093
     3  C   -0.187242
     4  N   -0.092339
     5  C   -0.112345
     6  C   -0.106113
     7  C   -0.004136
     8  C   -0.009516
     9  O   -0.442331
    10  C    0.150598
    11  C   -0.075125
    12  H   -0.067723
    13  H   -0.060185
    14  H   -0.019928
    15  H    0.013222
    16  H   -0.019791
    17  H    0.055384
    18  H   -0.009235
    19  H    0.001939
    20  H    0.029828
    21  H   -0.014412
    22  H    0.027155
    23  H    0.041049
    24  H   -0.004201
    25  H    0.016016
 Sum of Mulliken charges =  -1.00000
 Mulliken charges with hydrogens summed into heavy atoms:
               1
     1  O   -0.389664
     2  C    0.279093
     3  C   -0.254965
     4  N   -0.092339
     5  C   -0.172530
     6  C   -0.126041
     7  C    0.044680
     8  C    0.013016
     9  O   -0.442331
    10  C    0.163341
    11  C   -0.022261
 Electronic spatial extent (au):  <R**2>=           3202.7382
 Charge=             -1.0000 electrons
 Dipole moment (field-independent basis, Debye):
    X=              0.7957    Y=             -0.7911    Z=             -0.8716  Tot=              1.4208
 Quadrupole moment (field-independent basis, Debye-Ang):
   XX=            -93.2141   YY=            -77.7446   ZZ=            -74.5002
   XY=              0.3192   XZ=              0.6768   YZ=             -2.0532
 Traceless Quadrupole moment (field-independent basis, Debye-Ang):
   XX=            -11.3945   YY=              4.0750   ZZ=              7.3194
   XY=              0.3192   XZ=              0.6768   YZ=             -2.0532
 Octapole moment (field-independent basis, Debye-Ang**2):
  XXX=            -37.4710  YYY=             -0.6663  ZZZ=              4.5334  XYY=             -3.2774
  XXY=             -0.5095  XXZ=              3.1554  XZZ=             -5.9814  YZZ=             -0.3521
  YYZ=             -1.8156  XYZ=              4.6534
 Hexadecapole moment (field-independent basis, Debye-Ang**3):
 XXXX=          -4216.7549 YYYY=           -378.7704 ZZZZ=           -250.2470 XXXY=             11.9194
 XXXZ=            -56.0080 YYYX=             -3.3747 YYYZ=              0.5491 ZZZX=             -5.5553
 ZZZY=              0.4631 XXYY=           -745.6285 XXZZ=           -715.3214 YYZZ=           -104.7278
 XXYZ=              9.7492 YYXZ=              1.7928 ZZXY=              9.3395
 N-N= 5.981499564566D+02 E-N=-2.415952318633D+03  KE= 5.129651456562D+02
   1 Symmetry operations used in ECPInt.
 ECPInt:  NShTT=    5886 NPrTT=   20688 LenC2=    5346 LenP2D=   14039.
 LDataN:  DoStor=T MaxTD1= 5 Len=  102
 Calling FoFJK, ICntrl=      2127 FMM=F ISym2X=0 I1Cent= 0 IOpClX= 0 NMat=1 NMatS=1 NMatT=0.
 ***** Axes restored to original set *****
 -------------------------------------------------------------------
 Center     Atomic                   Forces (Hartrees/Bohr)
 Number     Number              X              Y              Z
 -------------------------------------------------------------------
      1        8           0.000364414    0.009606267   -0.004110277
      2        6           0.022417215   -0.014156807    0.007778351
      3        6          -0.000220600    0.016141302   -0.003657684
      4        7          -0.005301953   -0.004630023   -0.001020818
      5        6          -0.006068433    0.000564544   -0.002875811
      6        6          -0.000128898   -0.004687044    0.006079199
      7        6          -0.004533952    0.007946410    0.000113104
      8        6          -0.000476475   -0.000073690   -0.010325115
      9        8          -0.006858347   -0.007790157   -0.000540406
     10        6          -0.003548350   -0.002521239   -0.002789055
     11        6          -0.006221281    0.005262692    0.010469425
     12        1           0.000163875    0.001864728   -0.000441005
     13        1           0.003569831    0.002761692   -0.000001287
     14        1          -0.001866245    0.001240765   -0.002221009
     15        1           0.003473874   -0.002642465   -0.007116191
     16        1          -0.006718650   -0.003822214    0.000796700
     17        1           0.005966949   -0.004040508    0.004596487
     18        1          -0.007928873   -0.002625814    0.001557179
     19        1          -0.000420235    0.007513444    0.002683044
     20        1           0.005245720   -0.003436123    0.006427066
     21        1           0.002651521    0.001609827    0.001648949
     22        1           0.002116382   -0.000011806    0.001261031
     23        1          -0.004587535   -0.005782000   -0.003521046
     24        1           0.007323406   -0.003897914    0.000418971
     25        1           0.001586640    0.005606131   -0.005209803
 -------------------------------------------------------------------
 Cartesian Forces:  Max     0.022417215 RMS     0.005741262

 GradGradGradGradGradGradGradGradGradGradGradGradGradGradGradGradGradGrad
 Berny optimization.
 FormGI is forming the generalized inverse of G from B-inverse, IUseBI=4.
 Internal  Forces:  Max     0.020127376 RMS     0.004107907
 Search for a local minimum.
 Step number   1 out of a maximum of  121
 All quantities printed in internal units (Hartrees-Bohrs-Radians)
 Mixed Optimization -- RFO/linear search
 Second derivative matrix not updated -- first step.
 ITU=  0
     Eigenvalues ---    0.00287   0.00366   0.00421   0.00691   0.01153
     Eigenvalues ---    0.01426   0.01719   0.01988   0.02289   0.02360
     Eigenvalues ---    0.02494   0.03301   0.04169   0.04806   0.04995
     Eigenvalues ---    0.05493   0.05588   0.05651   0.05678   0.05698
     Eigenvalues ---    0.05815   0.05819   0.05882   0.11715   0.13950
     Eigenvalues ---    0.15987   0.16000   0.16000   0.16000   0.16000
     Eigenvalues ---    0.16000   0.16000   0.16000   0.16000   0.16000
     Eigenvalues ---    0.16000   0.16405   0.17863   0.22000   0.22004
     Eigenvalues ---    0.22118   0.24999   0.25000   0.25000   0.25000
     Eigenvalues ---    0.28855   0.29403   0.29786   0.31790   0.32990
     Eigenvalues ---    0.33533   0.33692   0.33790   0.33949   0.34608
     Eigenvalues ---    0.34670   0.34892   0.34896   0.34970   0.35096
     Eigenvalues ---    0.35139   0.35160   0.35337   0.39487   0.45958
     Eigenvalues ---    0.48225   0.57343   0.73588   0.90423
 RFO step:  Lambda=-5.67074188D-03 EMin= 2.86579296D-03
 Linear search not attempted -- first point.
 Iteration  1 RMS(Cart)=  0.05738875 RMS(Int)=  0.00124030
 Iteration  2 RMS(Cart)=  0.00210273 RMS(Int)=  0.00008399
 Iteration  3 RMS(Cart)=  0.00000376 RMS(Int)=  0.00008397
 Iteration  4 RMS(Cart)=  0.00000000 RMS(Int)=  0.00008397
 Variable       Old X    -DE/DX   Delta X   Delta X   Delta X     New X
                                 (Linear)    (Quad)   (Total)
    R1        2.32739  -0.01029   0.00000  -0.01130  -0.01130   2.31608
    R2        2.61700   0.02013   0.00000   0.04125   0.04125   2.65825
    R3        2.72256  -0.01055   0.00000  -0.02634  -0.02634   2.69622
    R4        2.53107   0.01631   0.00000   0.02816   0.02816   2.55923
    R5        2.07416   0.00192   0.00000   0.00556   0.00556   2.07971
    R6        2.41570   0.00743   0.00000   0.01003   0.01003   2.42573
    R7        2.84530   0.00872   0.00000   0.02696   0.02696   2.87225
    R8        2.09070   0.00278   0.00000   0.00827   0.00827   2.09897
    R9        2.88391   0.00269   0.00000   0.00885   0.00885   2.89277
   R10        2.90307   0.00206   0.00000   0.00701   0.00701   2.91008
   R11        2.08126   0.00315   0.00000   0.00925   0.00925   2.09051
   R12        2.05520   0.00819   0.00000   0.02297   0.02297   2.07816
   R13        2.06214   0.00775   0.00000   0.02200   0.02200   2.08414
   R14        2.05132   0.00848   0.00000   0.02363   0.02363   2.07495
   R15        2.06316   0.00839   0.00000   0.02385   0.02385   2.08701
   R16        2.05844   0.00788   0.00000   0.02221   0.02221   2.08066
   R17        2.05450   0.00897   0.00000   0.02513   0.02513   2.07962
   R18        2.64178  -0.00028   0.00000  -0.00061  -0.00061   2.64118
   R19        2.89170  -0.00303   0.00000  -0.01010  -0.01010   2.88159
   R20        2.07686   0.00341   0.00000   0.00992   0.00992   2.08678
   R21        2.07853   0.00034   0.00000   0.00098   0.00098   2.07951
   R22        2.05416   0.00815   0.00000   0.02282   0.02282   2.07699
   R23        2.05850   0.00819   0.00000   0.02310   0.02310   2.08160
   R24        2.05724   0.00779   0.00000   0.02191   0.02191   2.07915
    A1        2.29835   0.00080   0.00000   0.00328   0.00300   2.30135
    A2        2.06867  -0.00197   0.00000  -0.00756  -0.00784   2.06083
    A3        1.91611   0.00117   0.00000   0.00473   0.00445   1.92055
    A4        2.12954  -0.00279   0.00000  -0.01235  -0.01235   2.11720
    A5        2.04645   0.00152   0.00000   0.00697   0.00697   2.05341
    A6        2.10718   0.00126   0.00000   0.00539   0.00539   2.11257
    A7        2.15066   0.00598   0.00000   0.02340   0.02340   2.17406
    A8        2.11086   0.00422   0.00000   0.01851   0.01847   2.12933
    A9        2.14979  -0.00578   0.00000  -0.03186  -0.03189   2.11791
   A10        2.02091   0.00155   0.00000   0.01250   0.01246   2.03338
   A11        1.93220   0.00147   0.00000   0.01916   0.01892   1.95113
   A12        1.92126   0.00074   0.00000   0.01405   0.01375   1.93502
   A13        1.90095  -0.00105   0.00000  -0.01551  -0.01535   1.88559
   A14        1.91919  -0.00039   0.00000   0.00654   0.00616   1.92535
   A15        1.90819  -0.00045   0.00000  -0.01168  -0.01159   1.89660
   A16        1.88119  -0.00040   0.00000  -0.01389  -0.01383   1.86736
   A17        1.92283   0.00143   0.00000   0.00828   0.00826   1.93109
   A18        1.94142   0.00041   0.00000   0.00412   0.00409   1.94552
   A19        1.89638   0.00078   0.00000   0.00348   0.00348   1.89986
   A20        1.90156  -0.00067   0.00000  -0.00166  -0.00170   1.89986
   A21        1.88295  -0.00150   0.00000  -0.01246  -0.01246   1.87050
   A22        1.91781  -0.00051   0.00000  -0.00228  -0.00229   1.91552
   A23        1.94200   0.00186   0.00000   0.01336   0.01332   1.95532
   A24        1.92727   0.00140   0.00000   0.00836   0.00831   1.93558
   A25        1.90655  -0.00081   0.00000  -0.00688  -0.00686   1.89969
   A26        1.89433  -0.00125   0.00000  -0.00376  -0.00387   1.89046
   A27        1.90115  -0.00048   0.00000  -0.00263  -0.00261   1.89855
   A28        1.89167  -0.00081   0.00000  -0.00912  -0.00910   1.88257
   A29        2.00981   0.00255   0.00000   0.00996   0.00996   2.01977
   A30        1.95617  -0.00385   0.00000  -0.01542  -0.01541   1.94076
   A31        1.87088   0.00121   0.00000   0.00382   0.00377   1.87464
   A32        1.89789   0.00275   0.00000   0.02204   0.02205   1.91994
   A33        1.92304   0.00086   0.00000  -0.00035  -0.00036   1.92268
   A34        1.90309   0.00007   0.00000  -0.00091  -0.00085   1.90224
   A35        1.91219  -0.00098   0.00000  -0.00892  -0.00897   1.90322
   A36        1.90158  -0.00044   0.00000  -0.00367  -0.00366   1.89793
   A37        1.92599   0.00183   0.00000   0.01124   0.01122   1.93721
   A38        1.92360   0.00074   0.00000   0.00531   0.00529   1.92889
   A39        1.90703  -0.00090   0.00000  -0.00710  -0.00709   1.89994
   A40        1.89758  -0.00018   0.00000  -0.00138  -0.00137   1.89621
   A41        1.90774  -0.00109   0.00000  -0.00468  -0.00473   1.90301
    D1       -0.00304   0.00053   0.00000   0.02113   0.02117   0.01813
    D2        3.13421   0.00061   0.00000   0.02384   0.02388  -3.12510
    D3       -3.13231  -0.00064   0.00000  -0.02492  -0.02496   3.12592
    D4        0.00494  -0.00056   0.00000  -0.02221  -0.02225  -0.01731
    D5        0.06430  -0.00162   0.00000  -0.08425  -0.08415  -0.01985
    D6       -3.08777  -0.00060   0.00000  -0.04504  -0.04514  -3.13291
    D7       -3.13684   0.00020   0.00000   0.00675   0.00675  -3.13008
    D8        0.00924   0.00012   0.00000   0.00396   0.00396   0.01320
    D9       -3.10424   0.00110   0.00000   0.03508   0.03493  -3.06930
   D10       -0.02647   0.00099   0.00000   0.01886   0.01900  -0.00746
   D11       -0.50734  -0.00031   0.00000   0.00232   0.00214  -0.50519
   D12        1.61826   0.00068   0.00000   0.03271   0.03277   1.65103
   D13       -2.60593   0.00001   0.00000   0.01479   0.01475  -2.59118
   D14        2.69358   0.00007   0.00000   0.01899   0.01892   2.71250
   D15       -1.46401   0.00105   0.00000   0.04939   0.04955  -1.41447
   D16        0.59498   0.00038   0.00000   0.03147   0.03153   0.62651
   D17       -1.14698   0.00122   0.00000   0.03576   0.03582  -1.11116
   D18        3.02565   0.00083   0.00000   0.02956   0.02961   3.05526
   D19        0.91235   0.00069   0.00000   0.02752   0.02757   0.93992
   D20        3.00939  -0.00043   0.00000   0.00100   0.00097   3.01036
   D21        0.89884  -0.00082   0.00000  -0.00519  -0.00524   0.89360
   D22       -1.21446  -0.00096   0.00000  -0.00724  -0.00728  -1.22175
   D23        0.94729   0.00056   0.00000   0.02105   0.02105   0.96833
   D24       -1.16326   0.00017   0.00000   0.01485   0.01483  -1.14843
   D25        3.00662   0.00003   0.00000   0.01281   0.01279   3.01941
   D26        3.10885  -0.00094   0.00000  -0.02413  -0.02413   3.08472
   D27        1.00404  -0.00154   0.00000  -0.03386  -0.03393   0.97011
   D28       -1.07473  -0.00089   0.00000  -0.02347  -0.02350  -1.09823
   D29       -1.04103   0.00114   0.00000   0.01346   0.01352  -1.02751
   D30        3.13734   0.00054   0.00000   0.00373   0.00372   3.14106
   D31        1.05858   0.00119   0.00000   0.01413   0.01414   1.07272
   D32        1.03769   0.00013   0.00000  -0.00516  -0.00511   1.03257
   D33       -1.06713  -0.00046   0.00000  -0.01489  -0.01491  -1.08204
   D34        3.13729   0.00019   0.00000  -0.00450  -0.00449   3.13280
   D35        1.65133  -0.00152   0.00000  -0.06217  -0.06221   1.58912
   D36       -2.51977  -0.00199   0.00000  -0.06941  -0.06945  -2.58922
   D37       -0.45393  -0.00101   0.00000  -0.06606  -0.06598  -0.51991
   D38       -1.07962  -0.00068   0.00000  -0.02288  -0.02287  -1.10249
   D39        3.10981  -0.00042   0.00000  -0.01871  -0.01868   3.09113
   D40        1.00111  -0.00073   0.00000  -0.02363  -0.02364   0.97748
   D41        3.12186  -0.00028   0.00000  -0.01745  -0.01746   3.10440
   D42        1.02811  -0.00002   0.00000  -0.01328  -0.01328   1.01483
   D43       -1.08059  -0.00032   0.00000  -0.01821  -0.01823  -1.09882
   D44        1.02262   0.00035   0.00000  -0.00570  -0.00570   1.01692
   D45       -1.07113   0.00061   0.00000  -0.00153  -0.00152  -1.07265
   D46        3.10335   0.00031   0.00000  -0.00646  -0.00647   3.09688
         Item               Value     Threshold  Converged?
 Maximum Force            0.020127     0.000450     NO 
 RMS     Force            0.004108     0.000300     NO 
 Maximum Displacement     0.220165     0.001800     NO 
 RMS     Displacement     0.057917     0.001200     NO 
 Predicted change in Energy=-2.994826D-03
 GradGradGradGradGradGradGradGradGradGradGradGradGradGradGradGradGradGrad

                          Input orientation:                          
 ---------------------------------------------------------------------
 Center     Atomic      Atomic             Coordinates (Angstroms)
 Number     Number       Type             X           Y           Z
 ---------------------------------------------------------------------
      1          8           0        1.479166   -1.232009    0.465524
      2          6           0        1.352569   -0.039526    0.212356
      3          6           0        0.223253    0.739193   -0.099104
      4          7           0       -1.016213    0.195251   -0.143163
      5          6           0       -2.086057    0.843275   -0.431663
      6          6           0       -3.460054    0.195947   -0.374346
      7          6           0       -3.391773   -1.307881   -0.652099
      8          6           0       -4.133834    0.458450    0.985271
      9          8           0        2.528976    0.766725    0.170783
     10          6           0        3.727727    0.105680    0.452641
     11          6           0        4.371769   -0.434617   -0.819573
     12          1           0        0.381273    1.808727   -0.304795
     13          1           0       -2.058987    1.929076   -0.664083
     14          1           0       -4.094589    0.670179   -1.146522
     15          1           0       -3.035427   -1.497415   -1.675069
     16          1           0       -4.376598   -1.787309   -0.523191
     17          1           0       -2.664997   -1.762765    0.033843
     18          1           0       -5.157254    0.045458    1.027060
     19          1           0       -4.187522    1.537968    1.195128
     20          1           0       -3.530231   -0.009816    1.777399
     21          1           0        4.399908    0.833826    0.939876
     22          1           0        3.542983   -0.730684    1.143516
     23          1           0        3.701443   -1.183652   -1.264116
     24          1           0        5.341006   -0.909798   -0.600120
     25          1           0        4.526062    0.375606   -1.547762
 ---------------------------------------------------------------------
                    Distance matrix (angstroms):
                    1          2          3          4          5
     1  O    0.000000
     2  C    1.225617   0.000000
     3  C    2.404529   1.406686   0.000000
     4  N    2.938450   2.406791   1.354286   0.000000
     5  C    4.221678   3.608081   2.335453   1.283641   0.000000
     6  C    5.209639   4.853969   3.733313   2.454752   1.519930
     7  C    4.998089   4.986461   4.191030   2.856870   2.526056
     8  C    5.885029   5.562912   4.498766   3.325988   2.519759
     9  O    2.276820   1.426780   2.321628   3.604651   4.654818
    10  C    2.616410   2.391693   3.603761   4.782046   5.926729
    11  C    3.264117   3.215050   4.371166   5.466682   6.594467
    12  H    3.323377   2.151023   1.100537   2.140653   2.652528
    13  H    4.877192   4.035127   2.635079   2.089231   1.110727
    14  H    6.106043   5.658778   4.443604   3.272413   2.138969
    15  H    5.003412   4.994229   4.255006   3.047799   2.815350
    16  H    5.964553   6.034826   5.265139   3.920096   3.489259
    17  H    4.200255   4.375187   3.823540   2.565862   2.709855
    18  H    6.781542   6.561155   5.540701   4.305819   3.492368
    19  H    6.349524   5.843538   4.665621   3.694741   2.746853
    20  H    5.320605   5.127571   4.262736   3.170315   2.773690
    21  H    3.608797   3.252430   4.304983   5.560136   6.629400
    22  H    2.229426   2.478441   3.837349   4.826920   6.053480
    23  H    2.816470   3.001034   4.141544   5.041248   6.188422
    24  H    4.019107   4.162345   5.400146   6.468707   7.633014
    25  H    3.990152   3.652589   4.554664   5.720335   6.721942
                    6          7          8          9         10
     6  C    0.000000
     7  C    1.530786   0.000000
     8  C    1.539950   2.520230   0.000000
     9  O    6.040814   6.327432   6.719484   0.000000
    10  C    7.235762   7.342063   7.887476   1.397650   0.000000
    11  C    7.869771   7.814296   8.740727   2.412449   1.524874
    12  H    4.166736   4.906091   4.886072   2.434045   3.830513
    13  H    2.247370   3.500621   3.031188   4.805982   6.169108
    14  H    1.106248   2.156646   2.142641   6.753979   8.004037
    15  H    2.177077   1.099715   3.479845   6.284591   7.268928
    16  H    2.189866   1.102882   2.716216   7.395379   8.379483
    17  H    2.152972   1.098016   2.827807   5.778792   6.673335
    18  H    2.206144   2.787117   1.104399   7.767340   8.903733
    19  H    2.189401   3.484870   1.101036   6.837795   8.077988
    20  H    2.162700   2.758007   1.100488   6.316504   7.378772
    21  H    7.994565   8.235993   8.542114   2.023955   1.104274
    22  H    7.225308   7.186670   7.769980   2.053449   1.100429
    23  H    7.347246   7.120654   8.315516   2.690275   2.147166
    24  H    8.873122   8.742002   9.703512   3.363410   2.177653
    25  H    8.073861   8.144228   9.023132   2.663591   2.170670
                   11         12         13         14         15
    11  C    0.000000
    12  H    4.606696   0.000000
    13  H    6.853163   2.469501   0.000000
    14  H    8.544396   4.694479   2.441566   0.000000
    15  H    7.531797   4.947935   3.703561   2.469747   0.000000
    16  H    8.857287   5.967956   4.382087   2.550944   1.791536
    17  H    7.211684   4.706378   3.805790   3.058792   1.768618
    18  H    9.718169   5.963072   4.000905   2.498797   3.766179
    19  H    9.011747   4.816322   2.853120   2.499003   4.333463
    20  H    8.328645   4.789832   3.447419   3.054538   3.791743
    21  H    2.169194   4.318457   6.744596   8.748504   8.219296
    22  H    2.151340   4.306114   6.459396   8.095628   7.197762
    23  H    1.099095   4.571450   6.575079   8.014277   6.756681
    24  H    1.101533   5.663616   7.926108   9.582554   8.465544
    25  H    1.100239   4.558297   6.823270   8.635010   7.791054
                   16         17         18         19         20
    16  H    0.000000
    17  H    1.800129   0.000000
    18  H    2.524230   3.235350   0.000000
    19  H    3.747778   3.815954   1.787795   0.000000
    20  H    3.027959   2.619437   1.792558   1.779524   0.000000
    21  H    9.275665   7.581297   9.590018   8.620030   8.018745
    22  H    8.161748   6.390273   8.735564   8.056683   7.138054
    23  H    8.134378   6.523161   9.232372   8.700049   7.932579
    24  H    9.757446   8.076234  10.666475  10.000366   9.228294
    25  H    9.218747   7.667166  10.025233   9.208749   8.724053
                   21         22         23         24         25
    21  H    0.000000
    22  H    1.795405   0.000000
    23  H    3.068493   2.454991   0.000000
    24  H    2.509478   2.511023   1.789987   0.000000
    25  H    2.532632   3.071368   1.786544   1.792881   0.000000
 Stoichiometry    C8H14NO2(1-)
 Framework group  C1[X(C8H14NO2)]
 Deg. of freedom    69
 Full point group                 C1      NOp   1
 Largest Abelian subgroup         C1      NOp   1
 Largest concise Abelian subgroup C1      NOp   1
                         Standard orientation:                         
 ---------------------------------------------------------------------
 Center     Atomic      Atomic             Coordinates (Angstroms)
 Number     Number       Type             X           Y           Z
 ---------------------------------------------------------------------
      1          8           0       -1.522759    1.034109    0.811002
      2          6           0       -1.381447   -0.044676    0.246740
      3          6           0       -0.244308   -0.692108   -0.269506
      4          7           0        0.986472   -0.135115   -0.174476
      5          6           0        2.062481   -0.663813   -0.633186
      6          6           0        3.427367   -0.032072   -0.413686
      7          6           0        3.333942    1.489814   -0.277886
      8          6           0        4.119856   -0.637523    0.821359
      9          8           0       -2.546267   -0.830346   -0.001493
     10          6           0       -3.751426   -0.289532    0.455167
     11          6           0       -4.417303    0.560626   -0.621438
     12          1           0       -0.388849   -1.670035   -0.753188
     13          1           0        2.048812   -1.648012   -1.147852
     14          1           0        4.060263   -0.271271   -1.288906
     15          1           0        2.963611    1.940249   -1.210268
     16          1           0        4.312975    1.933984   -0.031805
     17          1           0        2.608156    1.731890    0.509688
     18          1           0        5.137495   -0.233362    0.965450
     19          1           0        4.191708   -1.732728    0.733933
     20          1           0        3.518195   -0.408885    1.713997
     21          1           0       -4.407431   -1.132950    0.733960
     22          1           0       -3.571397    0.334303    1.343628
     23          1           0       -3.762990    1.412703   -0.853490
     24          1           0       -5.390943    0.943031   -0.276230
     25          1           0       -4.567680   -0.027514   -1.539046
 ---------------------------------------------------------------------
 Rotational constants (GHZ):           3.3618648           0.3689208           0.3562141
 Standard basis: def2SVP (5D, 7F)
 There are   235 symmetry adapted cartesian basis functions of A   symmetry.
 There are   224 symmetry adapted basis functions of A   symmetry.
   224 basis functions,   373 primitive gaussians,   235 cartesian basis functions
    43 alpha electrons       43 beta electrons
       nuclear repulsion energy       595.2758651632 Hartrees.
 NAtoms=   25 NActive=   25 NUniq=   25 SFac= 1.00D+00 NAtFMM=   60 NAOKFM=F Big=F
 Integral buffers will be    131072 words long.
 Raffenetti 2 integral format.
 Two-electron integral symmetry is turned on.
 Nuclear repulsion after empirical dispersion term =      595.2750593940 Hartrees.
 One-electron integrals computed using PRISM.
   1 Symmetry operations used in ECPInt.
 ECPInt:  NShTT=    5886 NPrTT=   20688 LenC2=    5334 LenP2D=   13991.
 LDataN:  DoStor=T MaxTD1= 4 Len=   56
 NBasis=   224 RedAO= T EigKep=  1.33D-03  NBF=   224
 NBsUse=   224 1.00D-06 EigRej= -1.00D+00 NBFU=   224
 Initial guess from the checkpoint file:  "A18_crest_conformers_censo-18.chk"
 B after Tr=     0.000000    0.000000    0.000000
         Rot=    0.999884   -0.015231    0.000634    0.000339 Ang=  -1.75 deg.
 ExpMin= 1.22D-01 ExpMax= 2.27D+03 ExpMxC= 3.41D+02 IAcc=3 IRadAn=         5 AccDes= 0.00D+00
 Harris functional with IExCor= 1009 and IRadAn=       5 diagonalized for initial guess.
 HarFok:  IExCor= 1009 AccDes= 0.00D+00 IRadAn=         5 IDoV= 1 UseB2=F ITyADJ=14
 ICtDFT=  3500011 ScaDFX=  1.000000  1.000000  1.000000  1.000000
 FoFCou: FMM=F IPFlag=           0 FMFlag=      100000 FMFlg1=           0
         NFxFlg=           0 DoJE=T BraDBF=F KetDBF=T FulRan=T
         wScrn=  0.000000 ICntrl=       500 IOpCl=  0 I1Cent=   200000004 NGrid=           0
         NMat0=    1 NMatS0=      1 NMatT0=    0 NMatD0=    1 NMtDS0=    0 NMtDT0=    0
 Petite list used in FoFCou.
 Requested convergence on RMS density matrix=1.00D-08 within 128 cycles.
 Requested convergence on MAX density matrix=1.00D-06.
 Requested convergence on             energy=1.00D-06.
 No special actions if energy rises.
 Integral accuracy reduced to 1.0D-05 until final iterations.
 Initial convergence to 1.0D-05 achieved.  Increase integral accuracy.
 SCF Done:  E(RM062X) =  -517.868812984     A.U. after   13 cycles
            NFock= 13  Conv=0.63D-08     -V/T= 2.0101
   1 Symmetry operations used in ECPInt.
 ECPInt:  NShTT=    5886 NPrTT=   20688 LenC2=    5334 LenP2D=   13991.
 LDataN:  DoStor=T MaxTD1= 5 Len=  102
 Calling FoFJK, ICntrl=      2127 FMM=F ISym2X=0 I1Cent= 0 IOpClX= 0 NMat=1 NMatS=1 NMatT=0.
 ***** Axes restored to original set *****
 -------------------------------------------------------------------
 Center     Atomic                   Forces (Hartrees/Bohr)
 Number     Number              X              Y              Z
 -------------------------------------------------------------------
      1        8          -0.001437878    0.002137792    0.000732996
      2        6           0.008063237   -0.002139608   -0.003966438
      3        6          -0.003702240    0.002788431   -0.000331740
      4        7           0.000452491   -0.001662625    0.000618118
      5        6          -0.000324749   -0.000774161    0.000438194
      6        6           0.000881151   -0.000421196    0.000564289
      7        6           0.000251041    0.002772318    0.000394569
      8        6           0.001078528   -0.000258030   -0.002207956
      9        8          -0.005086991   -0.001165983    0.002868959
     10        6          -0.000696055   -0.000669358   -0.002179975
     11        6          -0.000545580   -0.000427729    0.001335902
     12        1          -0.000157887   -0.000431769    0.000214899
     13        1          -0.000391663    0.000515727    0.000444595
     14        1          -0.000100884   -0.000011584   -0.000646741
     15        1           0.000424453   -0.000144253    0.000315532
     16        1           0.000257948    0.000090231    0.000079054
     17        1           0.000434894   -0.000619528    0.000074509
     18        1           0.000166592    0.000094319    0.000051926
     19        1           0.000161965   -0.000126515    0.000276158
     20        1          -0.000146803    0.000086693    0.000738674
     21        1          -0.000430476    0.000234298   -0.000129592
     22        1           0.000335664    0.000378145    0.000585338
     23        1           0.000011414   -0.000012897    0.000352483
     24        1           0.000439657   -0.000161078   -0.000732904
     25        1           0.000062172   -0.000071638    0.000109153
 -------------------------------------------------------------------
 Cartesian Forces:  Max     0.008063237 RMS     0.001556892

 GradGradGradGradGradGradGradGradGradGradGradGradGradGradGradGradGradGrad
 Berny optimization.
 Using GEDIIS/GDIIS optimizer.
 FormGI is forming the generalized inverse of G from B-inverse, IUseBI=4.
 Internal  Forces:  Max     0.006007108 RMS     0.001054721
 Search for a local minimum.
 Step number   2 out of a maximum of  121
 All quantities printed in internal units (Hartrees-Bohrs-Radians)
 Mixed Optimization -- RFO/linear search
 Update second derivatives using D2CorX and points    1    2
 DE= -2.86D-03 DEPred=-2.99D-03 R= 9.55D-01
 TightC=F SS=  1.41D+00  RLast= 2.34D-01 DXNew= 5.0454D-01 7.0324D-01
 Trust test= 9.55D-01 RLast= 2.34D-01 DXMaxT set to 5.05D-01
 ITU=  1  0
 Use linear search instead of GDIIS.
     Eigenvalues ---    0.00287   0.00366   0.00421   0.00681   0.01131
     Eigenvalues ---    0.01408   0.01598   0.02088   0.02289   0.02361
     Eigenvalues ---    0.02494   0.03340   0.04109   0.04880   0.05066
     Eigenvalues ---    0.05378   0.05515   0.05564   0.05705   0.05720
     Eigenvalues ---    0.05813   0.05834   0.05855   0.11621   0.13829
     Eigenvalues ---    0.15669   0.15994   0.16000   0.16000   0.16000
     Eigenvalues ---    0.16000   0.16000   0.16000   0.16000   0.16000
     Eigenvalues ---    0.16146   0.16748   0.18262   0.21559   0.22053
     Eigenvalues ---    0.22509   0.24958   0.24998   0.25000   0.25579
     Eigenvalues ---    0.28864   0.29263   0.29835   0.31779   0.32993
     Eigenvalues ---    0.33489   0.33692   0.33813   0.33931   0.34629
     Eigenvalues ---    0.34635   0.34784   0.34922   0.34974   0.35028
     Eigenvalues ---    0.35129   0.35209   0.35421   0.39417   0.45949
     Eigenvalues ---    0.47892   0.59534   0.74276   0.89768
 RFO step:  Lambda=-1.16977396D-03 EMin= 2.86571173D-03
 Quartic linear search produced a step of  0.01884.
 Iteration  1 RMS(Cart)=  0.06973688 RMS(Int)=  0.00145860
 Iteration  2 RMS(Cart)=  0.00366755 RMS(Int)=  0.00016190
 Iteration  3 RMS(Cart)=  0.00000685 RMS(Int)=  0.00016184
 Iteration  4 RMS(Cart)=  0.00000000 RMS(Int)=  0.00016184
 Variable       Old X    -DE/DX   Delta X   Delta X   Delta X     New X
                                 (Linear)    (Quad)   (Total)
    R1        2.31608  -0.00208  -0.00021  -0.00421  -0.00442   2.31166
    R2        2.65825   0.00140   0.00078   0.00980   0.01058   2.66883
    R3        2.69622  -0.00601  -0.00050  -0.01974  -0.02024   2.67599
    R4        2.55923  -0.00273   0.00053  -0.00011   0.00042   2.55965
    R5        2.07971  -0.00048   0.00010  -0.00051  -0.00040   2.07931
    R6        2.42573  -0.00175   0.00019  -0.00074  -0.00055   2.42518
    R7        2.87225  -0.00372   0.00051  -0.00731  -0.00680   2.86545
    R8        2.09897   0.00040   0.00016   0.00260   0.00276   2.10173
    R9        2.89277  -0.00216   0.00017  -0.00583  -0.00566   2.88711
   R10        2.91008  -0.00159   0.00013  -0.00441  -0.00427   2.90581
   R11        2.09051   0.00050   0.00017   0.00306   0.00323   2.09374
   R12        2.07816  -0.00013   0.00043   0.00345   0.00388   2.08204
   R13        2.08414  -0.00026   0.00041   0.00290   0.00332   2.08746
   R14        2.07495   0.00059   0.00045   0.00562   0.00607   2.08102
   R15        2.08701  -0.00019   0.00045   0.00342   0.00387   2.09089
   R16        2.08066  -0.00008   0.00042   0.00347   0.00389   2.08454
   R17        2.07962   0.00041   0.00047   0.00537   0.00585   2.08547
   R18        2.64118  -0.00049  -0.00001  -0.00119  -0.00120   2.63998
   R19        2.88159  -0.00067  -0.00019  -0.00396  -0.00415   2.87744
   R20        2.08678  -0.00016   0.00019   0.00116   0.00135   2.08812
   R21        2.07951   0.00002   0.00002   0.00023   0.00025   2.07976
   R22        2.07699  -0.00014   0.00043   0.00339   0.00382   2.08081
   R23        2.08160   0.00031   0.00044   0.00474   0.00518   2.08677
   R24        2.07915  -0.00012   0.00041   0.00331   0.00373   2.08288
    A1        2.30135  -0.00097   0.00006  -0.00267  -0.00358   2.29776
    A2        2.06083   0.00149  -0.00015   0.00540   0.00428   2.06511
    A3        1.92055  -0.00047   0.00008  -0.00042  -0.00131   1.91924
    A4        2.11720  -0.00208  -0.00023  -0.01159  -0.01182   2.10537
    A5        2.05341   0.00112   0.00013   0.00639   0.00652   2.05994
    A6        2.11257   0.00097   0.00010   0.00519   0.00529   2.11786
    A7        2.17406  -0.00180   0.00044  -0.00337  -0.00293   2.17113
    A8        2.12933  -0.00230   0.00035  -0.00717  -0.00687   2.12246
    A9        2.11791   0.00153  -0.00060   0.00288   0.00223   2.12014
   A10        2.03338   0.00079   0.00023   0.00548   0.00567   2.03905
   A11        1.95113  -0.00133   0.00036  -0.00901  -0.00866   1.94247
   A12        1.93502   0.00028   0.00026   0.00071   0.00096   1.93597
   A13        1.88559   0.00032  -0.00029   0.00053   0.00024   1.88584
   A14        1.92535   0.00058   0.00012   0.00186   0.00195   1.92731
   A15        1.89660   0.00033  -0.00022   0.00342   0.00319   1.89979
   A16        1.86736  -0.00014  -0.00026   0.00309   0.00282   1.87018
   A17        1.93109   0.00013   0.00016   0.00211   0.00226   1.93335
   A18        1.94552  -0.00006   0.00008   0.00099   0.00107   1.94658
   A19        1.89986   0.00056   0.00007   0.00349   0.00356   1.90341
   A20        1.89986   0.00008  -0.00003   0.00132   0.00129   1.90114
   A21        1.87050  -0.00051  -0.00023  -0.00670  -0.00693   1.86357
   A22        1.91552  -0.00023  -0.00004  -0.00156  -0.00161   1.91391
   A23        1.95532  -0.00008   0.00025   0.00187   0.00211   1.95743
   A24        1.93558   0.00012   0.00016   0.00181   0.00196   1.93754
   A25        1.89969   0.00086  -0.00013   0.00439   0.00426   1.90394
   A26        1.89046  -0.00005  -0.00007  -0.00125  -0.00133   1.88913
   A27        1.89855  -0.00036  -0.00005  -0.00209  -0.00215   1.89640
   A28        1.88257  -0.00053  -0.00017  -0.00511  -0.00528   1.87728
   A29        2.01977  -0.00138   0.00019  -0.00389  -0.00370   2.01606
   A30        1.94076   0.00064  -0.00029   0.00084   0.00054   1.94131
   A31        1.87464  -0.00082   0.00007  -0.00519  -0.00511   1.86953
   A32        1.91994   0.00007   0.00042   0.00518   0.00560   1.92553
   A33        1.92268   0.00072  -0.00001   0.00562   0.00562   1.92829
   A34        1.90224  -0.00042  -0.00002  -0.00209  -0.00211   1.90013
   A35        1.90322  -0.00020  -0.00017  -0.00443  -0.00459   1.89863
   A36        1.89793  -0.00055  -0.00007  -0.00442  -0.00449   1.89344
   A37        1.93721   0.00125   0.00021   0.01022   0.01043   1.94764
   A38        1.92889  -0.00016   0.00010  -0.00029  -0.00020   1.92869
   A39        1.89994  -0.00028  -0.00013  -0.00256  -0.00269   1.89725
   A40        1.89621   0.00023  -0.00003   0.00016   0.00013   1.89634
   A41        1.90301  -0.00051  -0.00009  -0.00333  -0.00343   1.89958
    D1        0.01813  -0.00099   0.00040  -0.04403  -0.04355  -0.02542
    D2       -3.12510  -0.00108   0.00045  -0.04724  -0.04672   3.11137
    D3        3.12592   0.00097  -0.00047   0.04244   0.04189  -3.11537
    D4       -0.01731   0.00088  -0.00042   0.03922   0.03873   0.02142
    D5       -0.01985   0.00018  -0.00159  -0.02309  -0.02454  -0.04439
    D6       -3.13291  -0.00143  -0.00085  -0.09592  -0.09690   3.05338
    D7       -3.13008  -0.00003   0.00013  -0.00032  -0.00019  -3.13027
    D8        0.01320   0.00006   0.00007   0.00301   0.00308   0.01628
    D9       -3.06930  -0.00076   0.00066  -0.02332  -0.02265  -3.09196
   D10       -0.00746  -0.00048   0.00036  -0.00458  -0.00423  -0.01169
   D11       -0.50519   0.00047   0.00004   0.06019   0.06024  -0.44496
   D12        1.65103   0.00046   0.00062   0.05661   0.05724   1.70826
   D13       -2.59118   0.00065   0.00028   0.06105   0.06132  -2.52986
   D14        2.71250   0.00016   0.00036   0.04239   0.04275   2.75525
   D15       -1.41447   0.00016   0.00093   0.03881   0.03975  -1.37472
   D16        0.62651   0.00034   0.00059   0.04325   0.04383   0.67035
   D17       -1.11116   0.00018   0.00068   0.01325   0.01393  -1.09723
   D18        3.05526   0.00002   0.00056   0.00944   0.01000   3.06526
   D19        0.93992  -0.00002   0.00052   0.00843   0.00895   0.94887
   D20        3.01036   0.00034   0.00002   0.01741   0.01743   3.02780
   D21        0.89360   0.00018  -0.00010   0.01360   0.01350   0.90710
   D22       -1.22175   0.00014  -0.00014   0.01259   0.01246  -1.20929
   D23        0.96833  -0.00002   0.00040   0.01062   0.01101   0.97934
   D24       -1.14843  -0.00018   0.00028   0.00681   0.00708  -1.14135
   D25        3.01941  -0.00022   0.00024   0.00580   0.00604   3.02544
   D26        3.08472   0.00044  -0.00045  -0.00824  -0.00869   3.07603
   D27        0.97011   0.00047  -0.00064  -0.00920  -0.00984   0.96027
   D28       -1.09823   0.00051  -0.00044  -0.00674  -0.00718  -1.10541
   D29       -1.02751  -0.00066   0.00025  -0.01798  -0.01773  -1.04524
   D30        3.14106  -0.00062   0.00007  -0.01894  -0.01888   3.12218
   D31        1.07272  -0.00058   0.00027  -0.01648  -0.01622   1.05650
   D32        1.03257  -0.00003  -0.00010  -0.01108  -0.01117   1.02140
   D33       -1.08204   0.00001  -0.00028  -0.01204  -0.01232  -1.09436
   D34        3.13280   0.00005  -0.00008  -0.00958  -0.00966   3.12314
   D35        1.58912  -0.00161  -0.00117  -0.08503  -0.08620   1.50292
   D36       -2.58922  -0.00086  -0.00131  -0.08094  -0.08224  -2.67146
   D37       -0.51991  -0.00155  -0.00124  -0.08641  -0.08766  -0.60757
   D38       -1.10249  -0.00011  -0.00043  -0.01611  -0.01655  -1.11903
   D39        3.09113  -0.00017  -0.00035  -0.01638  -0.01672   3.07441
   D40        0.97748  -0.00026  -0.00045  -0.01881  -0.01926   0.95821
   D41        3.10440   0.00003  -0.00033  -0.01382  -0.01415   3.09025
   D42        1.01483  -0.00002  -0.00025  -0.01408  -0.01433   1.00051
   D43       -1.09882  -0.00012  -0.00034  -0.01652  -0.01687  -1.11569
   D44        1.01692   0.00011  -0.00011  -0.01050  -0.01061   1.00631
   D45       -1.07265   0.00005  -0.00003  -0.01076  -0.01078  -1.08343
   D46        3.09688  -0.00004  -0.00012  -0.01320  -0.01333   3.08356
         Item               Value     Threshold  Converged?
 Maximum Force            0.006007     0.000450     NO 
 RMS     Force            0.001055     0.000300     NO 
 Maximum Displacement     0.278641     0.001800     NO 
 RMS     Displacement     0.070753     0.001200     NO 
 Predicted change in Energy=-6.201947D-04
 GradGradGradGradGradGradGradGradGradGradGradGradGradGradGradGradGradGrad

                          Input orientation:                          
 ---------------------------------------------------------------------
 Center     Atomic      Atomic             Coordinates (Angstroms)
 Number     Number       Type             X           Y           Z
 ---------------------------------------------------------------------
      1          8           0        1.482847   -1.216316    0.318073
      2          6           0        1.359988   -0.020233    0.092910
      3          6           0        0.219286    0.777824   -0.144681
      4          7           0       -1.016165    0.223485   -0.177161
      5          6           0       -2.098370    0.876869   -0.398318
      6          6           0       -3.456051    0.202834   -0.357726
      7          6           0       -3.343314   -1.290639   -0.659337
      8          6           0       -4.139357    0.425716    1.001649
      9          8           0        2.521217    0.789950    0.113102
     10          6           0        3.707424    0.133056    0.449343
     11          6           0        4.353704   -0.499512   -0.775696
     12          1           0        0.366312    1.857624   -0.296753
     13          1           0       -2.088311    1.975390   -0.571847
     14          1           0       -4.097414    0.676045   -1.127333
     15          1           0       -2.961578   -1.455506   -1.679629
     16          1           0       -4.317879   -1.800054   -0.554723
     17          1           0       -2.613146   -1.742585    0.030082
     18          1           0       -5.159767   -0.001078    1.030643
     19          1           0       -4.207991    1.500939    1.238286
     20          1           0       -3.534637   -0.051227    1.792049
     21          1           0        4.380961    0.886455    0.896258
     22          1           0        3.511174   -0.653067    1.194150
     23          1           0        3.679693   -1.279664   -1.162393
     24          1           0        5.325841   -0.961720   -0.529255
     25          1           0        4.508134    0.255305   -1.563904
 ---------------------------------------------------------------------
                    Distance matrix (angstroms):
                    1          2          3          4          5
     1  O    0.000000
     2  C    1.223277   0.000000
     3  C    2.405685   1.412283   0.000000
     4  N    2.926320   2.403839   1.354507   0.000000
     5  C    4.209485   3.606430   2.333597   1.283351   0.000000
     6  C    5.182992   4.842217   3.726138   2.446645   1.516333
     7  C    4.924702   4.929590   4.151570   2.817922   2.513187
     8  C    5.896841   5.591733   4.520601   3.344371   2.515765
     9  O    2.268332   1.416071   2.316352   3.594191   4.648623
    10  C    2.605144   2.379285   3.596623   4.765814   5.914308
    11  C    3.154672   3.153810   4.373005   5.451281   6.608033
    12  H    3.327728   2.159995   1.100323   2.143818   2.654591
    13  H    4.871562   4.039206   2.634700   2.091518   1.112188
    14  H    6.067088   5.635338   4.428303   3.256030   2.137281
    15  H    4.878621   4.886496   4.178723   2.976752   2.797653
    16  H    5.894994   5.985430   5.234450   3.890832   3.480891
    17  H    4.139694   4.330848   3.795481   2.541403   2.703713
    18  H    6.790352   6.586874   5.560781   4.321881   3.490683
    19  H    6.373061   5.884577   4.694282   3.717947   2.741976
    20  H    5.357722   5.181253   4.304670   3.208730   2.778836
    21  H    3.626983   3.254801   4.291258   5.542629   6.607402
    22  H    2.280103   2.498161   3.830985   4.810992   6.028569
    23  H    2.649891   2.922838   4.152518   5.028043   6.214536
    24  H    3.943524   4.123285   5.408402   6.461403   7.649606
    25  H    3.854849   3.568161   4.547684   5.695783   6.737272
                    6          7          8          9         10
     6  C    0.000000
     7  C    1.527790   0.000000
     8  C    1.537689   2.517626   0.000000
     9  O    6.024460   6.270426   6.729446   0.000000
    10  C    7.209133   7.277979   7.871637   1.397016   0.000000
    11  C    7.852404   7.738443   8.726230   2.410536   1.522676
    12  H    4.165633   4.878970   4.902781   2.439575   3.833253
    13  H    2.249114   3.499948   3.013996   4.808552   6.166650
    14  H    1.107958   2.157669   2.144060   6.734830   7.980993
    15  H    2.177619   1.101770   3.480720   6.190073   7.178554
    16  H    2.189319   1.104638   2.721804   7.343525   8.315681
    17  H    2.155352   1.101226   2.823968   5.725584   6.606316
    18  H    2.207215   2.796159   1.106449   7.775932   8.887237
    19  H    2.190376   3.484474   1.103092   6.859576   8.071389
    20  H    2.166161   2.753551   1.103582   6.340332   7.367785
    21  H    7.966088   8.174597   8.533418   2.020221   1.104987
    22  H    7.189097   7.129230   7.728613   2.056934   1.100563
    23  H    7.332402   7.041009   8.290292   2.693001   2.143418
    24  H    8.860430   8.676367   9.688066   3.368514   2.185283
    25  H    8.055175   8.053161   9.021652   2.654436   2.170079
                   11         12         13         14         15
    11  C    0.000000
    12  H    4.656692   0.000000
    13  H    6.904075   2.472795   0.000000
    14  H    8.539730   4.691571   2.456290   0.000000
    15  H    7.432656   4.895307   3.709559   2.477633   0.000000
    16  H    8.771351   5.948681   4.384661   2.550991   1.795461
    17  H    7.122605   4.684602   3.802777   3.064708   1.768313
    18  H    9.696258   5.979490   3.988514   2.498790   3.780604
    19  H    9.020008   4.838162   2.827495   2.507755   4.336859
    20  H    8.307839   4.819149   3.433226   3.060790   3.788527
    21  H    2.171884   4.299285   6.722544   8.719062   8.126060
    22  H    2.147959   4.291448   6.432866   8.065138   7.127344
    23  H    1.101118   4.644395   6.649360   8.019316   6.663703
    24  H    1.104273   5.709614   7.974840   9.583199   8.381438
    25  H    1.102211   4.618202   6.888828   8.626881   7.663998
                   16         17         18         19         20
    16  H    0.000000
    17  H    1.803168   0.000000
    18  H    2.541353   3.243339   0.000000
    19  H    3.758127   3.811002   1.790265   0.000000
    20  H    3.029720   2.610433   1.795356   1.780247   0.000000
    21  H    9.219138   7.521945   9.582863   8.617695   8.021121
    22  H    8.103593   6.328460   8.696956   8.014188   7.096700
    23  H    8.037489   6.421535   9.196751   8.701182   7.892042
    24  H    9.680124   7.996882  10.644439  10.004141   9.204646
    25  H    9.118193   7.566041  10.013277   9.239843   8.720237
                   21         22         23         24         25
    21  H    0.000000
    22  H    1.793153   0.000000
    23  H    3.069510   2.444242   0.000000
    24  H    2.518062   2.521588   1.792137   0.000000
    25  H    2.543014   3.070167   1.789875   1.794517   0.000000
 Stoichiometry    C8H14NO2(1-)
 Framework group  C1[X(C8H14NO2)]
 Deg. of freedom    69
 Full point group                 C1      NOp   1
 Largest Abelian subgroup         C1      NOp   1
 Largest concise Abelian subgroup C1      NOp   1
                         Standard orientation:                         
 ---------------------------------------------------------------------
 Center     Atomic      Atomic             Coordinates (Angstroms)
 Number     Number       Type             X           Y           Z
 ---------------------------------------------------------------------
      1          8           0       -1.529328    1.046389    0.706577
      2          6           0       -1.389310   -0.037257    0.156564
      3          6           0       -0.238879   -0.713529   -0.305724
      4          7           0        0.986030   -0.145831   -0.196161
      5          6           0        2.075725   -0.688961   -0.601826
      6          6           0        3.421929   -0.023991   -0.390124
      7          6           0        3.278288    1.491757   -0.263561
      8          6           0        4.131012   -0.600960    0.846320
      9          8           0       -2.535757   -0.845690   -0.036705
     10          6           0       -3.727616   -0.333354    0.481600
     11          6           0       -4.404643    0.600586   -0.512349
     12          1           0       -0.369509   -1.711524   -0.750307
     13          1           0        2.082000   -1.696065   -1.073698
     14          1           0        4.058856   -0.251168   -1.267783
     15          1           0        2.877210    1.925271   -1.193669
     16          1           0        4.245395    1.972697   -0.031990
     17          1           0        2.551649    1.718886    0.532120
     18          1           0        5.144162   -0.177402    0.981799
     19          1           0        4.222215   -1.697898    0.774059
     20          1           0        3.530990   -0.375192    1.744593
     21          1           0       -4.380567   -1.195360    0.708749
     22          1           0       -3.533026    0.219052    1.413384
     23          1           0       -3.750706    1.471576   -0.674227
     24          1           0       -5.380558    0.955420   -0.136712
     25          1           0       -4.558675    0.091186   -1.477571
 ---------------------------------------------------------------------
 Rotational constants (GHZ):           3.4063566           0.3724531           0.3577502
 Standard basis: def2SVP (5D, 7F)
 There are   235 symmetry adapted cartesian basis functions of A   symmetry.
 There are   224 symmetry adapted basis functions of A   symmetry.
   224 basis functions,   373 primitive gaussians,   235 cartesian basis functions
    43 alpha electrons       43 beta electrons
       nuclear repulsion energy       596.8893248056 Hartrees.
 NAtoms=   25 NActive=   25 NUniq=   25 SFac= 1.00D+00 NAtFMM=   60 NAOKFM=F Big=F
 Integral buffers will be    131072 words long.
 Raffenetti 2 integral format.
 Two-electron integral symmetry is turned on.
 Nuclear repulsion after empirical dispersion term =      596.8885205032 Hartrees.
 One-electron integrals computed using PRISM.
   1 Symmetry operations used in ECPInt.
 ECPInt:  NShTT=    5886 NPrTT=   20688 LenC2=    5343 LenP2D=   14018.
 LDataN:  DoStor=T MaxTD1= 4 Len=   56
 NBasis=   224 RedAO= T EigKep=  1.32D-03  NBF=   224
 NBsUse=   224 1.00D-06 EigRej= -1.00D+00 NBFU=   224
 Initial guess from the checkpoint file:  "A18_crest_conformers_censo-18.chk"
 B after Tr=    -0.000000   -0.000000   -0.000000
         Rot=    0.999998   -0.000975   -0.000253   -0.001549 Ang=  -0.21 deg.
 ExpMin= 1.22D-01 ExpMax= 2.27D+03 ExpMxC= 3.41D+02 IAcc=3 IRadAn=         5 AccDes= 0.00D+00
 Harris functional with IExCor= 1009 and IRadAn=       5 diagonalized for initial guess.
 HarFok:  IExCor= 1009 AccDes= 0.00D+00 IRadAn=         5 IDoV= 1 UseB2=F ITyADJ=14
 ICtDFT=  3500011 ScaDFX=  1.000000  1.000000  1.000000  1.000000
 FoFCou: FMM=F IPFlag=           0 FMFlag=      100000 FMFlg1=           0
         NFxFlg=           0 DoJE=T BraDBF=F KetDBF=T FulRan=T
         wScrn=  0.000000 ICntrl=       500 IOpCl=  0 I1Cent=   200000004 NGrid=           0
         NMat0=    1 NMatS0=      1 NMatT0=    0 NMatD0=    1 NMtDS0=    0 NMtDT0=    0
 Petite list used in FoFCou.
 Requested convergence on RMS density matrix=1.00D-08 within 128 cycles.
 Requested convergence on MAX density matrix=1.00D-06.
 Requested convergence on             energy=1.00D-06.
 No special actions if energy rises.
 Integral accuracy reduced to 1.0D-05 until final iterations.
 Initial convergence to 1.0D-05 achieved.  Increase integral accuracy.
 SCF Done:  E(RM062X) =  -517.869283376     A.U. after   13 cycles
            NFock= 13  Conv=0.49D-08     -V/T= 2.0101
   1 Symmetry operations used in ECPInt.
 ECPInt:  NShTT=    5886 NPrTT=   20688 LenC2=    5343 LenP2D=   14018.
 LDataN:  DoStor=T MaxTD1= 5 Len=  102
 Calling FoFJK, ICntrl=      2127 FMM=F ISym2X=0 I1Cent= 0 IOpClX= 0 NMat=1 NMatS=1 NMatT=0.
 ***** Axes restored to original set *****
 -------------------------------------------------------------------
 Center     Atomic                   Forces (Hartrees/Bohr)
 Number     Number              X              Y              Z
 -------------------------------------------------------------------
      1        8          -0.000135248   -0.003045541   -0.002183624
      2        6          -0.000459393    0.005905176    0.005784102
      3        6          -0.001460649   -0.002203659   -0.001399731
      4        7           0.002556579    0.000428536   -0.001754787
      5        6           0.000103739    0.000136238    0.000268781
      6        6           0.000314800    0.000497751    0.000103139
      7        6           0.000292114   -0.000771778    0.000271409
      8        6          -0.000073662    0.000118643    0.000555561
      9        8          -0.001409195    0.000416466    0.000228048
     10        6           0.001162162   -0.000522357   -0.001761316
     11        6           0.001150064   -0.002257305   -0.001324546
     12        1          -0.000101487   -0.000553664    0.000067809
     13        1          -0.000514528   -0.000498035    0.000604383
     14        1          -0.000011790   -0.000556258    0.000093216
     15        1          -0.000278343    0.000287053    0.001517413
     16        1           0.001056487    0.000635015   -0.000116369
     17        1          -0.001115883    0.000526456   -0.001172010
     18        1           0.001278830    0.000536988   -0.000013668
     19        1           0.000065304   -0.001235787   -0.000289293
     20        1          -0.001022924    0.000637273   -0.000927064
     21        1          -0.000879498   -0.000105885   -0.000765748
     22        1          -0.000142324    0.000149613    0.000595807
     23        1           0.000778617    0.001345732    0.000830374
     24        1          -0.001077123    0.000781214   -0.000369418
     25        1          -0.000076650   -0.000651883    0.001157533
 -------------------------------------------------------------------
 Cartesian Forces:  Max     0.005905176 RMS     0.001370218

 GradGradGradGradGradGradGradGradGradGradGradGradGradGradGradGradGradGrad
 Berny optimization.
 Using GEDIIS/GDIIS optimizer.
 FormGI is forming the generalized inverse of G from B-inverse, IUseBI=4.
 Internal  Forces:  Max     0.002699957 RMS     0.000854318
 Search for a local minimum.
 Step number   3 out of a maximum of  121
 All quantities printed in internal units (Hartrees-Bohrs-Radians)
 Mixed Optimization -- En-DIIS/RFO-DIIS
 Update second derivatives using D2CorX and points    1    2    3
 DE= -4.70D-04 DEPred=-6.20D-04 R= 7.58D-01
 TightC=F SS=  1.41D+00  RLast= 2.49D-01 DXNew= 8.4853D-01 7.4826D-01
 Trust test= 7.58D-01 RLast= 2.49D-01 DXMaxT set to 7.48D-01
 ITU=  1  1  0
 Use linear search instead of GDIIS.
     Eigenvalues ---    0.00284   0.00362   0.00407   0.00499   0.01043
     Eigenvalues ---    0.01289   0.01406   0.02283   0.02358   0.02492
     Eigenvalues ---    0.03270   0.03965   0.04632   0.05001   0.05071
     Eigenvalues ---    0.05350   0.05489   0.05537   0.05686   0.05750
     Eigenvalues ---    0.05807   0.05825   0.05848   0.11600   0.13758
     Eigenvalues ---    0.15502   0.15996   0.16000   0.16000   0.16000
     Eigenvalues ---    0.16000   0.16000   0.16000   0.16000   0.16033
     Eigenvalues ---    0.16196   0.16732   0.18189   0.21384   0.22418
     Eigenvalues ---    0.22722   0.24829   0.24998   0.25092   0.25635
     Eigenvalues ---    0.28811   0.29386   0.29767   0.32573   0.33009
     Eigenvalues ---    0.33478   0.33695   0.33807   0.33926   0.34633
     Eigenvalues ---    0.34736   0.34886   0.34928   0.35017   0.35087
     Eigenvalues ---    0.35126   0.35321   0.36161   0.39506   0.46105
     Eigenvalues ---    0.48780   0.60955   0.74253   0.91404
 RFO step:  Lambda=-9.72829511D-04 EMin= 2.84117032D-03
 Quartic linear search produced a step of -0.17274.
 Iteration  1 RMS(Cart)=  0.10108789 RMS(Int)=  0.00323240
 Iteration  2 RMS(Cart)=  0.00513961 RMS(Int)=  0.00017679
 Iteration  3 RMS(Cart)=  0.00001436 RMS(Int)=  0.00017652
 Iteration  4 RMS(Cart)=  0.00000000 RMS(Int)=  0.00017652
 Variable       Old X    -DE/DX   Delta X   Delta X   Delta X     New X
                                 (Linear)    (Quad)   (Total)
    R1        2.31166   0.00256   0.00076  -0.00318  -0.00242   2.30924
    R2        2.66883  -0.00165  -0.00183   0.01168   0.00985   2.67868
    R3        2.67599  -0.00091   0.00350  -0.02362  -0.02012   2.65587
    R4        2.55965  -0.00270  -0.00007  -0.00027  -0.00035   2.55930
    R5        2.07931  -0.00057   0.00007  -0.00108  -0.00101   2.07830
    R6        2.42518  -0.00008   0.00009   0.00045   0.00055   2.42573
    R7        2.86545  -0.00075   0.00117  -0.00540  -0.00422   2.86123
    R8        2.10173  -0.00059  -0.00048   0.00209   0.00162   2.10335
    R9        2.88711  -0.00076   0.00098  -0.00637  -0.00540   2.88171
   R10        2.90581  -0.00070   0.00074  -0.00515  -0.00441   2.90140
   R11        2.09374  -0.00030  -0.00056   0.00334   0.00278   2.09652
   R12        2.08204  -0.00155  -0.00067   0.00269   0.00202   2.08406
   R13        2.08746  -0.00124  -0.00057   0.00270   0.00213   2.08959
   R14        2.08102  -0.00169  -0.00105   0.00453   0.00348   2.08450
   R15        2.09089  -0.00139  -0.00067   0.00308   0.00241   2.09329
   R16        2.08454  -0.00127  -0.00067   0.00320   0.00253   2.08707
   R17        2.08547  -0.00150  -0.00101   0.00487   0.00386   2.08933
   R18        2.63998   0.00098   0.00021   0.00044   0.00064   2.64062
   R19        2.87744   0.00042   0.00072  -0.00389  -0.00317   2.87427
   R20        2.08812  -0.00092  -0.00023   0.00023  -0.00001   2.08811
   R21        2.07976   0.00032  -0.00004   0.00107   0.00103   2.08079
   R22        2.08081  -0.00172  -0.00066   0.00224   0.00158   2.08239
   R23        2.08677  -0.00136  -0.00089   0.00432   0.00342   2.09020
   R24        2.08288  -0.00129  -0.00064   0.00299   0.00235   2.08522
    A1        2.29776  -0.00125   0.00062  -0.00569  -0.00612   2.29165
    A2        2.06511   0.00026  -0.00074   0.00509   0.00330   2.06841
    A3        1.91924   0.00116   0.00023   0.00393   0.00311   1.92235
    A4        2.10537  -0.00006   0.00204  -0.01265  -0.01062   2.09476
    A5        2.05994   0.00006  -0.00113   0.00714   0.00600   2.06594
    A6        2.11786   0.00001  -0.00091   0.00555   0.00463   2.12249
    A7        2.17113  -0.00053   0.00051  -0.00192  -0.00141   2.16972
    A8        2.12246   0.00035   0.00119  -0.00338  -0.00220   2.12026
    A9        2.12014   0.00034  -0.00039   0.00048   0.00009   2.12023
   A10        2.03905  -0.00069  -0.00098   0.00346   0.00248   2.04153
   A11        1.94247  -0.00000   0.00150  -0.00575  -0.00426   1.93822
   A12        1.93597   0.00002  -0.00017   0.00278   0.00262   1.93859
   A13        1.88584   0.00011  -0.00004   0.00010   0.00005   1.88589
   A14        1.92731   0.00002  -0.00034   0.00240   0.00206   1.92937
   A15        1.89979  -0.00006  -0.00055   0.00081   0.00026   1.90005
   A16        1.87018  -0.00010  -0.00049  -0.00020  -0.00069   1.86949
   A17        1.93335  -0.00012  -0.00039   0.00227   0.00188   1.93523
   A18        1.94658  -0.00010  -0.00018   0.00119   0.00100   1.94758
   A19        1.90341   0.00030  -0.00061   0.00504   0.00443   1.90784
   A20        1.90114   0.00014  -0.00022   0.00185   0.00162   1.90277
   A21        1.86357  -0.00017   0.00120  -0.00913  -0.00793   1.85563
   A22        1.91391  -0.00006   0.00028  -0.00171  -0.00144   1.91247
   A23        1.95743  -0.00004  -0.00037   0.00297   0.00260   1.96003
   A24        1.93754  -0.00006  -0.00034   0.00239   0.00205   1.93959
   A25        1.90394   0.00035  -0.00074   0.00518   0.00444   1.90838
   A26        1.88913  -0.00000   0.00023  -0.00209  -0.00187   1.88726
   A27        1.89640  -0.00017   0.00037  -0.00309  -0.00273   1.89367
   A28        1.87728  -0.00008   0.00091  -0.00591  -0.00500   1.87229
   A29        2.01606  -0.00024   0.00064  -0.00319  -0.00255   2.01351
   A30        1.94131   0.00207  -0.00009   0.00624   0.00613   1.94744
   A31        1.86953  -0.00115   0.00088  -0.01052  -0.00964   1.85989
   A32        1.92553  -0.00072  -0.00097   0.00571   0.00473   1.93026
   A33        1.92829  -0.00008  -0.00097   0.00561   0.00465   1.93294
   A34        1.90013  -0.00033   0.00036  -0.00177  -0.00142   1.89871
   A35        1.89863   0.00017   0.00079  -0.00550  -0.00470   1.89393
   A36        1.89344  -0.00044   0.00078  -0.00631  -0.00553   1.88790
   A37        1.94764   0.00017  -0.00180   0.01186   0.01006   1.95770
   A38        1.92869  -0.00036   0.00003  -0.00182  -0.00179   1.92690
   A39        1.89725   0.00028   0.00046  -0.00105  -0.00057   1.89668
   A40        1.89634   0.00037  -0.00002   0.00162   0.00159   1.89793
   A41        1.89958  -0.00000   0.00059  -0.00448  -0.00388   1.89569
    D1       -0.02542   0.00154   0.00752   0.02123   0.02863   0.00321
    D2        3.11137   0.00187   0.00807   0.02896   0.03692  -3.13490
    D3       -3.11537  -0.00268  -0.00724  -0.05976  -0.06688   3.10093
    D4        0.02142  -0.00235  -0.00669  -0.05203  -0.05860  -0.03718
    D5       -0.04439  -0.00140   0.00424  -0.07371  -0.06970  -0.11409
    D6        3.05338   0.00213   0.01674  -0.00534   0.01163   3.06501
    D7       -3.13027  -0.00014   0.00003  -0.00332  -0.00329  -3.13356
    D8        0.01628  -0.00048  -0.00053  -0.01132  -0.01185   0.00444
    D9       -3.09196   0.00028   0.00391  -0.01012  -0.00621  -3.09816
   D10       -0.01169   0.00018   0.00073   0.00110   0.00182  -0.00987
   D11       -0.44496   0.00033  -0.01041   0.08873   0.07833  -0.36663
   D12        1.70826   0.00037  -0.00989   0.08972   0.07983   1.78809
   D13       -2.52986   0.00033  -0.01059   0.09110   0.08050  -2.44935
   D14        2.75525   0.00039  -0.00738   0.07810   0.07072   2.82596
   D15       -1.37472   0.00043  -0.00687   0.07908   0.07221  -1.30250
   D16        0.67035   0.00039  -0.00757   0.08046   0.07289   0.74324
   D17       -1.09723   0.00007  -0.00241   0.02409   0.02168  -1.07555
   D18        3.06526   0.00004  -0.00173   0.01934   0.01761   3.08287
   D19        0.94887  -0.00002  -0.00155   0.01733   0.01578   0.96465
   D20        3.02780   0.00003  -0.00301   0.02286   0.01985   3.04765
   D21        0.90710   0.00000  -0.00233   0.01810   0.01577   0.92287
   D22       -1.20929  -0.00006  -0.00215   0.01610   0.01395  -1.19534
   D23        0.97934   0.00017  -0.00190   0.02124   0.01934   0.99868
   D24       -1.14135   0.00014  -0.00122   0.01649   0.01526  -1.12609
   D25        3.02544   0.00008  -0.00104   0.01449   0.01344   3.03889
   D26        3.07603  -0.00002   0.00150  -0.01259  -0.01109   3.06494
   D27        0.96027   0.00006   0.00170  -0.01366  -0.01197   0.94830
   D28       -1.10541  -0.00002   0.00124  -0.01108  -0.00984  -1.11525
   D29       -1.04524   0.00001   0.00306  -0.01629  -0.01323  -1.05847
   D30        3.12218   0.00008   0.00326  -0.01737  -0.01410   3.10808
   D31        1.05650   0.00001   0.00280  -0.01478  -0.01197   1.04453
   D32        1.02140  -0.00011   0.00193  -0.01412  -0.01219   1.00921
   D33       -1.09436  -0.00003   0.00213  -0.01519  -0.01306  -1.10743
   D34        3.12314  -0.00011   0.00167  -0.01260  -0.01093   3.11221
   D35        1.50292  -0.00079   0.01489  -0.11939  -0.10447   1.39845
   D36       -2.67146  -0.00040   0.01421  -0.11552  -0.10133  -2.77279
   D37       -0.60757  -0.00126   0.01514  -0.12515  -0.11002  -0.71759
   D38       -1.11903  -0.00005   0.00286  -0.01562  -0.01277  -1.13180
   D39        3.07441  -0.00021   0.00289  -0.01750  -0.01460   3.05981
   D40        0.95821  -0.00008   0.00333  -0.01859  -0.01526   0.94296
   D41        3.09025   0.00012   0.00244  -0.01012  -0.00768   3.08257
   D42        1.00051  -0.00005   0.00247  -0.01199  -0.00952   0.99099
   D43       -1.11569   0.00009   0.00291  -0.01308  -0.01017  -1.12586
   D44        1.00631   0.00016   0.00183  -0.00566  -0.00383   1.00248
   D45       -1.08343  -0.00000   0.00186  -0.00753  -0.00566  -1.08910
   D46        3.08356   0.00013   0.00230  -0.00862  -0.00631   3.07724
         Item               Value     Threshold  Converged?
 Maximum Force            0.002700     0.000450     NO 
 RMS     Force            0.000854     0.000300     NO 
 Maximum Displacement     0.301310     0.001800     NO 
 RMS     Displacement     0.101378     0.001200     NO 
 Predicted change in Energy=-5.500075D-04
 GradGradGradGradGradGradGradGradGradGradGradGradGradGradGradGradGradGrad

                          Input orientation:                          
 ---------------------------------------------------------------------
 Center     Atomic      Atomic             Coordinates (Angstroms)
 Number     Number       Type             X           Y           Z
 ---------------------------------------------------------------------
      1          8           0        1.506937   -1.178693    0.259305
      2          6           0        1.378797    0.030313    0.136153
      3          6           0        0.228395    0.833425   -0.066032
      4          7           0       -0.994375    0.257047   -0.148590
      5          6           0       -2.087430    0.902745   -0.338438
      6          6           0       -3.427473    0.198418   -0.364946
      7          6           0       -3.259318   -1.287892   -0.661652
      8          6           0       -4.184380    0.402055    0.955257
      9          8           0        2.533960    0.830823    0.136253
     10          6           0        3.726365    0.161085    0.423010
     11          6           0        4.261536   -0.575073   -0.795637
     12          1           0        0.359929    1.921646   -0.155531
     13          1           0       -2.097528    2.011016   -0.440905
     14          1           0       -4.041208    0.657186   -1.167253
     15          1           0       -2.802132   -1.441464   -1.653442
     16          1           0       -4.226668   -1.822250   -0.624103
     17          1           0       -2.564169   -1.729948    0.071911
     18          1           0       -5.200148   -0.039098    0.929800
     19          1           0       -4.281731    1.475316    1.196919
     20          1           0       -3.617518   -0.069827    1.778907
     21          1           0        4.444724    0.928574    0.763460
     22          1           0        3.576990   -0.564048    1.238060
     23          1           0        3.543400   -1.367601   -1.061122
     24          1           0        5.246634   -1.039802   -0.603198
     25          1           0        4.359010    0.115938   -1.650394
 ---------------------------------------------------------------------
                    Distance matrix (angstroms):
                    1          2          3          4          5
     1  O    0.000000
     2  C    1.221999   0.000000
     3  C    2.406062   1.417495   0.000000
     4  N    2.912780   2.400923   1.354324   0.000000
     5  C    4.196326   3.605704   2.332821   1.283642   0.000000
     6  C    5.160865   4.835244   3.722627   2.443402   1.514099
     7  C    4.855643   4.887357   4.125395   2.789271   2.505330
     8  C    5.947621   5.635429   4.549911   3.378703   2.514266
     9  O    2.260105   1.405424   2.314423   3.586014   4.646261
    10  C    2.597627   2.368641   3.595413   4.756187   5.910166
    11  C    3.010827   3.089484   4.333869   5.360568   6.534703
    12  H    3.331639   2.168020   1.099790   2.145944   2.657288
    13  H    4.863816   4.042402   2.633850   2.092559   1.113044
    14  H    6.015599   5.609661   4.412852   3.237434   2.136466
    15  H    4.721834   4.780057   4.108416   2.901294   2.781250
    16  H    5.836848   5.952412   5.216477   3.872636   3.476138
    17  H    4.112530   4.318521   3.793194   2.541854   2.706795
    18  H    6.836171   6.627006   5.587670   4.351914   3.490632
    19  H    6.436735   5.937578   4.727399   3.755167   2.738634
    20  H    5.458829   5.260403   4.360128   3.271540   2.787511
    21  H    3.650390   3.255810   4.298202   5.555770   6.624491
    22  H    2.370838   2.529727   3.855733   4.847099   6.059907
    23  H    2.434419   2.841327   4.101705   4.905466   6.114163
    24  H    3.840382   4.080680   5.383331   6.390514   7.591579
    25  H    3.668425   3.475738   4.481849   5.561840   6.625472
                    6          7          8          9         10
     6  C    0.000000
     7  C    1.524935   0.000000
     8  C    1.535354   2.515165   0.000000
     9  O    6.015797   6.219941   6.781644   0.000000
    10  C    7.197198   7.216355   7.932290   1.397357   0.000000
    11  C    7.739809   7.555746   8.680662   2.414432   1.520999
    12  H    4.166267   4.863768   4.918714   2.449784   3.842808
    13  H    2.249452   3.504465   2.982109   4.814213   6.171411
    14  H    1.109430   2.156458   2.142577   6.705379   7.944195
    15  H    2.177266   1.102837   3.480586   6.069610   7.035700
    16  H    2.188372   1.105764   2.728314   7.302261   8.263219
    17  H    2.157483   1.103068   2.819720   5.705489   6.578000
    18  H    2.207976   2.803396   1.107723   7.823229   8.943128
    19  H    2.190809   3.483522   1.104430   6.927772   8.152039
    20  H    2.168912   2.751058   1.105624   6.430410   7.471573
    21  H    7.986108   8.142231   8.647279   2.013446   1.104983
    22  H    7.225890   7.132178   7.826378   2.060960   1.101108
    23  H    7.178450   6.814903   8.180223   2.699212   2.138459
    24  H    8.765277   8.509769   9.667044   3.377073   2.192362
    25  H    7.892306   7.809435   8.936486   2.652165   2.168244
                   11         12         13         14         15
    11  C    0.000000
    12  H    4.676096   0.000000
    13  H    6.873964   2.475585   0.000000
    14  H    8.401912   4.689611   2.477566   0.000000
    15  H    7.168114   4.853131   3.726437   2.485161   0.000000
    16  H    8.581053   5.939123   4.388704   2.544997   1.798288
    17  H    6.976863   4.683612   3.804674   3.068482   1.765415
    18  H    9.632646   5.994741   3.963339   2.495113   3.793449
    19  H    9.008983   4.855238   2.782119   2.513264   4.338361
    20  H    8.304399   4.850578   3.401154   3.063972   3.785137
    21  H    2.173775   4.303056   6.739676   8.707029   7.998464
    22  H    2.145845   4.297703   6.453683   8.081701   7.058600
    23  H    1.101954   4.666233   6.604528   7.850943   6.373545
    24  H    1.106085   5.731532   7.954278   9.458432   8.126929
    25  H    1.103452   4.635499   6.836744   8.431491   7.328538
                   16         17         18         19         20
    16  H    0.000000
    17  H    1.804676   0.000000
    18  H    2.557716   3.247050   0.000000
    19  H    3.767371   3.806492   1.791170   0.000000
    20  H    3.035869   2.603725   1.796286   1.779707   0.000000
    21  H    9.202467   7.527986   9.694722   8.754304   8.187045
    22  H    8.120825   6.358699   8.798224   8.119125   7.231716
    23  H    7.795617   6.222335   9.065227   8.626332   7.812089
    24  H    9.505583   7.870242  10.605977  10.017783   9.229760
    25  H    8.861361   7.369127   9.902472   9.198778   8.684447
                   21         22         23         24         25
    21  H    0.000000
    22  H    1.790567   0.000000
    23  H    3.068209   2.435789   0.000000
    24  H    2.526919   2.530669   1.793921   0.000000
    25  H    2.548415   3.068731   1.792582   1.794500   0.000000
 Stoichiometry    C8H14NO2(1-)
 Framework group  C1[X(C8H14NO2)]
 Deg. of freedom    69
 Full point group                 C1      NOp   1
 Largest Abelian subgroup         C1      NOp   1
 Largest concise Abelian subgroup C1      NOp   1
                         Standard orientation:                         
 ---------------------------------------------------------------------
 Center     Atomic      Atomic             Coordinates (Angstroms)
 Number     Number       Type             X           Y           Z
 ---------------------------------------------------------------------
      1          8           0       -1.548559    1.016312    0.672724
      2          6           0       -1.399997   -0.093079    0.182353
      3          6           0       -0.238481   -0.768351   -0.269511
      4          7           0        0.971663   -0.166313   -0.184111
      5          6           0        2.073121   -0.696948   -0.575204
      6          6           0        3.399087    0.012313   -0.398401
      7          6           0        3.197999    1.513580   -0.221802
      8          6           0        4.182623   -0.569475    0.786886
      9          8           0       -2.539805   -0.881446   -0.051166
     10          6           0       -3.739337   -0.360016    0.440607
     11          6           0       -4.309397    0.702326   -0.486699
     12          1           0       -0.351180   -1.779188   -0.687894
     13          1           0        2.102157   -1.719594   -1.013632
     14          1           0        4.007184   -0.163431   -1.309537
     15          1           0        2.720761    1.953788   -1.113267
     16          1           0        4.155693    2.032824   -0.032266
     17          1           0        2.507627    1.692658    0.619671
     18          1           0        5.189362   -0.118424    0.887283
     19          1           0        4.304242   -1.662516    0.685707
     20          1           0        3.621512   -0.386726    1.721852
     21          1           0       -4.437156   -1.211411    0.536327
     22          1           0       -3.589334    0.082903    1.437482
     23          1           0       -3.610960    1.554506   -0.503390
     24          1           0       -5.299503    1.062501   -0.149968
     25          1           0       -4.408848    0.305271   -1.511426
 ---------------------------------------------------------------------
 Rotational constants (GHZ):           3.4024675           0.3773844           0.3600803
 Standard basis: def2SVP (5D, 7F)
 There are   235 symmetry adapted cartesian basis functions of A   symmetry.
 There are   224 symmetry adapted basis functions of A   symmetry.
   224 basis functions,   373 primitive gaussians,   235 cartesian basis functions
    43 alpha electrons       43 beta electrons
       nuclear repulsion energy       598.5666128641 Hartrees.
 NAtoms=   25 NActive=   25 NUniq=   25 SFac= 1.00D+00 NAtFMM=   60 NAOKFM=F Big=F
 Integral buffers will be    131072 words long.
 Raffenetti 2 integral format.
 Two-electron integral symmetry is turned on.
 Nuclear repulsion after empirical dispersion term =      598.5658086777 Hartrees.
 One-electron integrals computed using PRISM.
   1 Symmetry operations used in ECPInt.
 ECPInt:  NShTT=    5886 NPrTT=   20688 LenC2=    5363 LenP2D=   14047.
 LDataN:  DoStor=T MaxTD1= 4 Len=   56
 NBasis=   224 RedAO= T EigKep=  1.31D-03  NBF=   224
 NBsUse=   224 1.00D-06 EigRej= -1.00D+00 NBFU=   224
 Initial guess from the checkpoint file:  "A18_crest_conformers_censo-18.chk"
 B after Tr=     0.000000   -0.000000   -0.000000
         Rot=    0.999940   -0.010916   -0.000043   -0.001247 Ang=  -1.26 deg.
 ExpMin= 1.22D-01 ExpMax= 2.27D+03 ExpMxC= 3.41D+02 IAcc=3 IRadAn=         5 AccDes= 0.00D+00
 Harris functional with IExCor= 1009 and IRadAn=       5 diagonalized for initial guess.
 HarFok:  IExCor= 1009 AccDes= 0.00D+00 IRadAn=         5 IDoV= 1 UseB2=F ITyADJ=14
 ICtDFT=  3500011 ScaDFX=  1.000000  1.000000  1.000000  1.000000
 FoFCou: FMM=F IPFlag=           0 FMFlag=      100000 FMFlg1=           0
         NFxFlg=           0 DoJE=T BraDBF=F KetDBF=T FulRan=T
         wScrn=  0.000000 ICntrl=       500 IOpCl=  0 I1Cent=   200000004 NGrid=           0
         NMat0=    1 NMatS0=      1 NMatT0=    0 NMatD0=    1 NMtDS0=    0 NMtDT0=    0
 Petite list used in FoFCou.
 Requested convergence on RMS density matrix=1.00D-08 within 128 cycles.
 Requested convergence on MAX density matrix=1.00D-06.
 Requested convergence on             energy=1.00D-06.
 No special actions if energy rises.
 Integral accuracy reduced to 1.0D-05 until final iterations.
 Initial convergence to 1.0D-05 achieved.  Increase integral accuracy.
 SCF Done:  E(RM062X) =  -517.869349696     A.U. after   13 cycles
            NFock= 13  Conv=0.46D-08     -V/T= 2.0101
   1 Symmetry operations used in ECPInt.
 ECPInt:  NShTT=    5886 NPrTT=   20688 LenC2=    5363 LenP2D=   14047.
 LDataN:  DoStor=T MaxTD1= 5 Len=  102
 Calling FoFJK, ICntrl=      2127 FMM=F ISym2X=0 I1Cent= 0 IOpClX= 0 NMat=1 NMatS=1 NMatT=0.
 ***** Axes restored to original set *****
 -------------------------------------------------------------------
 Center     Atomic                   Forces (Hartrees/Bohr)
 Number     Number              X              Y              Z
 -------------------------------------------------------------------
      1        8          -0.000576569   -0.005652745    0.004213497
      2        6          -0.006099352    0.008132074   -0.008245058
      3        6           0.000705647   -0.005766545    0.001770913
      4        7           0.002673287    0.002551031   -0.000192077
      5        6           0.000778321    0.000301363    0.000324053
      6        6          -0.000071227    0.001371525   -0.001198462
      7        6           0.000676451   -0.003389464    0.000007458
      8        6          -0.000812853    0.000489844    0.002971560
      9        8           0.001438700    0.002830393    0.003653857
     10        6           0.002224773   -0.000257158   -0.000840699
     11        6           0.001940384   -0.003839290   -0.003843715
     12        1          -0.000051187   -0.000306325    0.000345803
     13        1          -0.000726475   -0.001048453    0.000576250
     14        1          -0.000034075   -0.000944336    0.000512509
     15        1          -0.000935958    0.000601193    0.002117552
     16        1           0.001526428    0.001096291   -0.000087559
     17        1          -0.001961238    0.001155393   -0.001855538
     18        1           0.002030246    0.000814652   -0.000153619
     19        1           0.000056386   -0.001850836   -0.000755478
     20        1          -0.001412710    0.000908244   -0.002060806
     21        1          -0.000780348   -0.000605860   -0.000723278
     22        1          -0.000436281   -0.000207445    0.000740448
     23        1           0.001780674    0.002593068    0.000485778
     24        1          -0.001929920    0.001850691    0.000436053
     25        1          -0.000003103   -0.000827307    0.001800556
 -------------------------------------------------------------------
 Cartesian Forces:  Max     0.008245058 RMS     0.002369068

 GradGradGradGradGradGradGradGradGradGradGradGradGradGradGradGradGradGrad
 Berny optimization.
 Using GEDIIS/GDIIS optimizer.
 FormGI is forming the generalized inverse of G from B-inverse, IUseBI=4.
 Internal  Forces:  Max     0.005956436 RMS     0.001432918
 Search for a local minimum.
 Step number   4 out of a maximum of  121
 All quantities printed in internal units (Hartrees-Bohrs-Radians)
 Mixed Optimization -- RFO/linear search
 Update second derivatives using D2CorX and points    2    3    4
 DE= -6.63D-05 DEPred=-5.50D-04 R= 1.21D-01
 Trust test= 1.21D-01 RLast= 2.99D-01 DXMaxT set to 7.48D-01
 ITU=  0  1  1  0
 Use linear search instead of GDIIS.
     Eigenvalues ---    0.00282   0.00354   0.00375   0.00457   0.01226
     Eigenvalues ---    0.01402   0.01677   0.02294   0.02358   0.02492
     Eigenvalues ---    0.03335   0.04142   0.04863   0.05002   0.05318
     Eigenvalues ---    0.05455   0.05488   0.05652   0.05750   0.05776
     Eigenvalues ---    0.05803   0.05846   0.06622   0.11612   0.14037
     Eigenvalues ---    0.15611   0.15997   0.16000   0.16000   0.16000
     Eigenvalues ---    0.16000   0.16000   0.16000   0.16017   0.16090
     Eigenvalues ---    0.16199   0.16798   0.18160   0.21224   0.22286
     Eigenvalues ---    0.23205   0.24709   0.25056   0.25200   0.26161
     Eigenvalues ---    0.28885   0.29521   0.29894   0.32909   0.33095
     Eigenvalues ---    0.33485   0.33720   0.33805   0.33968   0.34632
     Eigenvalues ---    0.34738   0.34901   0.34932   0.35017   0.35098
     Eigenvalues ---    0.35134   0.35321   0.37377   0.40765   0.46618
     Eigenvalues ---    0.50425   0.60259   0.74113   0.94327
 RFO step:  Lambda=-4.76446704D-04 EMin= 2.82019844D-03
 Quartic linear search produced a step of -0.45226.
 Iteration  1 RMS(Cart)=  0.05886021 RMS(Int)=  0.00114061
 Iteration  2 RMS(Cart)=  0.00183145 RMS(Int)=  0.00003871
 Iteration  3 RMS(Cart)=  0.00000157 RMS(Int)=  0.00003870
 Iteration  4 RMS(Cart)=  0.00000000 RMS(Int)=  0.00003870
 Variable       Old X    -DE/DX   Delta X   Delta X   Delta X     New X
                                 (Linear)    (Quad)   (Total)
    R1        2.30924   0.00596   0.00109   0.00215   0.00324   2.31249
    R2        2.67868  -0.00459  -0.00445  -0.00009  -0.00454   2.67413
    R3        2.65587   0.00436   0.00910  -0.00539   0.00371   2.65958
    R4        2.55930  -0.00250   0.00016  -0.00303  -0.00287   2.55643
    R5        2.07830  -0.00034   0.00046  -0.00121  -0.00076   2.07754
    R6        2.42573   0.00045  -0.00025   0.00039   0.00014   2.42587
    R7        2.86123   0.00072   0.00191  -0.00182   0.00009   2.86132
    R8        2.10335  -0.00109  -0.00073  -0.00093  -0.00166   2.10169
    R9        2.88171   0.00041   0.00244  -0.00258  -0.00014   2.88157
   R10        2.90140   0.00012   0.00200  -0.00246  -0.00047   2.90093
   R11        2.09652  -0.00074  -0.00126   0.00025  -0.00101   2.09551
   R12        2.08406  -0.00238  -0.00091  -0.00274  -0.00366   2.08040
   R13        2.08959  -0.00187  -0.00096  -0.00197  -0.00293   2.08666
   R14        2.08450  -0.00293  -0.00157  -0.00270  -0.00428   2.08022
   R15        2.09329  -0.00218  -0.00109  -0.00231  -0.00339   2.08990
   R16        2.08707  -0.00197  -0.00114  -0.00188  -0.00303   2.08404
   R17        2.08933  -0.00265  -0.00175  -0.00214  -0.00388   2.08544
   R18        2.64062   0.00261  -0.00029   0.00310   0.00281   2.64343
   R19        2.87427   0.00163   0.00143   0.00112   0.00255   2.87682
   R20        2.08811  -0.00115   0.00000  -0.00194  -0.00193   2.08618
   R21        2.08079   0.00074  -0.00047   0.00161   0.00114   2.08194
   R22        2.08239  -0.00314  -0.00071  -0.00400  -0.00471   2.07768
   R23        2.09020  -0.00242  -0.00155  -0.00203  -0.00358   2.08662
   R24        2.08522  -0.00191  -0.00106  -0.00190  -0.00296   2.08226
    A1        2.29165  -0.00144   0.00277  -0.00636  -0.00342   2.28823
    A2        2.06841   0.00056  -0.00149   0.00294   0.00162   2.07004
    A3        1.92235   0.00101  -0.00141   0.00377   0.00253   1.92488
    A4        2.09476   0.00181   0.00480  -0.00175   0.00306   2.09781
    A5        2.06594  -0.00093  -0.00271   0.00117  -0.00154   2.06440
    A6        2.12249  -0.00088  -0.00209   0.00057  -0.00151   2.12097
    A7        2.16972   0.00007   0.00064  -0.00115  -0.00052   2.16920
    A8        2.12026   0.00193   0.00099   0.00267   0.00367   2.12393
    A9        2.12023  -0.00022  -0.00004   0.00080   0.00076   2.12099
   A10        2.04153  -0.00171  -0.00112  -0.00327  -0.00439   2.03714
   A11        1.93822   0.00083   0.00192   0.00114   0.00307   1.94128
   A12        1.93859  -0.00047  -0.00119   0.00101  -0.00018   1.93841
   A13        1.88589   0.00013  -0.00002   0.00163   0.00161   1.88750
   A14        1.92937  -0.00015  -0.00093   0.00095   0.00001   1.92938
   A15        1.90005  -0.00037  -0.00012  -0.00213  -0.00225   1.89780
   A16        1.86949  -0.00001   0.00031  -0.00281  -0.00250   1.86699
   A17        1.93523  -0.00034  -0.00085  -0.00020  -0.00105   1.93417
   A18        1.94758  -0.00025  -0.00045  -0.00033  -0.00078   1.94680
   A19        1.90784   0.00010  -0.00200   0.00286   0.00086   1.90870
   A20        1.90277   0.00026  -0.00073   0.00151   0.00078   1.90354
   A21        1.85563   0.00017   0.00359  -0.00359  -0.00000   1.85563
   A22        1.91247   0.00009   0.00065  -0.00040   0.00025   1.91272
   A23        1.96003  -0.00031  -0.00118  -0.00006  -0.00123   1.95880
   A24        1.93959  -0.00024  -0.00093   0.00036  -0.00057   1.93903
   A25        1.90838   0.00003  -0.00201   0.00299   0.00098   1.90936
   A26        1.88726   0.00017   0.00084  -0.00098  -0.00014   1.88713
   A27        1.89367   0.00009   0.00123  -0.00145  -0.00021   1.89346
   A28        1.87229   0.00029   0.00226  -0.00100   0.00126   1.87355
   A29        2.01351   0.00305   0.00115   0.00394   0.00509   2.01860
   A30        1.94744   0.00324  -0.00277   0.01127   0.00849   1.95593
   A31        1.85989  -0.00100   0.00436  -0.00990  -0.00553   1.85436
   A32        1.93026  -0.00144  -0.00214   0.00113  -0.00105   1.92921
   A33        1.93294  -0.00173  -0.00210  -0.00359  -0.00568   1.92726
   A34        1.89871   0.00044   0.00064   0.00338   0.00402   1.90272
   A35        1.89393   0.00036   0.00213  -0.00288  -0.00076   1.89317
   A36        1.88790   0.00044   0.00250  -0.00079   0.00172   1.88962
   A37        1.95770  -0.00154  -0.00455   0.00061  -0.00395   1.95376
   A38        1.92690  -0.00044   0.00081  -0.00325  -0.00244   1.92446
   A39        1.89668   0.00086   0.00026   0.00385   0.00411   1.90079
   A40        1.89793   0.00014  -0.00072   0.00208   0.00137   1.89929
   A41        1.89569   0.00060   0.00176  -0.00230  -0.00056   1.89514
    D1        0.00321  -0.00174  -0.01295  -0.01548  -0.02836  -0.02514
    D2       -3.13490  -0.00199  -0.01670  -0.01430  -0.03093   3.11736
    D3        3.10093   0.00201   0.03025  -0.00534   0.02484   3.12577
    D4       -0.03718   0.00176   0.02650  -0.00416   0.02227  -0.01492
    D5       -0.11409   0.00320   0.03152   0.04752   0.07921  -0.03488
    D6        3.06501   0.00006  -0.00526   0.03913   0.03370   3.09871
    D7       -3.13356   0.00008   0.00149  -0.00088   0.00061  -3.13295
    D8        0.00444   0.00034   0.00536  -0.00209   0.00327   0.00771
    D9       -3.09816   0.00011   0.00281  -0.00128   0.00153  -3.09664
   D10       -0.00987   0.00010  -0.00083   0.00301   0.00219  -0.00768
   D11       -0.36663   0.00041  -0.03543   0.08090   0.04548  -0.32115
   D12        1.78809   0.00048  -0.03610   0.08367   0.04757   1.83566
   D13       -2.44935   0.00028  -0.03641   0.08182   0.04540  -2.40395
   D14        2.82596   0.00038  -0.03198   0.07669   0.04471   2.87067
   D15       -1.30250   0.00045  -0.03266   0.07946   0.04680  -1.25570
   D16        0.74324   0.00025  -0.03296   0.07760   0.04464   0.78788
   D17       -1.07555  -0.00018  -0.00981   0.02306   0.01325  -1.06229
   D18        3.08287  -0.00009  -0.00796   0.02150   0.01354   3.09640
   D19        0.96465  -0.00011  -0.00714   0.02029   0.01315   0.97780
   D20        3.04765  -0.00006  -0.00898   0.02028   0.01130   3.05895
   D21        0.92287   0.00002  -0.00713   0.01872   0.01158   0.93446
   D22       -1.19534   0.00001  -0.00631   0.01751   0.01120  -1.18414
   D23        0.99868   0.00026  -0.00875   0.02441   0.01566   1.01435
   D24       -1.12609   0.00034  -0.00690   0.02285   0.01595  -1.11014
   D25        3.03889   0.00032  -0.00608   0.02164   0.01556   3.05444
   D26        3.06494  -0.00028   0.00502  -0.01270  -0.00768   3.05726
   D27        0.94830  -0.00011   0.00541  -0.01165  -0.00624   0.94206
   D28       -1.11525  -0.00034   0.00445  -0.01252  -0.00807  -1.12332
   D29       -1.05847   0.00036   0.00598  -0.00984  -0.00385  -1.06232
   D30        3.10808   0.00052   0.00638  -0.00879  -0.00241   3.10566
   D31        1.04453   0.00029   0.00542  -0.00966  -0.00424   1.04028
   D32        1.00921  -0.00017   0.00551  -0.01353  -0.00802   1.00119
   D33       -1.10743  -0.00000   0.00591  -0.01249  -0.00658  -1.11401
   D34        3.11221  -0.00023   0.00494  -0.01336  -0.00841   3.10380
   D35        1.39845   0.00193   0.04725  -0.03436   0.01289   1.41134
   D36       -2.77279   0.00107   0.04583  -0.03850   0.00732  -2.76547
   D37       -0.71759   0.00016   0.04976  -0.04710   0.00267  -0.71492
   D38       -1.13180  -0.00016   0.00577  -0.00709  -0.00133  -1.13313
   D39        3.05981  -0.00057   0.00661  -0.01173  -0.00513   3.05467
   D40        0.94296   0.00003   0.00690  -0.00693  -0.00005   0.94291
   D41        3.08257   0.00013   0.00347   0.00041   0.00389   3.08646
   D42        0.99099  -0.00028   0.00430  -0.00423   0.00008   0.99107
   D43       -1.12586   0.00032   0.00460   0.00057   0.00517  -1.12069
   D44        1.00248   0.00045   0.00173   0.00399   0.00574   1.00822
   D45       -1.08910   0.00003   0.00256  -0.00065   0.00193  -1.08716
   D46        3.07724   0.00063   0.00286   0.00416   0.00702   3.08426
         Item               Value     Threshold  Converged?
 Maximum Force            0.005956     0.000450     NO 
 RMS     Force            0.001433     0.000300     NO 
 Maximum Displacement     0.202339     0.001800     NO 
 RMS     Displacement     0.059147     0.001200     NO 
 Predicted change in Energy=-4.465428D-04
 GradGradGradGradGradGradGradGradGradGradGradGradGradGradGradGradGradGrad

                          Input orientation:                          
 ---------------------------------------------------------------------
 Center     Atomic      Atomic             Coordinates (Angstroms)
 Number     Number       Type             X           Y           Z
 ---------------------------------------------------------------------
      1          8           0        1.501119   -1.208247    0.275472
      2          6           0        1.379527    0.001790    0.139431
      3          6           0        0.231203    0.805293   -0.056061
      4          7           0       -0.991549    0.233823   -0.147599
      5          6           0       -2.082082    0.885089   -0.333374
      6          6           0       -3.427057    0.190566   -0.369624
      7          6           0       -3.269213   -1.305878   -0.616491
      8          6           0       -4.213448    0.443132    0.924342
      9          8           0        2.534893    0.804246    0.183383
     10          6           0        3.734142    0.126529    0.426825
     11          6           0        4.289406   -0.523792   -0.832664
     12          1           0        0.363890    1.894074   -0.130928
     13          1           0       -2.088917    1.993352   -0.426220
     14          1           0       -4.019299    0.627853   -1.198886
     15          1           0       -2.780100   -1.493273   -1.584808
     16          1           0       -4.243693   -1.824859   -0.598215
     17          1           0       -2.608128   -1.734799    0.152120
     18          1           0       -5.232890    0.016255    0.884504
     19          1           0       -4.301459    1.522830    1.131069
     20          1           0       -3.676496   -0.011920    1.774328
     21          1           0        4.441372    0.879992    0.815218
     22          1           0        3.590968   -0.647722    1.197414
     23          1           0        3.586327   -1.304825   -1.155904
     24          1           0        5.278514   -0.982629   -0.658398
     25          1           0        4.385570    0.223011   -1.637144
 ---------------------------------------------------------------------
                    Distance matrix (angstroms):
                    1          2          3          4          5
     1  O    0.000000
     2  C    1.223716   0.000000
     3  C    2.403527   1.415091   0.000000
     4  N    2.910660   2.399631   1.352804   0.000000
     5  C    4.194291   3.603679   2.331214   1.283715   0.000000
     6  C    5.163307   4.837150   3.722778   2.445990   1.514144
     7  C    4.853988   4.887965   4.126020   2.788960   2.507942
     8  C    5.983674   5.665002   4.565882   3.401986   2.513940
     9  O    2.264354   1.407387   2.316100   3.587579   4.646507
    10  C    2.605941   2.375367   3.600622   4.761683   5.914540
    11  C    3.077497   3.112651   4.340344   5.378827   6.544471
    12  H    3.329091   2.164568   1.099389   2.143344   2.653642
    13  H    4.861169   4.039355   2.632767   2.092317   1.112167
    14  H    6.001667   5.597354   4.405032   3.229200   2.137309
    15  H    4.676614   4.744546   4.085146   2.871819   2.776675
    16  H    5.843493   5.958303   5.218844   3.875264   3.476567
    17  H    4.144681   4.349402   3.815391   2.564884   2.715924
    18  H    6.871477   6.654278   5.600318   4.370533   3.487935
    19  H    6.469987   5.964102   4.740165   3.775187   2.734399
    20  H    5.521364   5.313798   4.391842   3.311063   2.790912
    21  H    3.646526   3.256197   4.300026   5.555283   6.623801
    22  H    2.351942   2.536072   3.869169   4.856505   6.072587
    23  H    2.531059   2.873169   4.113285   4.933667   6.132141
    24  H    3.897657   4.099721   5.388397   6.407368   7.600815
    25  H    3.745218   3.498778   4.483039   5.579629   6.630889
                    6          7          8          9         10
     6  C    0.000000
     7  C    1.524862   0.000000
     8  C    1.535106   2.514912   0.000000
     9  O    6.018909   6.227365   6.798495   0.000000
    10  C    7.205637   7.224077   7.969439   1.398844   0.000000
    11  C    7.763280   7.602047   8.736163   2.423707   1.522349
    12  H    4.162954   4.865687   4.916386   2.449443   3.846285
    13  H    2.245854   3.509163   2.956490   4.813025   6.174199
    14  H    1.108894   2.154328   2.140074   6.700687   7.937891
    15  H    2.174981   1.100903   3.478504   6.054275   7.007551
    16  H    2.186569   1.104213   2.731827   7.312477   8.276743
    17  H    2.156361   1.100804   2.813675   5.735712   6.615466
    18  H    2.205506   2.803043   1.105927   7.839066   8.979382
    19  H    2.188969   3.481535   1.102828   6.939033   8.186361
    20  H    2.167890   2.748858   1.103569   6.463636   7.533425
    21  H    7.986947   8.141311   8.666525   2.009879   1.103961
    22  H    7.239544   7.126395   7.885013   2.061981   1.101713
    23  H    7.214013   6.876729   8.259496   2.710606   2.139078
    24  H    8.789013   8.553940   9.728063   3.380677   2.189298
    25  H    7.914847   7.872417   8.975120   2.660292   2.166479
                   11         12         13         14         15
    11  C    0.000000
    12  H    4.663496   0.000000
    13  H    6.869077   2.472512   0.000000
    14  H    8.396129   4.685744   2.487564   0.000000
    15  H    7.175202   4.844849   3.738531   2.486710   0.000000
    16  H    8.634902   5.939583   4.387639   2.535143   1.795945
    17  H    7.071938   4.699120   3.808303   3.065737   1.762052
    18  H    9.690947   5.990096   3.938462   2.487443   3.793726
    19  H    9.046981   4.847260   2.746249   2.511830   4.334443
    20  H    8.397263   4.856700   3.374009   3.060527   3.779117
    21  H    2.170073   4.306903   6.739838   8.700755   7.971334
    22  H    2.150440   4.317320   6.470900   8.079944   7.003300
    23  H    1.099462   4.654852   6.604454   7.847461   6.383641
    24  H    1.104190   5.719020   7.949177   9.451725   8.127746
    25  H    1.101885   4.608151   6.820515   8.426018   7.368528
                   16         17         18         19         20
    16  H    0.000000
    17  H    1.801718   0.000000
    18  H    2.562551   3.239129   0.000000
    19  H    3.768392   3.799718   1.788331   0.000000
    20  H    3.039312   2.596398   1.793026   1.777588   0.000000
    21  H    9.205670   7.547998   9.712991   8.772120   8.222845
    22  H    8.123537   6.379903   8.854335   8.185725   7.317999
    23  H    7.867063   6.345634   9.148067   8.685796   7.937662
    24  H    9.559572   7.963782  10.670892  10.062574   9.330201
    25  H    8.929576   7.479725   9.945664   9.209615   8.757297
                   21         22         23         24         25
    21  H    0.000000
    22  H    1.789740   0.000000
    23  H    3.064286   2.443340   0.000000
    24  H    2.518275   2.530615   1.792992   0.000000
    25  H    2.539452   3.069900   1.790158   1.791329   0.000000
 Stoichiometry    C8H14NO2(1-)
 Framework group  C1[X(C8H14NO2)]
 Deg. of freedom    69
 Full point group                 C1      NOp   1
 Largest Abelian subgroup         C1      NOp   1
 Largest concise Abelian subgroup C1      NOp   1
                         Standard orientation:                         
 ---------------------------------------------------------------------
 Center     Atomic      Atomic             Coordinates (Angstroms)
 Number     Number       Type             X           Y           Z
 ---------------------------------------------------------------------
      1          8           0       -1.543506    1.036351    0.682738
      2          6           0       -1.400804   -0.073809    0.188106
      3          6           0       -0.240766   -0.753684   -0.252989
      4          7           0        0.968710   -0.151756   -0.182778
      5          6           0        2.068181   -0.690765   -0.568206
      6          6           0        3.398443    0.014867   -0.409715
      7          6           0        3.206907    1.512168   -0.193829
      8          6           0        4.213139   -0.595269    0.739438
      9          8           0       -2.539275   -0.880106    0.002345
     10          6           0       -3.746886   -0.335798    0.451977
     11          6           0       -4.337678    0.648876   -0.547488
     12          1           0       -0.353502   -1.772703   -0.649911
     13          1           0        2.094969   -1.719602   -0.989743
     14          1           0        3.983858   -0.139029   -1.338828
     15          1           0        2.696609    1.969617   -1.055410
     16          1           0        4.171233    2.025102   -0.031778
     17          1           0        2.551728    1.674624    0.675721
     18          1           0        5.223148   -0.151645    0.817877
     19          1           0        4.325991   -1.684794    0.611260
     20          1           0        3.683025   -0.429316    1.693012
     21          1           0       -4.432042   -1.187913    0.604259
     22          1           0       -3.604804    0.174780    1.417841
     23          1           0       -3.656018    1.507633   -0.629300
     24          1           0       -5.332211    1.010281   -0.232011
     25          1           0       -4.433922    0.175776   -1.537974
 ---------------------------------------------------------------------
 Rotational constants (GHZ):           3.4266116           0.3749831           0.3580864
 Standard basis: def2SVP (5D, 7F)
 There are   235 symmetry adapted cartesian basis functions of A   symmetry.
 There are   224 symmetry adapted basis functions of A   symmetry.
   224 basis functions,   373 primitive gaussians,   235 cartesian basis functions
    43 alpha electrons       43 beta electrons
       nuclear repulsion energy       597.7964647656 Hartrees.
 NAtoms=   25 NActive=   25 NUniq=   25 SFac= 1.00D+00 NAtFMM=   60 NAOKFM=F Big=F
 Integral buffers will be    131072 words long.
 Raffenetti 2 integral format.
 Two-electron integral symmetry is turned on.
 Nuclear repulsion after empirical dispersion term =      597.7956598607 Hartrees.
 One-electron integrals computed using PRISM.
   1 Symmetry operations used in ECPInt.
 ECPInt:  NShTT=    5886 NPrTT=   20688 LenC2=    5357 LenP2D=   14034.
 LDataN:  DoStor=T MaxTD1= 4 Len=   56
 NBasis=   224 RedAO= T EigKep=  1.29D-03  NBF=   224
 NBsUse=   224 1.00D-06 EigRej= -1.00D+00 NBFU=   224
 Initial guess from the checkpoint file:  "A18_crest_conformers_censo-18.chk"
 B after Tr=    -0.000000   -0.000000    0.000000
         Rot=    0.999992    0.004001   -0.000694   -0.000192 Ang=   0.47 deg.
 ExpMin= 1.22D-01 ExpMax= 2.27D+03 ExpMxC= 3.41D+02 IAcc=3 IRadAn=         5 AccDes= 0.00D+00
 Harris functional with IExCor= 1009 and IRadAn=       5 diagonalized for initial guess.
 HarFok:  IExCor= 1009 AccDes= 0.00D+00 IRadAn=         5 IDoV= 1 UseB2=F ITyADJ=14
 ICtDFT=  3500011 ScaDFX=  1.000000  1.000000  1.000000  1.000000
 FoFCou: FMM=F IPFlag=           0 FMFlag=      100000 FMFlg1=           0
         NFxFlg=           0 DoJE=T BraDBF=F KetDBF=T FulRan=T
         wScrn=  0.000000 ICntrl=       500 IOpCl=  0 I1Cent=   200000004 NGrid=           0
         NMat0=    1 NMatS0=      1 NMatT0=    0 NMatD0=    1 NMtDS0=    0 NMtDT0=    0
 Petite list used in FoFCou.
 Requested convergence on RMS density matrix=1.00D-08 within 128 cycles.
 Requested convergence on MAX density matrix=1.00D-06.
 Requested convergence on             energy=1.00D-06.
 No special actions if energy rises.
 Integral accuracy reduced to 1.0D-05 until final iterations.
 Initial convergence to 1.0D-05 achieved.  Increase integral accuracy.
 SCF Done:  E(RM062X) =  -517.869902344     A.U. after   13 cycles
            NFock= 13  Conv=0.33D-08     -V/T= 2.0101
   1 Symmetry operations used in ECPInt.
 ECPInt:  NShTT=    5886 NPrTT=   20688 LenC2=    5357 LenP2D=   14034.
 LDataN:  DoStor=T MaxTD1= 5 Len=  102
 Calling FoFJK, ICntrl=      2127 FMM=F ISym2X=0 I1Cent= 0 IOpClX= 0 NMat=1 NMatS=1 NMatT=0.
 ***** Axes restored to original set *****
 -------------------------------------------------------------------
 Center     Atomic                   Forces (Hartrees/Bohr)
 Number     Number              X              Y              Z
 -------------------------------------------------------------------
      1        8           0.000905447   -0.003103483    0.000178707
      2        6          -0.004542645    0.004648797   -0.000103261
      3        6           0.001180334   -0.003772129   -0.000122252
      4        7           0.001130099    0.001568953   -0.000574546
      5        6           0.000398788   -0.000505926    0.000644912
      6        6           0.000170143    0.001054312   -0.000940339
      7        6           0.000474126   -0.001857335   -0.000012205
      8        6          -0.000474886    0.000512126    0.001826072
      9        8           0.001751864    0.001002674    0.000504473
     10        6           0.001300662    0.000386048    0.000531367
     11        6           0.000317579   -0.001383676   -0.002106225
     12        1           0.000030181    0.000069972   -0.000076200
     13        1          -0.000550411   -0.000401594    0.000500135
     14        1          -0.000214129   -0.000617601    0.000060292
     15        1          -0.000438724    0.000421315    0.001092979
     16        1           0.000710434    0.000666139    0.000048395
     17        1          -0.000924479    0.000453796   -0.000943847
     18        1           0.001035897    0.000367955   -0.000147670
     19        1          -0.000031258   -0.000865086   -0.000431303
     20        1          -0.000695517    0.000408895   -0.001050427
     21        1          -0.000181759   -0.000268634   -0.000370185
     22        1          -0.000518078   -0.000033782    0.000001774
     23        1           0.000564494    0.000852000    0.000076541
     24        1          -0.001311958    0.000917029    0.000593861
     25        1          -0.000086205   -0.000520766    0.000818952
 -------------------------------------------------------------------
 Cartesian Forces:  Max     0.004648797 RMS     0.001214760

 GradGradGradGradGradGradGradGradGradGradGradGradGradGradGradGradGradGrad
 Berny optimization.
 Using GEDIIS/GDIIS optimizer.
 FormGI is forming the generalized inverse of G from B-inverse, IUseBI=4.
 Internal  Forces:  Max     0.003178154 RMS     0.000686238
 Search for a local minimum.
 Step number   5 out of a maximum of  121
 All quantities printed in internal units (Hartrees-Bohrs-Radians)
 Mixed Optimization -- En-DIIS/RFO-DIIS
 Update second derivatives using D2CorX and points    2    3    4    5
 DE= -5.53D-04 DEPred=-4.47D-04 R= 1.24D+00
 TightC=F SS=  1.41D+00  RLast= 1.61D-01 DXNew= 1.2584D+00 4.8204D-01
 Trust test= 1.24D+00 RLast= 1.61D-01 DXMaxT set to 7.48D-01
 ITU=  1  0  1  1  0
 Use linear search instead of GDIIS.
     Eigenvalues ---    0.00168   0.00291   0.00371   0.00438   0.01226
     Eigenvalues ---    0.01414   0.01708   0.02333   0.02360   0.02493
     Eigenvalues ---    0.03347   0.04130   0.04867   0.05031   0.05327
     Eigenvalues ---    0.05464   0.05500   0.05639   0.05738   0.05780
     Eigenvalues ---    0.05794   0.05851   0.07428   0.11737   0.14022
     Eigenvalues ---    0.15785   0.15966   0.15998   0.16000   0.16000
     Eigenvalues ---    0.16000   0.16000   0.16000   0.16008   0.16029
     Eigenvalues ---    0.16174   0.16834   0.18190   0.21774   0.22634
     Eigenvalues ---    0.23066   0.24795   0.25005   0.25865   0.28724
     Eigenvalues ---    0.29100   0.29910   0.30526   0.32994   0.33220
     Eigenvalues ---    0.33489   0.33771   0.33844   0.34002   0.34632
     Eigenvalues ---    0.34744   0.34881   0.34923   0.35016   0.35126
     Eigenvalues ---    0.35143   0.35346   0.37267   0.38617   0.47480
     Eigenvalues ---    0.47814   0.59152   0.74228   0.90761
 RFO step:  Lambda=-5.54986588D-04 EMin= 1.68152121D-03
 Quartic linear search produced a step of  0.34273.
 Iteration  1 RMS(Cart)=  0.12680306 RMS(Int)=  0.00492573
 Iteration  2 RMS(Cart)=  0.00927988 RMS(Int)=  0.00003998
 Iteration  3 RMS(Cart)=  0.00003873 RMS(Int)=  0.00003620
 Iteration  4 RMS(Cart)=  0.00000000 RMS(Int)=  0.00003620
 Variable       Old X    -DE/DX   Delta X   Delta X   Delta X     New X
                                 (Linear)    (Quad)   (Total)
    R1        2.31249   0.00318   0.00111   0.00423   0.00535   2.31783
    R2        2.67413  -0.00286  -0.00156  -0.00334  -0.00490   2.66924
    R3        2.65958   0.00206   0.00127  -0.00507  -0.00380   2.65578
    R4        2.55643  -0.00104  -0.00098  -0.00360  -0.00458   2.55185
    R5        2.07754   0.00008  -0.00026  -0.00032  -0.00057   2.07697
    R6        2.42587   0.00018   0.00005   0.00052   0.00056   2.42643
    R7        2.86132   0.00011   0.00003  -0.00314  -0.00311   2.85821
    R8        2.10169  -0.00044  -0.00057  -0.00102  -0.00159   2.10010
    R9        2.88157   0.00027  -0.00005  -0.00249  -0.00254   2.87903
   R10        2.90093   0.00032  -0.00016  -0.00144  -0.00160   2.89933
   R11        2.09551  -0.00017  -0.00035   0.00111   0.00076   2.09627
   R12        2.08040  -0.00123  -0.00125  -0.00449  -0.00575   2.07466
   R13        2.08666  -0.00094  -0.00100  -0.00315  -0.00415   2.08251
   R14        2.08022  -0.00139  -0.00147  -0.00406  -0.00553   2.07469
   R15        2.08990  -0.00109  -0.00116  -0.00371  -0.00487   2.08503
   R16        2.08404  -0.00093  -0.00104  -0.00273  -0.00377   2.08027
   R17        2.08544  -0.00132  -0.00133  -0.00356  -0.00489   2.08055
   R18        2.64343   0.00002   0.00096   0.00098   0.00194   2.64537
   R19        2.87682   0.00038   0.00087   0.00028   0.00116   2.87798
   R20        2.08618  -0.00043  -0.00066  -0.00209  -0.00276   2.08343
   R21        2.08194   0.00009   0.00039   0.00138   0.00177   2.08370
   R22        2.07768  -0.00099  -0.00161  -0.00405  -0.00566   2.07202
   R23        2.08662  -0.00146  -0.00123  -0.00459  -0.00582   2.08080
   R24        2.08226  -0.00096  -0.00102  -0.00297  -0.00398   2.07828
    A1        2.28823   0.00023  -0.00117  -0.00337  -0.00473   2.28349
    A2        2.07004  -0.00110   0.00056  -0.00362  -0.00325   2.06678
    A3        1.92488   0.00088   0.00087   0.00698   0.00766   1.93254
    A4        2.09781   0.00135   0.00105   0.00273   0.00377   2.10159
    A5        2.06440  -0.00069  -0.00053  -0.00101  -0.00154   2.06286
    A6        2.12097  -0.00066  -0.00052  -0.00171  -0.00223   2.11874
    A7        2.16920   0.00010  -0.00018  -0.00085  -0.00102   2.16818
    A8        2.12393   0.00133   0.00126   0.00804   0.00922   2.13315
    A9        2.12099  -0.00012   0.00026   0.00152   0.00171   2.12270
   A10        2.03714  -0.00121  -0.00151  -0.00857  -0.01015   2.02699
   A11        1.94128   0.00030   0.00105   0.00188   0.00293   1.94422
   A12        1.93841  -0.00030  -0.00006   0.00018   0.00011   1.93852
   A13        1.88750   0.00021   0.00055   0.00550   0.00605   1.89355
   A14        1.92938   0.00011   0.00000   0.00251   0.00250   1.93189
   A15        1.89780  -0.00025  -0.00077  -0.00479  -0.00557   1.89224
   A16        1.86699  -0.00008  -0.00086  -0.00564  -0.00650   1.86049
   A17        1.93417  -0.00025  -0.00036  -0.00120  -0.00156   1.93261
   A18        1.94680  -0.00035  -0.00027  -0.00335  -0.00361   1.94319
   A19        1.90870   0.00022   0.00029   0.00568   0.00598   1.91468
   A20        1.90354   0.00030   0.00027   0.00385   0.00412   1.90766
   A21        1.85563   0.00006  -0.00000  -0.00438  -0.00438   1.85125
   A22        1.91272   0.00005   0.00009  -0.00065  -0.00056   1.91216
   A23        1.95880  -0.00030  -0.00042  -0.00269  -0.00311   1.95569
   A24        1.93903  -0.00018  -0.00019  -0.00024  -0.00044   1.93858
   A25        1.90936   0.00009   0.00034   0.00522   0.00556   1.91492
   A26        1.88713   0.00014  -0.00005  -0.00157  -0.00162   1.88551
   A27        1.89346   0.00008  -0.00007  -0.00148  -0.00155   1.89191
   A28        1.87355   0.00020   0.00043   0.00080   0.00123   1.87478
   A29        2.01860  -0.00128   0.00174  -0.00787  -0.00613   2.01247
   A30        1.95593  -0.00009   0.00291   0.00382   0.00672   1.96265
   A31        1.85436   0.00027  -0.00189  -0.00289  -0.00478   1.84958
   A32        1.92921  -0.00040  -0.00036  -0.00465  -0.00504   1.92417
   A33        1.92726  -0.00017  -0.00195   0.00117  -0.00076   1.92650
   A34        1.90272   0.00024   0.00138   0.00171   0.00308   1.90580
   A35        1.89317   0.00016  -0.00026   0.00065   0.00038   1.89356
   A36        1.88962   0.00043   0.00059   0.00296   0.00356   1.89318
   A37        1.95376  -0.00131  -0.00135  -0.00819  -0.00957   1.94419
   A38        1.92446  -0.00007  -0.00084  -0.00279  -0.00366   1.92080
   A39        1.90079   0.00048   0.00141   0.00610   0.00753   1.90832
   A40        1.89929  -0.00004   0.00047   0.00262   0.00309   1.90239
   A41        1.89514   0.00054  -0.00019  -0.00031  -0.00056   1.89458
    D1       -0.02514   0.00031  -0.00972  -0.00289  -0.01259  -0.03773
    D2        3.11736   0.00031  -0.01060  -0.00367  -0.01425   3.10311
    D3        3.12577  -0.00018   0.00851  -0.00028   0.00822   3.13399
    D4       -0.01492  -0.00019   0.00763  -0.00106   0.00655  -0.00836
    D5       -0.03488   0.00026   0.02715   0.04683   0.07402   0.03913
    D6        3.09871   0.00069   0.01155   0.04459   0.05610  -3.12837
    D7       -3.13295  -0.00001   0.00021  -0.00105  -0.00084  -3.13378
    D8        0.00771  -0.00001   0.00112  -0.00024   0.00088   0.00859
    D9       -3.09664  -0.00010   0.00052  -0.01891  -0.01844  -3.11507
   D10       -0.00768   0.00000   0.00075   0.00401   0.00482  -0.00287
   D11       -0.32115   0.00039   0.01559   0.15735   0.17293  -0.14822
   D12        1.83566   0.00053   0.01630   0.16208   0.17837   2.01403
   D13       -2.40395   0.00038   0.01556   0.15865   0.17418  -2.22977
   D14        2.87067   0.00027   0.01532   0.13522   0.15057   3.02124
   D15       -1.25570   0.00041   0.01604   0.13995   0.15601  -1.09969
   D16        0.78788   0.00026   0.01530   0.13651   0.15182   0.93970
   D17       -1.06229  -0.00012   0.00454   0.03341   0.03796  -1.02433
   D18        3.09640  -0.00007   0.00464   0.03164   0.03628   3.13269
   D19        0.97780  -0.00006   0.00451   0.03080   0.03531   1.01311
   D20        3.05895  -0.00002   0.00387   0.03003   0.03391   3.09285
   D21        0.93446   0.00002   0.00397   0.02826   0.03223   0.96669
   D22       -1.18414   0.00004   0.00384   0.02742   0.03126  -1.15289
   D23        1.01435   0.00016   0.00537   0.03828   0.04365   1.05799
   D24       -1.11014   0.00021   0.00547   0.03651   0.04197  -1.06817
   D25        3.05444   0.00022   0.00533   0.03567   0.04100   3.09544
   D26        3.05726  -0.00010  -0.00263  -0.00954  -0.01217   3.04509
   D27        0.94206   0.00006  -0.00214  -0.00548  -0.00761   0.93445
   D28       -1.12332  -0.00014  -0.00276  -0.00960  -0.01237  -1.13568
   D29       -1.06232   0.00015  -0.00132  -0.00519  -0.00651  -1.06884
   D30        3.10566   0.00031  -0.00083  -0.00113  -0.00195   3.10371
   D31        1.04028   0.00012  -0.00145  -0.00525  -0.00671   1.03358
   D32        1.00119  -0.00013  -0.00275  -0.01289  -0.01564   0.98555
   D33       -1.11401   0.00002  -0.00226  -0.00882  -0.01108  -1.12509
   D34        3.10380  -0.00017  -0.00288  -0.01295  -0.01583   3.08796
   D35        1.41134   0.00002   0.00442  -0.06809  -0.06367   1.34766
   D36       -2.76547  -0.00007   0.00251  -0.06630  -0.06382  -2.82928
   D37       -0.71492   0.00006   0.00092  -0.06962  -0.06869  -0.78361
   D38       -1.13313   0.00021  -0.00045   0.00965   0.00919  -1.12394
   D39        3.05467   0.00014  -0.00176   0.00517   0.00342   3.05809
   D40        0.94291   0.00038  -0.00002   0.01300   0.01296   0.95587
   D41        3.08646   0.00005   0.00133   0.01006   0.01139   3.09785
   D42        0.99107  -0.00003   0.00003   0.00558   0.00563   0.99670
   D43       -1.12069   0.00022   0.00177   0.01341   0.01516  -1.10552
   D44        1.00822  -0.00019   0.00197   0.00751   0.00948   1.01770
   D45       -1.08716  -0.00026   0.00066   0.00302   0.00371  -1.08345
   D46        3.08426  -0.00002   0.00241   0.01085   0.01325   3.09751
         Item               Value     Threshold  Converged?
 Maximum Force            0.003178     0.000450     NO 
 RMS     Force            0.000686     0.000300     NO 
 Maximum Displacement     0.365260     0.001800     NO 
 RMS     Displacement     0.127539     0.001200     NO 
 Predicted change in Energy=-3.450505D-04
 GradGradGradGradGradGradGradGradGradGradGradGradGradGradGradGradGradGrad

                          Input orientation:                          
 ---------------------------------------------------------------------
 Center     Atomic      Atomic             Coordinates (Angstroms)
 Number     Number       Type             X           Y           Z
 ---------------------------------------------------------------------
      1          8           0        1.542409   -1.236197    0.220081
      2          6           0        1.410587   -0.018056    0.163800
      3          6           0        0.253773    0.780259    0.023699
      4          7           0       -0.960239    0.205883   -0.116979
      5          6           0       -2.056501    0.859423   -0.257631
      6          6           0       -3.396991    0.169337   -0.378135
      7          6           0       -3.234929   -1.338940   -0.519368
      8          6           0       -4.300902    0.508069    0.814405
      9          8           0        2.557415    0.785104    0.285454
     10          6           0        3.764937    0.088566    0.413382
     11          6           0        4.257227   -0.470860   -0.914816
     12          1           0        0.372561    1.872861    0.033542
     13          1           0       -2.074985    1.970527   -0.270051
     14          1           0       -3.910094    0.553006   -1.283711
     15          1           0       -2.628981   -1.583768   -1.401517
     16          1           0       -4.212455   -1.841630   -0.597997
     17          1           0       -2.686536   -1.734876    0.345407
     18          1           0       -5.316270    0.092970    0.695658
     19          1           0       -4.391274    1.597297    0.945740
     20          1           0       -3.864496    0.099728    1.739049
     21          1           0        4.491391    0.812507    0.817962
     22          1           0        3.654528   -0.737048    1.135881
     23          1           0        3.535680   -1.218108   -1.265855
     24          1           0        5.247410   -0.941031   -0.810336
     25          1           0        4.329334    0.334870   -1.659873
 ---------------------------------------------------------------------
                    Distance matrix (angstroms):
                    1          2          3          4          5
     1  O    0.000000
     2  C    1.226545   0.000000
     3  C    2.401092   1.412498   0.000000
     4  N    2.907998   2.397874   1.350379   0.000000
     5  C    4.191896   3.601149   2.328687   1.284013   0.000000
     6  C    5.170209   4.841654   3.723275   2.450979   1.512500
     7  C    4.835318   4.877732   4.117884   2.778958   2.507987
     8  C    6.126987   5.772452   4.630807   3.481210   2.511980
     9  O    2.262779   1.405376   2.318471   3.587665   4.646363
    10  C    2.594609   2.369942   3.599800   4.756294   5.910467
    11  C    3.040390   3.077629   4.298109   5.321322   6.485731
    12  H    3.327099   2.161026   1.099085   2.139586   2.648052
    13  H    4.858894   4.036322   2.631757   2.092859   1.111326
    14  H    5.932321   5.543559   4.370213   3.191145   2.140687
    15  H    4.488973   4.606493   3.991257   2.763618   2.757787
    16  H    5.844164   5.960231   5.216129   3.873060   3.472704
    17  H    4.260089   4.445995   3.882630   2.638266   2.736967
    18  H    7.002453   6.748764   5.652370   4.432622   3.481710
    19  H    6.615426   6.073087   4.805640   3.851936   2.728319
    20  H    5.772917   5.506522   4.512836   3.448307   2.798698
    21  H    3.640213   3.257164   4.311531   5.564385   6.635811
    22  H    2.355608   2.548954   3.886426   4.873895   6.091507
    23  H    2.486255   2.828438   4.053064   4.853963   6.050219
    24  H    3.856931   4.064731   5.347417   6.350674   7.542827
    25  H    3.710718   3.459685   4.432040   5.511509   6.558988
                    6          7          8          9         10
     6  C    0.000000
     7  C    1.523519   0.000000
     8  C    1.534257   2.515291   0.000000
     9  O    6.022830   6.221781   6.884261   0.000000
    10  C    7.205987   7.204577   8.086691   1.399871   0.000000
    11  C    7.699671   7.552638   8.785788   2.430525   1.522963
    12  H    4.157042   4.861621   4.930888   2.453623   3.851780
    13  H    2.236888   3.515708   2.875680   4.813829   6.173617
    14  H    1.109299   2.149309   2.134676   6.659192   7.874131
    15  H    2.170375   1.097862   3.475833   5.946102   6.853666
    16  H    2.181125   1.102015   2.742952   7.315146   8.269663
    17  H    2.157380   1.097878   2.803023   5.818326   6.704556
    18  H    2.200568   2.803326   1.103350   7.914685   9.085595
    19  H    2.186393   3.479248   1.100833   7.027085   8.311646
    20  H    2.169303   2.750739   1.100981   6.619941   7.743757
    21  H    8.004429   8.131002   8.797563   2.006135   1.102502
    22  H    7.268955   7.111030   8.058693   2.060056   1.102649
    23  H    7.125657   6.812708   8.289704   2.715957   2.140045
    24  H    8.726133   8.496651   9.793362   3.378812   2.180661
    25  H    7.833668   7.830738   8.979589   2.669588   2.162775
                   11         12         13         14         15
    11  C    0.000000
    12  H    4.634980   0.000000
    13  H    6.817110   2.468236   0.000000
    14  H    8.239509   4.671007   2.530711   0.000000
    15  H    6.992517   4.797596   3.770960   2.494180   0.000000
    16  H    8.585737   5.934530   4.382792   2.509164   1.794304
    17  H    7.169501   4.740369   3.805627   3.063580   1.754392
    18  H    9.724370   5.997433   3.868300   2.471208   3.798832
    19  H    9.084905   4.858206   2.642469   2.508492   4.328333
    20  H    8.563349   4.899531   3.276998   3.056897   3.771447
    21  H    2.168960   4.324862   6.755892   8.664256   7.833767
    22  H    2.153941   4.335676   6.491142   8.046253   6.829188
    23  H    1.096466   4.609539   6.529823   7.653543   6.176986
    24  H    1.101109   5.691597   7.898516   9.290647   7.924654
    25  H    1.099777   4.570462   6.754426   8.250894   7.222607
                   16         17         18         19         20
    16  H    0.000000
    17  H    1.797174   0.000000
    18  H    2.575778   3.221677   0.000000
    19  H    3.773767   3.790767   1.783580   0.000000
    20  H    3.058059   2.587586   1.787836   1.774697   0.000000
    21  H    9.209034   7.631193   9.834781   8.918181   8.436664
    22  H    8.131166   6.467581   9.019865   8.379753   7.589449
    23  H    7.801821   6.448193   9.160977   8.697946   8.094983
    24  H    9.505010   8.056887  10.720473  10.120828   9.518896
    25  H    8.878450   7.584684   9.932005   9.188685   8.873939
                   21         22         23         24         25
    21  H    0.000000
    22  H    1.789562   0.000000
    23  H    3.062528   2.452321   0.000000
    24  H    2.509545   2.523221   1.792844   0.000000
    25  H    2.528649   3.069302   1.787982   1.786758   0.000000
 Stoichiometry    C8H14NO2(1-)
 Framework group  C1[X(C8H14NO2)]
 Deg. of freedom    69
 Full point group                 C1      NOp   1
 Largest Abelian subgroup         C1      NOp   1
 Largest concise Abelian subgroup C1      NOp   1
                         Standard orientation:                         
 ---------------------------------------------------------------------
 Center     Atomic      Atomic             Coordinates (Angstroms)
 Number     Number       Type             X           Y           Z
 ---------------------------------------------------------------------
      1          8           0       -1.576754    1.063972    0.640562
      2          6           0       -1.420505   -0.073157    0.208199
      3          6           0       -0.250335   -0.758034   -0.187778
      4          7           0        0.948065   -0.136263   -0.160171
      5          6           0        2.054647   -0.684950   -0.511038
      6          6           0        3.377455    0.043946   -0.430145
      7          6           0        3.180698    1.517144   -0.095357
      8          6           0        4.313255   -0.622694    0.586622
      9          8           0       -2.547330   -0.904756    0.090777
     10          6           0       -3.766297   -0.314217    0.444362
     11          6           0       -4.298171    0.615096   -0.638645
     12          1           0       -0.345834   -1.802918   -0.515018
     13          1           0        2.096278   -1.736892   -0.867031
     14          1           0        3.879317   -0.027227   -1.416864
     15          1           0        2.551254    2.006482   -0.850109
     16          1           0        4.145536    2.045303   -0.027745
     17          1           0        2.642443    1.611653    0.856843
     18          1           0        5.316919   -0.164397    0.588467
     19          1           0        4.429314   -1.696368    0.373109
     20          1           0        3.887939   -0.531923    1.598070
     21          1           0       -4.468637   -1.146797    0.614775
     22          1           0       -3.658100    0.250250    1.385375
     23          1           0       -3.600098    1.453152   -0.750870
     24          1           0       -5.295620    1.003462   -0.380365
     25          1           0       -4.368979    0.077523   -1.595469
 ---------------------------------------------------------------------
 Rotational constants (GHZ):           3.4855729           0.3740246           0.3558283
 Standard basis: def2SVP (5D, 7F)
 There are   235 symmetry adapted cartesian basis functions of A   symmetry.
 There are   224 symmetry adapted basis functions of A   symmetry.
   224 basis functions,   373 primitive gaussians,   235 cartesian basis functions
    43 alpha electrons       43 beta electrons
       nuclear repulsion energy       597.9396860259 Hartrees.
 NAtoms=   25 NActive=   25 NUniq=   25 SFac= 1.00D+00 NAtFMM=   60 NAOKFM=F Big=F
 Integral buffers will be    131072 words long.
 Raffenetti 2 integral format.
 Two-electron integral symmetry is turned on.
 Nuclear repulsion after empirical dispersion term =      597.9388830692 Hartrees.
 One-electron integrals computed using PRISM.
   1 Symmetry operations used in ECPInt.
 ECPInt:  NShTT=    5886 NPrTT=   20688 LenC2=    5355 LenP2D=   14036.
 LDataN:  DoStor=T MaxTD1= 4 Len=   56
 NBasis=   224 RedAO= T EigKep=  1.23D-03  NBF=   224
 NBsUse=   224 1.00D-06 EigRej= -1.00D+00 NBFU=   224
 Initial guess from the checkpoint file:  "A18_crest_conformers_censo-18.chk"
 B after Tr=    -0.000000    0.000000    0.000000
         Rot=    0.999999    0.000372   -0.000910   -0.001023 Ang=   0.16 deg.
 ExpMin= 1.22D-01 ExpMax= 2.27D+03 ExpMxC= 3.41D+02 IAcc=3 IRadAn=         5 AccDes= 0.00D+00
 Harris functional with IExCor= 1009 and IRadAn=       5 diagonalized for initial guess.
 HarFok:  IExCor= 1009 AccDes= 0.00D+00 IRadAn=         5 IDoV= 1 UseB2=F ITyADJ=14
 ICtDFT=  3500011 ScaDFX=  1.000000  1.000000  1.000000  1.000000
 FoFCou: FMM=F IPFlag=           0 FMFlag=      100000 FMFlg1=           0
         NFxFlg=           0 DoJE=T BraDBF=F KetDBF=T FulRan=T
         wScrn=  0.000000 ICntrl=       500 IOpCl=  0 I1Cent=   200000004 NGrid=           0
         NMat0=    1 NMatS0=      1 NMatT0=    0 NMatD0=    1 NMtDS0=    0 NMtDT0=    0
 Petite list used in FoFCou.
 Requested convergence on RMS density matrix=1.00D-08 within 128 cycles.
 Requested convergence on MAX density matrix=1.00D-06.
 Requested convergence on             energy=1.00D-06.
 No special actions if energy rises.
 Integral accuracy reduced to 1.0D-05 until final iterations.
 Initial convergence to 1.0D-05 achieved.  Increase integral accuracy.
 SCF Done:  E(RM062X) =  -517.870264980     A.U. after   13 cycles
            NFock= 13  Conv=0.59D-08     -V/T= 2.0100
   1 Symmetry operations used in ECPInt.
 ECPInt:  NShTT=    5886 NPrTT=   20688 LenC2=    5355 LenP2D=   14036.
 LDataN:  DoStor=T MaxTD1= 5 Len=  102
 Calling FoFJK, ICntrl=      2127 FMM=F ISym2X=0 I1Cent= 0 IOpClX= 0 NMat=1 NMatS=1 NMatT=0.
 ***** Axes restored to original set *****
 -------------------------------------------------------------------
 Center     Atomic                   Forces (Hartrees/Bohr)
 Number     Number              X              Y              Z
 -------------------------------------------------------------------
      1        8           0.000328769   -0.000321280   -0.001611564
      2        6          -0.003881079   -0.000816603    0.003950015
      3        6           0.002210687   -0.000970222   -0.000857681
      4        7          -0.001846836    0.000321263   -0.000683291
      5        6           0.000460005   -0.000990065    0.000668115
      6        6           0.000181114    0.000492516   -0.000101237
      7        6           0.000190628   -0.000211249   -0.000754338
      8        6          -0.000024887    0.000459235    0.000357598
      9        8           0.002131846    0.001139558   -0.001743776
     10        6           0.000148447   -0.000183201    0.001652844
     11        6          -0.000118295    0.001081088   -0.000055894
     12        1           0.000180964    0.000525826   -0.000347190
     13        1          -0.000073381    0.000379461    0.000335863
     14        1          -0.000210999   -0.000297466   -0.000447639
     15        1           0.000280640    0.000116203   -0.000298511
     16        1          -0.000441192   -0.000086565    0.000160175
     17        1           0.000184392   -0.000281259    0.000800580
     18        1          -0.000312596   -0.000188273   -0.000210580
     19        1          -0.000082279    0.000485140   -0.000135096
     20        1           0.000251440   -0.000252171    0.000313185
     21        1           0.000396633    0.000132608   -0.000060295
     22        1           0.000015667    0.000098692   -0.000585926
     23        1          -0.000247805   -0.000552228   -0.000277306
     24        1           0.000290802   -0.000365054    0.000372098
     25        1          -0.000012684    0.000284048   -0.000440149
 -------------------------------------------------------------------
 Cartesian Forces:  Max     0.003950015 RMS     0.000930331

 GradGradGradGradGradGradGradGradGradGradGradGradGradGradGradGradGradGrad
 Berny optimization.
 Using GEDIIS/GDIIS optimizer.
 FormGI is forming the generalized inverse of G from B-inverse, IUseBI=4.
 Internal  Forces:  Max     0.002961130 RMS     0.000519571
 Search for a local minimum.
 Step number   6 out of a maximum of  121
 All quantities printed in internal units (Hartrees-Bohrs-Radians)
 Mixed Optimization -- En-DIIS/RFO-DIIS
 Swapping is turned off.
 Update second derivatives using D2CorX and points    4    5    6
 DE= -3.63D-04 DEPred=-3.45D-04 R= 1.05D+00
 TightC=F SS=  1.41D+00  RLast= 4.47D-01 DXNew= 1.2584D+00 1.3423D+00
 Trust test= 1.05D+00 RLast= 4.47D-01 DXMaxT set to 1.26D+00
 ITU=  1  1  0  1  1  0
     Eigenvalues ---    0.00143   0.00289   0.00371   0.00436   0.01270
     Eigenvalues ---    0.01433   0.01556   0.02345   0.02363   0.02494
     Eigenvalues ---    0.03354   0.04109   0.04900   0.05118   0.05346
     Eigenvalues ---    0.05481   0.05573   0.05597   0.05728   0.05760
     Eigenvalues ---    0.05811   0.05841   0.08773   0.11900   0.13913
     Eigenvalues ---    0.15470   0.15837   0.16000   0.16000   0.16000
     Eigenvalues ---    0.16000   0.16000   0.16002   0.16014   0.16057
     Eigenvalues ---    0.16153   0.16872   0.18249   0.21403   0.22585
     Eigenvalues ---    0.23118   0.24942   0.25314   0.25906   0.28795
     Eigenvalues ---    0.29150   0.29796   0.30889   0.32993   0.33334
     Eigenvalues ---    0.33474   0.33668   0.33819   0.33958   0.34624
     Eigenvalues ---    0.34714   0.34830   0.34928   0.34990   0.35052
     Eigenvalues ---    0.35130   0.35441   0.36050   0.41798   0.47375
     Eigenvalues ---    0.47720   0.61285   0.74306   0.90596
 En-DIIS/RFO-DIIS/Sim-DIIS IScMMF=       -3 using points:     6    5
 RFO step:  Lambda=-3.18290095D-04.
 DidBck=F Rises=F RFO-DIIS coefs:    1.66797   -0.66797
 Iteration  1 RMS(Cart)=  0.11000270 RMS(Int)=  0.00339325
 Iteration  2 RMS(Cart)=  0.00615731 RMS(Int)=  0.00002848
 Iteration  3 RMS(Cart)=  0.00001468 RMS(Int)=  0.00002790
 Iteration  4 RMS(Cart)=  0.00000000 RMS(Int)=  0.00002790
 Variable       Old X    -DE/DX   Delta X   Delta X   Delta X     New X
                                 (Linear)    (Quad)   (Total)
    R1        2.31783   0.00028   0.00357  -0.00045   0.00312   2.32095
    R2        2.66924  -0.00094  -0.00327  -0.00220  -0.00547   2.66377
    R3        2.65578   0.00296  -0.00254   0.00942   0.00689   2.66266
    R4        2.55185   0.00132  -0.00306   0.00223  -0.00083   2.55102
    R5        2.07697   0.00054  -0.00038   0.00152   0.00114   2.07811
    R6        2.42643  -0.00061   0.00038  -0.00152  -0.00114   2.42529
    R7        2.85821  -0.00010  -0.00208  -0.00120  -0.00328   2.85493
    R8        2.10010   0.00038  -0.00106   0.00136   0.00030   2.10040
    R9        2.87903   0.00049  -0.00170   0.00161  -0.00008   2.87895
   R10        2.89933   0.00046  -0.00107   0.00138   0.00031   2.89964
   R11        2.09627   0.00036   0.00051   0.00076   0.00127   2.09754
   R12        2.07466   0.00037  -0.00384   0.00158  -0.00226   2.07240
   R13        2.08251   0.00042  -0.00277   0.00143  -0.00135   2.08116
   R14        2.07469   0.00082  -0.00369   0.00303  -0.00066   2.07402
   R15        2.08503   0.00038  -0.00325   0.00139  -0.00187   2.08316
   R16        2.08027   0.00047  -0.00252   0.00151  -0.00101   2.07926
   R17        2.08055   0.00046  -0.00327   0.00170  -0.00157   2.07898
   R18        2.64537   0.00022   0.00130   0.00092   0.00222   2.64759
   R19        2.87798   0.00016   0.00077   0.00104   0.00181   2.87979
   R20        2.08343   0.00033  -0.00184   0.00121  -0.00063   2.08280
   R21        2.08370  -0.00046   0.00118  -0.00163  -0.00045   2.08325
   R22        2.07202   0.00063  -0.00378   0.00186  -0.00192   2.07010
   R23        2.08080   0.00045  -0.00389   0.00208  -0.00181   2.07899
   R24        2.07828   0.00051  -0.00266   0.00171  -0.00095   2.07733
    A1        2.28349   0.00072  -0.00316   0.00300  -0.00024   2.28326
    A2        2.06678   0.00042  -0.00217   0.00491   0.00266   2.06944
    A3        1.93254  -0.00110   0.00511  -0.00717  -0.00213   1.93041
    A4        2.10159   0.00102   0.00252   0.00397   0.00649   2.10808
    A5        2.06286  -0.00059  -0.00103  -0.00264  -0.00367   2.05918
    A6        2.11874  -0.00042  -0.00149  -0.00132  -0.00282   2.11592
    A7        2.16818  -0.00000  -0.00068  -0.00110  -0.00178   2.16639
    A8        2.13315   0.00018   0.00616  -0.00233   0.00370   2.13685
    A9        2.12270  -0.00005   0.00114   0.00102   0.00203   2.12473
   A10        2.02699  -0.00012  -0.00678   0.00151  -0.00540   2.02159
   A11        1.94422  -0.00017   0.00196  -0.00289  -0.00093   1.94328
   A12        1.93852  -0.00022   0.00007  -0.00173  -0.00166   1.93686
   A13        1.89355   0.00022   0.00404   0.00143   0.00548   1.89903
   A14        1.93189   0.00042   0.00167   0.00159   0.00326   1.93515
   A15        1.89224  -0.00019  -0.00372  -0.00033  -0.00405   1.88819
   A16        1.86049  -0.00006  -0.00434   0.00219  -0.00215   1.85834
   A17        1.93261  -0.00019  -0.00104  -0.00050  -0.00154   1.93107
   A18        1.94319  -0.00016  -0.00241  -0.00063  -0.00304   1.94015
   A19        1.91468  -0.00004   0.00400  -0.00190   0.00210   1.91678
   A20        1.90766   0.00025   0.00275   0.00158   0.00432   1.91199
   A21        1.85125   0.00018  -0.00292   0.00296   0.00004   1.85129
   A22        1.91216  -0.00002  -0.00038  -0.00135  -0.00172   1.91044
   A23        1.95569  -0.00023  -0.00208  -0.00173  -0.00381   1.95188
   A24        1.93858  -0.00011  -0.00030  -0.00082  -0.00112   1.93746
   A25        1.91492  -0.00008   0.00371  -0.00081   0.00290   1.91782
   A26        1.88551   0.00012  -0.00108   0.00055  -0.00054   1.88496
   A27        1.89191   0.00015  -0.00103   0.00125   0.00022   1.89213
   A28        1.87478   0.00018   0.00082   0.00177   0.00259   1.87737
   A29        2.01247   0.00167  -0.00409   0.01148   0.00739   2.01986
   A30        1.96265  -0.00044   0.00449  -0.00083   0.00365   1.96630
   A31        1.84958   0.00038  -0.00320   0.00064  -0.00256   1.84703
   A32        1.92417   0.00022  -0.00337   0.00374   0.00035   1.92452
   A33        1.92650  -0.00037  -0.00051  -0.00600  -0.00650   1.92000
   A34        1.90580   0.00006   0.00206   0.00105   0.00310   1.90890
   A35        1.89356   0.00017   0.00026   0.00142   0.00168   1.89524
   A36        1.89318   0.00026   0.00238   0.00089   0.00327   1.89645
   A37        1.94419  -0.00051  -0.00639  -0.00179  -0.00820   1.93599
   A38        1.92080   0.00026  -0.00245   0.00277   0.00030   1.92110
   A39        1.90832  -0.00006   0.00503  -0.00309   0.00195   1.91027
   A40        1.90239  -0.00014   0.00207  -0.00034   0.00173   1.90411
   A41        1.89458   0.00019  -0.00037   0.00153   0.00111   1.89569
    D1       -0.03773   0.00109  -0.00841   0.02736   0.01896  -0.01877
    D2        3.10311   0.00115  -0.00952   0.02636   0.01684   3.11994
    D3        3.13399  -0.00073   0.00549  -0.00296   0.00253   3.13651
    D4       -0.00836  -0.00067   0.00438  -0.00397   0.00041  -0.00795
    D5        0.03913  -0.00075   0.04944  -0.01382   0.03562   0.07475
    D6       -3.12837   0.00083   0.03747   0.01226   0.04973  -3.07864
    D7       -3.13378  -0.00013  -0.00056  -0.00457  -0.00513  -3.13891
    D8        0.00859  -0.00018   0.00059  -0.00353  -0.00294   0.00565
    D9       -3.11507  -0.00018  -0.01232  -0.00926  -0.02164  -3.13672
   D10       -0.00287  -0.00004   0.00322  -0.00074   0.00255  -0.00032
   D11       -0.14822   0.00019   0.11551   0.01574   0.13123  -0.01699
   D12        2.01403   0.00044   0.11914   0.01444   0.13357   2.14759
   D13       -2.22977   0.00038   0.11635   0.01697   0.13329  -2.09647
   D14        3.02124   0.00005   0.10057   0.00766   0.10826   3.12950
   D15       -1.09969   0.00031   0.10421   0.00636   0.11060  -0.98910
   D16        0.93970   0.00025   0.10141   0.00889   0.11033   1.05003
   D17       -1.02433  -0.00002   0.02536   0.00129   0.02665  -0.99768
   D18        3.13269  -0.00010   0.02424   0.00006   0.02430  -3.12620
   D19        1.01311   0.00007   0.02359   0.00346   0.02705   1.04017
   D20        3.09285   0.00008   0.02265   0.00445   0.02710   3.11995
   D21        0.96669   0.00001   0.02153   0.00322   0.02475   0.99144
   D22       -1.15289   0.00017   0.02088   0.00662   0.02750  -1.12538
   D23        1.05799   0.00003   0.02915   0.00111   0.03026   1.08825
   D24       -1.06817  -0.00004   0.02803  -0.00012   0.02791  -1.04026
   D25        3.09544   0.00012   0.02738   0.00328   0.03066   3.12610
   D26        3.04509   0.00005  -0.00813   0.00603  -0.00209   3.04300
   D27        0.93445   0.00014  -0.00508   0.00710   0.00201   0.93647
   D28       -1.13568   0.00004  -0.00826   0.00593  -0.00234  -1.13802
   D29       -1.06884  -0.00002  -0.00435   0.00221  -0.00214  -1.07097
   D30        3.10371   0.00007  -0.00131   0.00328   0.00197   3.10568
   D31        1.03358  -0.00003  -0.00448   0.00210  -0.00238   1.03119
   D32        0.98555  -0.00006  -0.01044   0.00395  -0.00649   0.97906
   D33       -1.12509   0.00003  -0.00740   0.00502  -0.00239  -1.12747
   D34        3.08796  -0.00007  -0.01058   0.00384  -0.00674   3.08123
   D35        1.34766   0.00059  -0.04253   0.05336   0.01083   1.35849
   D36       -2.82928   0.00013  -0.04263   0.04594   0.00330  -2.82598
   D37       -0.78361   0.00065  -0.04588   0.04990   0.00403  -0.77958
   D38       -1.12394  -0.00014   0.00614  -0.00710  -0.00098  -1.12492
   D39        3.05809   0.00008   0.00228  -0.00274  -0.00045   3.05764
   D40        0.95587   0.00000   0.00866  -0.00535   0.00329   0.95915
   D41        3.09785  -0.00008   0.00761  -0.00337   0.00423   3.10208
   D42        0.99670   0.00013   0.00376   0.00099   0.00476   1.00146
   D43       -1.10552   0.00006   0.01013  -0.00162   0.00850  -1.09703
   D44        1.01770  -0.00011   0.00633  -0.00213   0.00420   1.02190
   D45       -1.08345   0.00011   0.00248   0.00222   0.00473  -1.07872
   D46        3.09751   0.00004   0.00885  -0.00038   0.00847   3.10598
         Item               Value     Threshold  Converged?
 Maximum Force            0.002961     0.000450     NO 
 RMS     Force            0.000520     0.000300     NO 
 Maximum Displacement     0.320791     0.001800     NO 
 RMS     Displacement     0.110947     0.001200     NO 
 Predicted change in Energy=-1.727846D-04
 GradGradGradGradGradGradGradGradGradGradGradGradGradGradGradGradGradGrad

                          Input orientation:                          
 ---------------------------------------------------------------------
 Center     Atomic      Atomic             Coordinates (Angstroms)
 Number     Number       Type             X           Y           Z
 ---------------------------------------------------------------------
      1          8           0        1.558318   -1.295061    0.188390
      2          6           0        1.421734   -0.074499    0.194329
      3          6           0        0.265723    0.723915    0.079616
      4          7           0       -0.949508    0.160230   -0.087162
      5          6           0       -2.041725    0.824420   -0.201386
      6          6           0       -3.383240    0.153159   -0.380722
      7          6           0       -3.242635   -1.363082   -0.427876
      8          6           0       -4.361589    0.577517    0.722550
      9          8           0        2.566817    0.730923    0.353759
     10          6           0        3.789245    0.047924    0.399700
     11          6           0        4.271571   -0.385944   -0.979234
     12          1           0        0.385370    1.815770    0.132971
     13          1           0       -2.056570    1.935336   -0.169065
     14          1           0       -3.826380    0.489992   -1.341038
     15          1           0       -2.559721   -1.663202   -1.231762
     16          1           0       -4.220199   -1.848659   -0.574332
     17          1           0       -2.791105   -1.724197    0.505013
     18          1           0       -5.373422    0.175423    0.550164
     19          1           0       -4.436967    1.673579    0.782732
     20          1           0       -4.005270    0.215149    1.698284
     21          1           0        4.510032    0.751472    0.847207
     22          1           0        3.708530   -0.835887    1.053664
     23          1           0        3.561364   -1.114147   -1.385848
     24          1           0        5.270852   -0.842341   -0.920307
     25          1           0        4.321375    0.482103   -1.651856
 ---------------------------------------------------------------------
                    Distance matrix (angstroms):
                    1          2          3          4          5
     1  O    0.000000
     2  C    1.228195   0.000000
     3  C    2.399770   1.409604   0.000000
     4  N    2.912557   2.399400   1.349942   0.000000
     5  C    4.195764   3.600027   2.326668   1.283408   0.000000
     6  C    5.180755   4.844614   3.721909   2.451383   1.510766
     7  C    4.840822   4.878927   4.113598   2.773986   2.505723
     8  C    6.231947   5.843883   4.674057   3.531580   2.509260
     9  O    2.269147   1.409020   2.317377   3.589518   4.642800
    10  C    2.612527   2.379553   3.602031   4.765021   5.913076
    11  C    3.090564   3.097712   4.289495   5.324825   6.475164
    12  H    3.325079   2.156602   1.099686   2.138030   2.642983
    13  H    4.861137   4.033620   2.631051   2.093632   1.111484
    14  H    5.875418   5.497154   4.338005   3.155525   2.143745
    15  H    4.371567   4.517709   3.924433   2.688456   2.741944
    16  H    5.854867   5.964050   5.212416   3.869158   3.468456
    17  H    4.381996   4.534980   3.939342   2.700595   2.748821
    18  H    7.095225   6.809055   5.685263   4.469612   3.476525
    19  H    6.716361   6.142180   4.848869   3.899912   2.725205
    20  H    5.959364   5.638984   4.595683   3.539564   2.799190
    21  H    3.651706   3.262830   4.313249   5.570385   6.635540
    22  H    2.362828   2.558829   3.903162   4.898066   6.115326
    23  H    2.554046   2.855844   4.048124   4.864009   6.046123
    24  H    3.900908   4.080160   5.338944   6.355483   7.534503
    25  H    3.765542   3.482258   4.416421   5.507637   6.535295
                    6          7          8          9         10
     6  C    0.000000
     7  C    1.523476   0.000000
     8  C    1.534423   2.518225   0.000000
     9  O    6.022993   6.224592   6.939909   0.000000
    10  C    7.215586   7.219638   8.174399   1.401046   0.000000
    11  C    7.697076   7.597506   8.851880   2.435251   1.523921
    12  H    4.150973   4.856137   4.941102   2.446294   3.844840
    13  H    2.231817   3.514725   2.819886   4.806211   6.169228
    14  H    1.109972   2.146743   2.133660   6.618410   7.824534
    15  H    2.168321   1.096666   3.476619   5.875976   6.774879
    16  H    2.178362   1.101301   2.754673   7.319780   8.288363
    17  H    2.158614   1.097527   2.794929   5.895576   6.815608
    18  H    2.197241   2.804249   1.102362   7.962069   9.164790
    19  H    2.185325   3.480418   1.100298   7.079944   8.394048
    20  H    2.170951   2.755536   1.100150   6.728008   7.903717
    21  H    8.010589   8.136401   8.874202   2.004994   1.102169
    22  H    7.302663   7.126823   8.199645   2.061133   1.102409
    23  H    7.130488   6.875615   8.371394   2.723901   2.142549
    24  H    8.727857   8.543602   9.874153   3.377901   2.174891
    25  H    7.815694   7.881439   9.002264   2.676355   2.163458
                   11         12         13         14         15
    11  C    0.000000
    12  H    4.602945   0.000000
    13  H    6.788968   2.463452   0.000000
    14  H    8.153219   4.655021   2.568027   0.000000
    15  H    6.954258   4.758077   3.785757   2.500522   0.000000
    16  H    8.626334   5.927864   4.377687   2.492433   1.795493
    17  H    7.339980   4.770720   3.792901   3.063059   1.753181
    18  H    9.781620   6.002372   3.823099   2.463522   3.804302
    19  H    9.120570   4.867992   2.576960   2.506810   4.326239
    20  H    8.719891   4.928479   3.200541   3.056963   3.768684
    21  H    2.164824   4.319225   6.749416   8.622793   7.754622
    22  H    2.156881   4.349984   6.512383   8.016697   6.722990
    23  H    1.095449   4.580192   6.507003   7.560028   6.147592
    24  H    1.100152   5.660644   7.872165   9.203899   7.879638
    25  H    1.099276   4.522876   6.707364   8.153684   7.219992
                   16         17         18         19         20
    16  H    0.000000
    17  H    1.795211   0.000000
    18  H    2.586759   3.206081   0.000000
    19  H    3.780843   3.785614   1.781995   0.000000
    20  H    3.077382   2.580534   1.786504   1.775279   0.000000
    21  H    9.219457   7.717036   9.904682   8.994623   8.574517
    22  H    8.157256   6.582961   9.151946   8.527600   7.811717
    23  H    7.858166   6.655928   9.232634   8.743424   8.278456
    24  H    9.550520   8.234341  10.793457  10.172117   9.696481
    25  H    8.919192   7.752884   9.946458   9.168172   8.979293
                   21         22         23         24         25
    21  H    0.000000
    22  H    1.790178   0.000000
    23  H    3.060562   2.459737   0.000000
    24  H    2.498639   2.517430   1.792473   0.000000
    25  H    2.520608   3.071240   1.787845   1.786288   0.000000
 Stoichiometry    C8H14NO2(1-)
 Framework group  C1[X(C8H14NO2)]
 Deg. of freedom    69
 Full point group                 C1      NOp   1
 Largest Abelian subgroup         C1      NOp   1
 Largest concise Abelian subgroup C1      NOp   1
                         Standard orientation:                         
 ---------------------------------------------------------------------
 Center     Atomic      Atomic             Coordinates (Angstroms)
 Number     Number       Type             X           Y           Z
 ---------------------------------------------------------------------
      1          8           0       -1.591879    1.120597    0.602686
      2          6           0       -1.427339   -0.042621    0.244476
      3          6           0       -0.256415   -0.737703   -0.119916
      4          7           0        0.941344   -0.115140   -0.131291
      5          6           0        2.045454   -0.684048   -0.454432
      6          6           0        3.366675    0.048583   -0.447908
      7          6           0        3.190387    1.506192   -0.041366
      8          6           0        4.380225   -0.654798    0.464466
      9          8           0       -2.549639   -0.891799    0.176086
     10          6           0       -3.785930   -0.288483    0.441648
     11          6           0       -4.310447    0.519822   -0.738972
     12          1           0       -0.349790   -1.799441   -0.390662
     13          1           0        2.086438   -1.753887   -0.753033
     14          1           0        3.794612    0.023842   -1.471771
     15          1           0        2.482015    2.010892   -0.709321
     16          1           0        4.152872    2.041317   -0.052734
     17          1           0        2.752862    1.561989    0.963633
     18          1           0        5.378257   -0.190725    0.403055
     19          1           0        4.482028   -1.716954    0.195918
     20          1           0        4.038842   -0.607737    1.509249
     21          1           0       -4.479692   -1.113392    0.671856
     22          1           0       -3.710023    0.364238    1.326802
     23          1           0       -3.626857    1.355868   -0.922655
     24          1           0       -5.318227    0.909365   -0.531684
     25          1           0       -4.356260   -0.111438   -1.637759
 ---------------------------------------------------------------------
 Rotational constants (GHZ):           3.5331744           0.3707377           0.3527040
 Standard basis: def2SVP (5D, 7F)
 There are   235 symmetry adapted cartesian basis functions of A   symmetry.
 There are   224 symmetry adapted basis functions of A   symmetry.
   224 basis functions,   373 primitive gaussians,   235 cartesian basis functions
    43 alpha electrons       43 beta electrons
       nuclear repulsion energy       596.9960986294 Hartrees.
 NAtoms=   25 NActive=   25 NUniq=   25 SFac= 1.00D+00 NAtFMM=   60 NAOKFM=F Big=F
 Integral buffers will be    131072 words long.
 Raffenetti 2 integral format.
 Two-electron integral symmetry is turned on.
 Nuclear repulsion after empirical dispersion term =      596.9952967102 Hartrees.
 One-electron integrals computed using PRISM.
   1 Symmetry operations used in ECPInt.
 ECPInt:  NShTT=    5886 NPrTT=   20688 LenC2=    5345 LenP2D=   14015.
 LDataN:  DoStor=T MaxTD1= 4 Len=   56
 NBasis=   224 RedAO= T EigKep=  1.18D-03  NBF=   224
 NBsUse=   224 1.00D-06 EigRej= -1.00D+00 NBFU=   224
 Initial guess from the checkpoint file:  "A18_crest_conformers_censo-18.chk"
 B after Tr=    -0.000000   -0.000000    0.000000
         Rot=    0.999937    0.011139   -0.000871   -0.000475 Ang=   1.28 deg.
 ExpMin= 1.22D-01 ExpMax= 2.27D+03 ExpMxC= 3.41D+02 IAcc=3 IRadAn=         5 AccDes= 0.00D+00
 Harris functional with IExCor= 1009 and IRadAn=       5 diagonalized for initial guess.
 HarFok:  IExCor= 1009 AccDes= 0.00D+00 IRadAn=         5 IDoV= 1 UseB2=F ITyADJ=14
 ICtDFT=  3500011 ScaDFX=  1.000000  1.000000  1.000000  1.000000
 FoFCou: FMM=F IPFlag=           0 FMFlag=      100000 FMFlg1=           0
         NFxFlg=           0 DoJE=T BraDBF=F KetDBF=T FulRan=T
         wScrn=  0.000000 ICntrl=       500 IOpCl=  0 I1Cent=   200000004 NGrid=           0
         NMat0=    1 NMatS0=      1 NMatT0=    0 NMatD0=    1 NMtDS0=    0 NMtDT0=    0
 Petite list used in FoFCou.
 Requested convergence on RMS density matrix=1.00D-08 within 128 cycles.
 Requested convergence on MAX density matrix=1.00D-06.
 Requested convergence on             energy=1.00D-06.
 No special actions if energy rises.
 Integral accuracy reduced to 1.0D-05 until final iterations.
 Initial convergence to 1.0D-05 achieved.  Increase integral accuracy.
 SCF Done:  E(RM062X) =  -517.870427414     A.U. after   13 cycles
            NFock= 13  Conv=0.57D-08     -V/T= 2.0100
   1 Symmetry operations used in ECPInt.
 ECPInt:  NShTT=    5886 NPrTT=   20688 LenC2=    5345 LenP2D=   14015.
 LDataN:  DoStor=T MaxTD1= 5 Len=  102
 Calling FoFJK, ICntrl=      2127 FMM=F ISym2X=0 I1Cent= 0 IOpClX= 0 NMat=1 NMatS=1 NMatT=0.
 ***** Axes restored to original set *****
 -------------------------------------------------------------------
 Center     Atomic                   Forces (Hartrees/Bohr)
 Number     Number              X              Y              Z
 -------------------------------------------------------------------
      1        8           0.001414993    0.002786506   -0.001041167
      2        6          -0.000709328   -0.004486998    0.001945694
      3        6           0.001403123    0.001736060   -0.000018920
      4        7          -0.001822210   -0.000520082   -0.000380757
      5        6           0.000154384   -0.000208560    0.000080533
      6        6          -0.000305514   -0.000119087    0.000851173
      7        6          -0.000196186    0.000496266   -0.001010566
      8        6           0.000373259   -0.000010128   -0.000916655
      9        8           0.001584186    0.000027856   -0.001953519
     10        6          -0.001343037    0.000394395    0.001423156
     11        6          -0.000809273    0.001683300    0.001659205
     12        1           0.000065243    0.000254388   -0.000229405
     13        1           0.000388945    0.000455507    0.000224688
     14        1          -0.000107278   -0.000160027   -0.000505217
     15        1           0.000553330   -0.000060831   -0.000595652
     16        1          -0.000784806   -0.000493448    0.000067385
     17        1           0.000346473   -0.000363537    0.001286494
     18        1          -0.000779179   -0.000315218   -0.000118678
     19        1          -0.000058115    0.000857432    0.000019698
     20        1           0.000446916   -0.000330347    0.000871286
     21        1           0.000528414    0.000058008    0.000455322
     22        1          -0.000108462   -0.000053850   -0.000677336
     23        1          -0.000824575   -0.001162664   -0.000633919
     24        1           0.000744977   -0.000872848   -0.000167067
     25        1          -0.000156282    0.000407906   -0.000635778
 -------------------------------------------------------------------
 Cartesian Forces:  Max     0.004486998 RMS     0.001005713

 GradGradGradGradGradGradGradGradGradGradGradGradGradGradGradGradGradGrad
 Berny optimization.
 Using GEDIIS/GDIIS optimizer.
 FormGI is forming the generalized inverse of G from B-inverse, IUseBI=4.
 Internal  Forces:  Max     0.003251107 RMS     0.000703929
 Search for a local minimum.
 Step number   7 out of a maximum of  121
 All quantities printed in internal units (Hartrees-Bohrs-Radians)
 Mixed Optimization -- En-DIIS/RFO-DIIS
 Swapping is turned off.
 Update second derivatives using D2CorX and points    6    7
 DE= -1.62D-04 DEPred=-1.73D-04 R= 9.40D-01
 TightC=F SS=  1.41D+00  RLast= 3.19D-01 DXNew= 2.1164D+00 9.5688D-01
 Trust test= 9.40D-01 RLast= 3.19D-01 DXMaxT set to 1.26D+00
 ITU=  1  1  1  0  1  1  0
     Eigenvalues ---    0.00127   0.00287   0.00370   0.00436   0.01228
     Eigenvalues ---    0.01409   0.01539   0.02322   0.02359   0.02496
     Eigenvalues ---    0.03369   0.04112   0.04908   0.05259   0.05379
     Eigenvalues ---    0.05493   0.05585   0.05654   0.05725   0.05766
     Eigenvalues ---    0.05811   0.05845   0.08327   0.11795   0.14062
     Eigenvalues ---    0.15601   0.15924   0.16000   0.16000   0.16000
     Eigenvalues ---    0.16000   0.16001   0.16008   0.16036   0.16121
     Eigenvalues ---    0.16206   0.16900   0.18184   0.21450   0.22695
     Eigenvalues ---    0.23066   0.24761   0.25085   0.25901   0.28987
     Eigenvalues ---    0.29289   0.29862   0.32623   0.33004   0.33328
     Eigenvalues ---    0.33524   0.33810   0.33957   0.34133   0.34631
     Eigenvalues ---    0.34772   0.34923   0.34953   0.35015   0.35065
     Eigenvalues ---    0.35130   0.35458   0.38696   0.40829   0.47709
     Eigenvalues ---    0.52230   0.61038   0.74327   0.93558
 En-DIIS/RFO-DIIS/Sim-DIIS IScMMF=       -3 using points:     7    6    5
 RFO step:  Lambda=-1.66956863D-04.
 DidBck=F Rises=F RFO-DIIS coefs:    1.49917   -0.60099    0.10182
 Iteration  1 RMS(Cart)=  0.03538502 RMS(Int)=  0.00039104
 Iteration  2 RMS(Cart)=  0.00056688 RMS(Int)=  0.00000670
 Iteration  3 RMS(Cart)=  0.00000011 RMS(Int)=  0.00000670
 Variable       Old X    -DE/DX   Delta X   Delta X   Delta X     New X
                                 (Linear)    (Quad)   (Total)
    R1        2.32095  -0.00261   0.00101  -0.00228  -0.00127   2.31968
    R2        2.66377   0.00099  -0.00223   0.00189  -0.00034   2.66342
    R3        2.66266  -0.00010   0.00382  -0.00156   0.00226   2.66492
    R4        2.55102   0.00195   0.00005   0.00185   0.00190   2.55292
    R5        2.07811   0.00025   0.00063  -0.00018   0.00044   2.07855
    R6        2.42529  -0.00018  -0.00063   0.00006  -0.00057   2.42472
    R7        2.85493   0.00068  -0.00132   0.00245   0.00113   2.85607
    R8        2.10040   0.00046   0.00031   0.00051   0.00082   2.10122
    R9        2.87895   0.00042   0.00022   0.00077   0.00099   2.87994
   R10        2.89964  -0.00004   0.00032  -0.00100  -0.00068   2.89896
   R11        2.09754   0.00043   0.00056   0.00048   0.00104   2.09858
   R12        2.07240   0.00080  -0.00054   0.00109   0.00054   2.07294
   R13        2.08116   0.00091  -0.00025   0.00150   0.00125   2.08241
   R14        2.07402   0.00135   0.00023   0.00197   0.00220   2.07622
   R15        2.08316   0.00085  -0.00044   0.00127   0.00084   2.08400
   R16        2.07926   0.00086  -0.00012   0.00122   0.00110   2.08037
   R17        2.07898   0.00103  -0.00029   0.00153   0.00124   2.08022
   R18        2.64759  -0.00189   0.00091  -0.00279  -0.00188   2.64571
   R19        2.87979  -0.00055   0.00079  -0.00102  -0.00024   2.87956
   R20        2.08280   0.00057  -0.00003   0.00075   0.00072   2.08352
   R21        2.08325  -0.00035  -0.00041  -0.00018  -0.00058   2.08267
   R22        2.07010   0.00154  -0.00038   0.00225   0.00187   2.07197
   R23        2.07899   0.00103  -0.00031   0.00187   0.00156   2.08055
   R24        2.07733   0.00070  -0.00007   0.00082   0.00075   2.07808
    A1        2.28326   0.00192   0.00036   0.00474   0.00507   2.28833
    A2        2.06944  -0.00175   0.00166  -0.00558  -0.00395   2.06549
    A3        1.93041  -0.00016  -0.00184   0.00081  -0.00106   1.92935
    A4        2.10808  -0.00003   0.00285  -0.00147   0.00138   2.10946
    A5        2.05918   0.00001  -0.00168   0.00083  -0.00085   2.05833
    A6        2.11592   0.00003  -0.00118   0.00064  -0.00054   2.11539
    A7        2.16639   0.00020  -0.00079   0.00055  -0.00024   2.16616
    A8        2.13685  -0.00014   0.00091  -0.00065   0.00024   2.13710
    A9        2.12473  -0.00037   0.00084  -0.00214  -0.00132   2.12341
   A10        2.02159   0.00051  -0.00166   0.00277   0.00109   2.02268
   A11        1.94328  -0.00003  -0.00077   0.00106   0.00030   1.94358
   A12        1.93686  -0.00012  -0.00084   0.00032  -0.00052   1.93634
   A13        1.89903   0.00008   0.00212  -0.00051   0.00161   1.90064
   A14        1.93515   0.00024   0.00137   0.00062   0.00199   1.93714
   A15        1.88819  -0.00019  -0.00145  -0.00193  -0.00338   1.88481
   A16        1.85834   0.00002  -0.00041   0.00030  -0.00011   1.85823
   A17        1.93107  -0.00019  -0.00061  -0.00057  -0.00119   1.92988
   A18        1.94015   0.00019  -0.00115   0.00183   0.00068   1.94082
   A19        1.91678  -0.00019   0.00044  -0.00169  -0.00125   1.91553
   A20        1.91199   0.00010   0.00174   0.00062   0.00236   1.91434
   A21        1.85129   0.00020   0.00047   0.00091   0.00138   1.85267
   A22        1.91044  -0.00011  -0.00080  -0.00116  -0.00197   1.90847
   A23        1.95188   0.00005  -0.00159   0.00109  -0.00050   1.95138
   A24        1.93746  -0.00002  -0.00052   0.00000  -0.00052   1.93694
   A25        1.91782  -0.00015   0.00088  -0.00102  -0.00014   1.91768
   A26        1.88496   0.00000  -0.00011   0.00017   0.00006   1.88502
   A27        1.89213   0.00007   0.00027   0.00013   0.00040   1.89254
   A28        1.87737   0.00006   0.00117  -0.00041   0.00076   1.87813
   A29        2.01986  -0.00325   0.00431  -0.01068  -0.00636   2.01350
   A30        1.96630  -0.00202   0.00114  -0.00465  -0.00352   1.96278
   A31        1.84703   0.00091  -0.00079   0.00460   0.00382   1.85084
   A32        1.92452   0.00070   0.00069  -0.00122  -0.00055   1.92397
   A33        1.92000   0.00074  -0.00317   0.00495   0.00179   1.92178
   A34        1.90890  -0.00016   0.00123  -0.00394  -0.00272   1.90618
   A35        1.89524  -0.00008   0.00080   0.00076   0.00157   1.89680
   A36        1.89645   0.00002   0.00127  -0.00171  -0.00044   1.89602
   A37        1.93599   0.00037  -0.00312   0.00410   0.00098   1.93697
   A38        1.92110   0.00025   0.00052   0.00084   0.00136   1.92246
   A39        1.91027  -0.00040   0.00021  -0.00276  -0.00255   1.90772
   A40        1.90411  -0.00019   0.00055  -0.00140  -0.00086   1.90325
   A41        1.89569  -0.00006   0.00061   0.00083   0.00144   1.89713
    D1       -0.01877   0.00063   0.01074   0.00242   0.01317  -0.00560
    D2        3.11994   0.00066   0.00986   0.00246   0.01232   3.13227
    D3        3.13651  -0.00025   0.00042   0.00463   0.00505   3.14157
    D4       -0.00795  -0.00022  -0.00046   0.00467   0.00421  -0.00375
    D5        0.07475  -0.00105   0.01024  -0.03118  -0.02093   0.05382
    D6       -3.07864  -0.00026   0.01911  -0.03300  -0.01390  -3.09255
    D7       -3.13891   0.00002  -0.00247   0.00245  -0.00002  -3.13893
    D8        0.00565  -0.00001  -0.00156   0.00241   0.00085   0.00651
    D9       -3.13672   0.00006  -0.00893   0.00732  -0.00161  -3.13833
   D10       -0.00032   0.00008   0.00078   0.00257   0.00335   0.00304
   D11       -0.01699   0.00001   0.04790   0.00082   0.04872   0.03173
   D12        2.14759   0.00021   0.04851   0.00263   0.05114   2.19874
   D13       -2.09647   0.00021   0.04880   0.00288   0.05168  -2.04479
   D14        3.12950  -0.00000   0.03871   0.00532   0.04403  -3.10965
   D15       -0.98910   0.00020   0.03932   0.00713   0.04645  -0.94264
   D16        1.05003   0.00020   0.03961   0.00738   0.04699   1.09702
   D17       -0.99768   0.00007   0.00944   0.00322   0.01265  -0.98503
   D18       -3.12620  -0.00005   0.00844   0.00157   0.01001  -3.11619
   D19        1.04017   0.00009   0.00991   0.00297   0.01288   1.05304
   D20        3.11995   0.00008   0.01007   0.00158   0.01165   3.13160
   D21        0.99144  -0.00005   0.00907  -0.00007   0.00901   1.00044
   D22       -1.12538   0.00009   0.01055   0.00133   0.01188  -1.11351
   D23        1.08825   0.00003   0.01066   0.00200   0.01267   1.10092
   D24       -1.04026  -0.00010   0.00966   0.00036   0.01002  -1.03024
   D25        3.12610   0.00004   0.01113   0.00176   0.01289   3.13899
   D26        3.04300   0.00002   0.00020   0.00483   0.00502   3.04802
   D27        0.93647  -0.00001   0.00178   0.00386   0.00564   0.94211
   D28       -1.13802   0.00003   0.00009   0.00502   0.00511  -1.13291
   D29       -1.07097   0.00007  -0.00040   0.00688   0.00648  -1.06449
   D30        3.10568   0.00004   0.00118   0.00592   0.00710   3.11278
   D31        1.03119   0.00008  -0.00051   0.00707   0.00657   1.03776
   D32        0.97906  -0.00002  -0.00165   0.00508   0.00344   0.98250
   D33       -1.12747  -0.00004  -0.00006   0.00412   0.00406  -1.12342
   D34        3.08123  -0.00000  -0.00175   0.00528   0.00353   3.08475
   D35        1.35849  -0.00051   0.01189  -0.00255   0.00934   1.36783
   D36       -2.82598  -0.00017   0.00814   0.00384   0.01198  -2.81400
   D37       -0.77958   0.00061   0.00900   0.00670   0.01570  -0.76387
   D38       -1.12492   0.00027  -0.00142   0.00725   0.00582  -1.11909
   D39        3.05764   0.00052  -0.00057   0.00923   0.00865   3.06629
   D40        0.95915   0.00020   0.00032   0.00500   0.00532   0.96447
   D41        3.10208  -0.00009   0.00095   0.00113   0.00208   3.10416
   D42        1.00146   0.00016   0.00180   0.00310   0.00491   1.00636
   D43       -1.09703  -0.00016   0.00270  -0.00112   0.00157  -1.09545
   D44        1.02190  -0.00035   0.00113  -0.00039   0.00075   1.02265
   D45       -1.07872  -0.00009   0.00198   0.00159   0.00357  -1.07515
   D46        3.10598  -0.00042   0.00288  -0.00264   0.00024   3.10622
         Item               Value     Threshold  Converged?
 Maximum Force            0.003251     0.000450     NO 
 RMS     Force            0.000704     0.000300     NO 
 Maximum Displacement     0.112472     0.001800     NO 
 RMS     Displacement     0.035419     0.001200     NO 
 Predicted change in Energy=-8.467904D-05
 GradGradGradGradGradGradGradGradGradGradGradGradGradGradGradGradGradGrad

                          Input orientation:                          
 ---------------------------------------------------------------------
 Center     Atomic      Atomic             Coordinates (Angstroms)
 Number     Number       Type             X           Y           Z
 ---------------------------------------------------------------------
      1          8           0        1.576698   -1.301427    0.128873
      2          6           0        1.428575   -0.083778    0.175813
      3          6           0        0.269569    0.712998    0.084574
      4          7           0       -0.946069    0.150483   -0.091102
      5          6           0       -2.039662    0.815011   -0.185038
      6          6           0       -3.381125    0.145892   -0.377347
      7          6           0       -3.246791   -1.372074   -0.395008
      8          6           0       -4.378023    0.596858    0.697911
      9          8           0        2.570866    0.723152    0.356775
     10          6           0        3.789999    0.036067    0.398826
     11          6           0        4.281988   -0.361986   -0.987338
     12          1           0        0.386559    1.803761    0.164424
     13          1           0       -2.054545    1.925412   -0.128905
     14          1           0       -3.805208    0.464093   -1.353134
     15          1           0       -2.540399   -1.687532   -1.172699
     16          1           0       -4.222477   -1.856585   -0.561157
     17          1           0       -2.825999   -1.718710    0.558877
     18          1           0       -5.387462    0.191529    0.516476
     19          1           0       -4.452943    1.694709    0.730324
     20          1           0       -4.039242    0.256799    1.688550
     21          1           0        4.510295    0.722252    0.874156
     22          1           0        3.697333   -0.866838    1.023968
     23          1           0        3.568822   -1.072676   -1.421493
     24          1           0        5.276337   -0.831521   -0.932918
     25          1           0        4.345505    0.524003   -1.635619
 ---------------------------------------------------------------------
                    Distance matrix (angstroms):
                    1          2          3          4          5
     1  O    0.000000
     2  C    1.227524   0.000000
     3  C    2.401761   1.409422   0.000000
     4  N    2.919039   2.401054   1.350948   0.000000
     5  C    4.201893   3.600931   2.327154   1.283108   0.000000
     6  C    5.189509   4.846850   3.723244   2.451827   1.511366
     7  C    4.852369   4.883093   4.116104   2.775583   2.506908
     8  C    6.275826   5.869619   4.689326   3.549661   2.509008
     9  O    2.266987   1.410216   2.317361   3.591292   4.643163
    10  C    2.600089   2.374956   3.598668   4.762716   5.910380
    11  C    3.073609   3.093911   4.289999   5.329019   6.480144
    12  H    3.325641   2.156091   1.099921   2.138812   2.643161
    13  H    4.864655   4.032595   2.630024   2.092969   1.111919
    14  H    5.854769   5.479994   4.328137   3.140979   2.145867
    15  H    4.335165   4.488125   3.903742   2.662713   2.736591
    16  H    5.866411   5.968280   5.215190   3.870934   3.470385
    17  H    4.443284   4.573964   3.964935   2.729559   2.755263
    18  H    7.132930   6.830096   5.697409   4.482947   3.476869
    19  H    6.759819   6.169503   4.866505   3.918870   2.726845
    20  H    6.033196   5.683432   4.620250   3.570180   2.796472
    21  H    3.640977   3.261037   4.313616   5.570508   6.635694
    22  H    2.342468   2.545547   3.889461   4.882572   6.099461
    23  H    2.534664   2.847799   4.042517   4.863158   6.045434
    24  H    3.877569   4.073533   5.337467   6.355417   7.536194
    25  H    3.756583   3.486998   4.428096   5.525016   6.554328
                    6          7          8          9         10
     6  C    0.000000
     7  C    1.524000   0.000000
     8  C    1.534065   2.520089   0.000000
     9  O    6.024812   6.228987   6.958403   0.000000
    10  C    7.213842   7.220072   8.192711   1.400049   0.000000
    11  C    7.704111   7.619294   8.874414   2.431482   1.523796
    12  H    4.151806   4.857996   4.943932   2.444568   3.842276
    13  H    2.233434   3.516486   2.801290   4.803721   6.164967
    14  H    1.110521   2.145074   2.133666   6.606453   7.806391
    15  H    2.168144   1.096953   3.477712   5.854547   6.746437
    16  H    2.179811   1.101962   2.762034   7.324422   8.288756
    17  H    2.159032   1.098690   2.791050   5.927030   6.846626
    18  H    2.196905   2.803236   1.102805   7.977664   9.179532
    19  H    2.185078   3.482289   1.100882   7.100518   8.414694
    20  H    2.171025   2.760873   1.100807   6.759042   7.937829
    21  H    8.010803   8.134455   8.890949   2.007254   1.102549
    22  H    7.286554   7.105604   8.213409   2.059646   1.102101
    23  H    7.132806   6.898978   8.392351   2.717195   2.142847
    24  H    8.730157   8.557175   9.894772   3.376372   2.176109
    25  H    7.837539   7.923205   9.030537   2.675563   2.164633
                   11         12         13         14         15
    11  C    0.000000
    12  H    4.603410   0.000000
    13  H    6.791226   2.461672   0.000000
    14  H    8.137503   4.654955   2.588245   0.000000
    15  H    6.952438   4.748064   3.791955   2.502357   0.000000
    16  H    8.645310   5.930246   4.380670   2.487345   1.797762
    17  H    7.399660   4.783714   3.787850   3.062558   1.755248
    18  H    9.801332   6.005211   3.811982   2.464399   3.806567
    19  H    9.136705   4.873697   2.558088   2.504950   4.326532
    20  H    8.762771   4.929885   3.166454   3.057709   3.770106
    21  H    2.166300   4.321872   6.749137   8.612495   7.727157
    22  H    2.154542   4.339601   6.496913   7.981862   6.663946
    23  H    1.096438   4.573382   6.502428   7.532772   6.145122
    24  H    1.100978   5.662048   7.873305   9.183118   7.867122
    25  H    1.099672   4.533341   6.722706   8.155827   7.247127
                   16         17         18         19         20
    16  H    0.000000
    17  H    1.795450   0.000000
    18  H    2.590995   3.195607   0.000000
    19  H    3.785860   3.785204   1.782865   0.000000
    20  H    3.092112   2.578906   1.787656   1.776775   0.000000
    21  H    9.218017   7.738146   9.918428   9.016985   8.600842
    22  H    8.137298   6.595139   9.160305   8.548378   7.845944
    23  H    7.877756   6.725546   9.250350   8.754282   8.326015
    24  H    9.561194   8.286157  10.810365  10.188577   9.738406
    25  H    8.957231   7.827901   9.973600   9.185909   9.023607
                   21         22         23         24         25
    21  H    0.000000
    22  H    1.791245   0.000000
    23  H    3.062375   2.457471   0.000000
    24  H    2.503307   2.514737   1.792335   0.000000
    25  H    2.522980   3.070500   1.788426   1.788206   0.000000
 Stoichiometry    C8H14NO2(1-)
 Framework group  C1[X(C8H14NO2)]
 Deg. of freedom    69
 Full point group                 C1      NOp   1
 Largest Abelian subgroup         C1      NOp   1
 Largest concise Abelian subgroup C1      NOp   1
                         Standard orientation:                         
 ---------------------------------------------------------------------
 Center     Atomic      Atomic             Coordinates (Angstroms)
 Number     Number       Type             X           Y           Z
 ---------------------------------------------------------------------
      1          8           0       -1.609061    1.139624    0.552586
      2          6           0       -1.431764   -0.033062    0.236063
      3          6           0       -0.257434   -0.733138   -0.106446
      4          7           0        0.940007   -0.108130   -0.130168
      5          6           0        2.045846   -0.683006   -0.435130
      6          6           0        3.366153    0.052458   -0.445573
      7          6           0        3.196470    1.503847   -0.012843
      8          6           0        4.400470   -0.665035    0.431210
      9          8           0       -2.550133   -0.890954    0.191524
     10          6           0       -3.783291   -0.282986    0.455789
     11          6           0       -4.319768    0.490311   -0.742608
     12          1           0       -0.347170   -1.802124   -0.349431
     13          1           0        2.087748   -1.759879   -0.708904
     14          1           0        3.772248    0.047926   -1.479170
     15          1           0        2.463252    2.012984   -0.650398
     16          1           0        4.156143    2.044436   -0.046180
     17          1           0        2.792446    1.542080    1.008149
     18          1           0        5.395309   -0.194599    0.359339
     19          1           0        4.501475   -1.721168    0.137402
     20          1           0        4.079505   -0.641466    1.483922
     21          1           0       -4.475137   -1.099594    0.720579
     22          1           0       -3.695425    0.398524    1.317445
     23          1           0       -3.634555    1.318013   -0.960711
     24          1           0       -5.322945    0.893458   -0.534613
     25          1           0       -4.379487   -0.167372   -1.621907
 ---------------------------------------------------------------------
 Rotational constants (GHZ):           3.5652398           0.3697221           0.3513970
 Standard basis: def2SVP (5D, 7F)
 There are   235 symmetry adapted cartesian basis functions of A   symmetry.
 There are   224 symmetry adapted basis functions of A   symmetry.
   224 basis functions,   373 primitive gaussians,   235 cartesian basis functions
    43 alpha electrons       43 beta electrons
       nuclear repulsion energy       596.8857223373 Hartrees.
 NAtoms=   25 NActive=   25 NUniq=   25 SFac= 1.00D+00 NAtFMM=   60 NAOKFM=F Big=F
 Integral buffers will be    131072 words long.
 Raffenetti 2 integral format.
 Two-electron integral symmetry is turned on.
 Nuclear repulsion after empirical dispersion term =      596.8849226556 Hartrees.
 One-electron integrals computed using PRISM.
   1 Symmetry operations used in ECPInt.
 ECPInt:  NShTT=    5886 NPrTT=   20688 LenC2=    5344 LenP2D=   14010.
 LDataN:  DoStor=T MaxTD1= 4 Len=   56
 NBasis=   224 RedAO= T EigKep=  1.18D-03  NBF=   224
 NBsUse=   224 1.00D-06 EigRej= -1.00D+00 NBFU=   224
 Initial guess from the checkpoint file:  "A18_crest_conformers_censo-18.chk"
 B after Tr=     0.000000    0.000000    0.000000
         Rot=    0.999995    0.003184   -0.000304   -0.000306 Ang=   0.37 deg.
 ExpMin= 1.22D-01 ExpMax= 2.27D+03 ExpMxC= 3.41D+02 IAcc=3 IRadAn=         5 AccDes= 0.00D+00
 Harris functional with IExCor= 1009 and IRadAn=       5 diagonalized for initial guess.
 HarFok:  IExCor= 1009 AccDes= 0.00D+00 IRadAn=         5 IDoV= 1 UseB2=F ITyADJ=14
 ICtDFT=  3500011 ScaDFX=  1.000000  1.000000  1.000000  1.000000
 FoFCou: FMM=F IPFlag=           0 FMFlag=      100000 FMFlg1=           0
         NFxFlg=           0 DoJE=T BraDBF=F KetDBF=T FulRan=T
         wScrn=  0.000000 ICntrl=       500 IOpCl=  0 I1Cent=   200000004 NGrid=           0
         NMat0=    1 NMatS0=      1 NMatT0=    0 NMatD0=    1 NMtDS0=    0 NMtDT0=    0
 Petite list used in FoFCou.
 Requested convergence on RMS density matrix=1.00D-08 within 128 cycles.
 Requested convergence on MAX density matrix=1.00D-06.
 Requested convergence on             energy=1.00D-06.
 No special actions if energy rises.
 Integral accuracy reduced to 1.0D-05 until final iterations.
 Initial convergence to 1.0D-05 achieved.  Increase integral accuracy.
 SCF Done:  E(RM062X) =  -517.870549512     A.U. after   12 cycles
            NFock= 12  Conv=0.65D-08     -V/T= 2.0100
   1 Symmetry operations used in ECPInt.
 ECPInt:  NShTT=    5886 NPrTT=   20688 LenC2=    5344 LenP2D=   14010.
 LDataN:  DoStor=T MaxTD1= 5 Len=  102
 Calling FoFJK, ICntrl=      2127 FMM=F ISym2X=0 I1Cent= 0 IOpClX= 0 NMat=1 NMatS=1 NMatT=0.
 ***** Axes restored to original set *****
 -------------------------------------------------------------------
 Center     Atomic                   Forces (Hartrees/Bohr)
 Number     Number              X              Y              Z
 -------------------------------------------------------------------
      1        8           0.000005089    0.001652057   -0.000420615
      2        6           0.000119824   -0.003006445    0.000872511
      3        6           0.000510535    0.001421757    0.000071917
      4        7          -0.000825382   -0.000559981   -0.000182286
      5        6          -0.000126888   -0.000028160    0.000077508
      6        6          -0.000345944   -0.000137747    0.000385772
      7        6          -0.000018120    0.000488053   -0.000478652
      8        6           0.000406505   -0.000099572   -0.000753196
      9        8           0.000767132    0.000058431   -0.001255786
     10        6          -0.000485997    0.000176507    0.000860938
     11        6          -0.000345412    0.000974259    0.001091126
     12        1           0.000034188    0.000038574   -0.000101154
     13        1           0.000218338    0.000200242    0.000145081
     14        1          -0.000056765   -0.000040550   -0.000310323
     15        1           0.000336597   -0.000056973   -0.000300551
     16        1          -0.000404234   -0.000235205    0.000026360
     17        1           0.000175979   -0.000287117    0.000707970
     18        1          -0.000434461   -0.000160898   -0.000039528
     19        1          -0.000040112    0.000479554    0.000078530
     20        1           0.000204433   -0.000146531    0.000579254
     21        1           0.000285607    0.000050101    0.000295169
     22        1           0.000061647    0.000046309   -0.000406337
     23        1          -0.000422004   -0.000640255   -0.000290156
     24        1           0.000410985   -0.000462403   -0.000233128
     25        1          -0.000031540    0.000275994   -0.000420423
 -------------------------------------------------------------------
 Cartesian Forces:  Max     0.003006445 RMS     0.000597939

 GradGradGradGradGradGradGradGradGradGradGradGradGradGradGradGradGradGrad
 Berny optimization.
 Using GEDIIS/GDIIS optimizer.
 FormGI is forming the generalized inverse of G from B-inverse, IUseBI=4.
 Internal  Forces:  Max     0.001622157 RMS     0.000329683
 Search for a local minimum.
 Step number   8 out of a maximum of  121
 All quantities printed in internal units (Hartrees-Bohrs-Radians)
 Mixed Optimization -- En-DIIS/RFO-DIIS
 Swapping is turned off.
 Update second derivatives using D2CorX and points    6    7    8
 DE= -1.22D-04 DEPred=-8.47D-05 R= 1.44D+00
 TightC=F SS=  1.41D+00  RLast= 1.32D-01 DXNew= 2.1164D+00 3.9483D-01
 Trust test= 1.44D+00 RLast= 1.32D-01 DXMaxT set to 1.26D+00
 ITU=  1  1  1  1  0  1  1  0
     Eigenvalues ---    0.00124   0.00285   0.00372   0.00438   0.00926
     Eigenvalues ---    0.01405   0.01584   0.02335   0.02369   0.02500
     Eigenvalues ---    0.03381   0.04108   0.04920   0.05246   0.05385
     Eigenvalues ---    0.05482   0.05577   0.05594   0.05708   0.05774
     Eigenvalues ---    0.05814   0.05849   0.08056   0.11673   0.14039
     Eigenvalues ---    0.15723   0.15920   0.15973   0.16000   0.16000
     Eigenvalues ---    0.16000   0.16001   0.16006   0.16019   0.16047
     Eigenvalues ---    0.16207   0.16927   0.18137   0.21758   0.22688
     Eigenvalues ---    0.22791   0.24565   0.25049   0.25844   0.29027
     Eigenvalues ---    0.29401   0.29924   0.32903   0.33194   0.33415
     Eigenvalues ---    0.33498   0.33798   0.33978   0.34388   0.34632
     Eigenvalues ---    0.34818   0.34885   0.34945   0.35022   0.35063
     Eigenvalues ---    0.35128   0.35490   0.36054   0.40852   0.47724
     Eigenvalues ---    0.50983   0.58125   0.74370   0.90504
 En-DIIS/RFO-DIIS/Sim-DIIS IScMMF=       -3 using points:     8    7    6    5
 RFO step:  Lambda=-9.37244190D-05.
 DidBck=F Rises=F RFO-DIIS coefs:    1.96343   -0.87647   -0.20783    0.12088
 Iteration  1 RMS(Cart)=  0.02535001 RMS(Int)=  0.00019725
 Iteration  2 RMS(Cart)=  0.00034102 RMS(Int)=  0.00000915
 Iteration  3 RMS(Cart)=  0.00000005 RMS(Int)=  0.00000915
 Variable       Old X    -DE/DX   Delta X   Delta X   Delta X     New X
                                 (Linear)    (Quad)   (Total)
    R1        2.31968  -0.00162  -0.00160  -0.00060  -0.00219   2.31749
    R2        2.66342   0.00080  -0.00021   0.00117   0.00096   2.66438
    R3        2.66492   0.00042   0.00324   0.00070   0.00394   2.66886
    R4        2.55292   0.00107   0.00231   0.00016   0.00247   2.55539
    R5        2.07855   0.00003   0.00060  -0.00061  -0.00001   2.07854
    R6        2.42472   0.00005  -0.00071   0.00061  -0.00010   2.42462
    R7        2.85607   0.00026   0.00118   0.00023   0.00141   2.85748
    R8        2.10122   0.00020   0.00101  -0.00035   0.00066   2.10188
    R9        2.87994   0.00010   0.00125  -0.00056   0.00069   2.88063
   R10        2.89896  -0.00016  -0.00043  -0.00092  -0.00135   2.89761
   R11        2.09858   0.00028   0.00102   0.00024   0.00125   2.09983
   R12        2.07294   0.00045   0.00102  -0.00007   0.00095   2.07389
   R13        2.08241   0.00046   0.00159  -0.00015   0.00143   2.08384
   R14        2.07622   0.00077   0.00273  -0.00003   0.00270   2.07893
   R15        2.08400   0.00046   0.00123  -0.00003   0.00120   2.08520
   R16        2.08037   0.00048   0.00143   0.00004   0.00147   2.08183
   R17        2.08022   0.00063   0.00165   0.00024   0.00189   2.08212
   R18        2.64571  -0.00064  -0.00186   0.00025  -0.00161   2.64410
   R19        2.87956  -0.00030  -0.00021  -0.00050  -0.00071   2.87885
   R20        2.08352   0.00035   0.00097   0.00020   0.00117   2.08469
   R21        2.08267  -0.00027  -0.00081  -0.00030  -0.00112   2.08155
   R22        2.07197   0.00080   0.00232   0.00018   0.00250   2.07446
   R23        2.08055   0.00056   0.00205  -0.00022   0.00184   2.08238
   R24        2.07808   0.00047   0.00112   0.00022   0.00134   2.07942
    A1        2.28833   0.00041   0.00544  -0.00284   0.00257   2.29090
    A2        2.06549   0.00008  -0.00318   0.00380   0.00059   2.06608
    A3        1.92935  -0.00049  -0.00213  -0.00098  -0.00315   1.92621
    A4        2.10946  -0.00031   0.00144  -0.00239  -0.00094   2.10852
    A5        2.05833   0.00014  -0.00095   0.00116   0.00021   2.05854
    A6        2.11539   0.00017  -0.00049   0.00123   0.00074   2.11612
    A7        2.16616   0.00011  -0.00026   0.00047   0.00021   2.16637
    A8        2.13710  -0.00015  -0.00056   0.00026  -0.00028   2.13681
    A9        2.12341  -0.00017  -0.00130  -0.00047  -0.00176   2.12165
   A10        2.02268   0.00032   0.00181   0.00021   0.00203   2.02471
   A11        1.94358  -0.00011  -0.00015  -0.00055  -0.00069   1.94289
   A12        1.93634  -0.00005  -0.00066  -0.00010  -0.00076   1.93558
   A13        1.90064   0.00005   0.00129  -0.00012   0.00117   1.90182
   A14        1.93714   0.00017   0.00190   0.00011   0.00202   1.93916
   A15        1.88481  -0.00006  -0.00293   0.00048  -0.00245   1.88236
   A16        1.85823   0.00000   0.00050   0.00022   0.00071   1.85894
   A17        1.92988  -0.00009  -0.00109  -0.00016  -0.00125   1.92863
   A18        1.94082   0.00005   0.00082  -0.00041   0.00041   1.94124
   A19        1.91553   0.00004  -0.00174   0.00164  -0.00011   1.91542
   A20        1.91434   0.00006   0.00215  -0.00013   0.00202   1.91637
   A21        1.85267   0.00004   0.00186  -0.00067   0.00119   1.85386
   A22        1.90847  -0.00010  -0.00198  -0.00028  -0.00226   1.90621
   A23        1.95138   0.00005  -0.00044   0.00055   0.00011   1.95149
   A24        1.93694   0.00006  -0.00054   0.00071   0.00017   1.93711
   A25        1.91768  -0.00000  -0.00055   0.00065   0.00010   1.91778
   A26        1.88502  -0.00004   0.00021  -0.00026  -0.00005   1.88498
   A27        1.89254  -0.00002   0.00060  -0.00060  -0.00000   1.89253
   A28        1.87813  -0.00006   0.00081  -0.00117  -0.00035   1.87777
   A29        2.01350  -0.00010  -0.00475   0.00524   0.00050   2.01399
   A30        1.96278  -0.00104  -0.00389  -0.00168  -0.00558   1.95720
   A31        1.85084   0.00042   0.00403   0.00016   0.00420   1.85505
   A32        1.92397   0.00045   0.00011   0.00099   0.00107   1.92504
   A33        1.92178   0.00036   0.00125   0.00124   0.00250   1.92428
   A34        1.90618  -0.00008  -0.00272  -0.00032  -0.00306   1.90312
   A35        1.89680  -0.00006   0.00161  -0.00034   0.00127   1.89808
   A36        1.89602  -0.00010  -0.00057  -0.00126  -0.00183   1.89419
   A37        1.93697   0.00038   0.00139   0.00195   0.00333   1.94030
   A38        1.92246   0.00019   0.00178   0.00067   0.00244   1.92490
   A39        1.90772  -0.00027  -0.00320  -0.00074  -0.00394   1.90379
   A40        1.90325  -0.00008  -0.00105  -0.00000  -0.00105   1.90220
   A41        1.89713  -0.00014   0.00155  -0.00064   0.00090   1.89804
    D1       -0.00560   0.00020   0.01586  -0.00823   0.00764   0.00204
    D2        3.13227   0.00025   0.01506  -0.00576   0.00931   3.14158
    D3        3.14157  -0.00016   0.00409  -0.00456  -0.00048   3.14108
    D4       -0.00375  -0.00012   0.00329  -0.00210   0.00119  -0.00256
    D5        0.05382  -0.00050  -0.02601  -0.00550  -0.03149   0.02233
    D6       -3.09255  -0.00019  -0.01585  -0.00866  -0.02454  -3.11708
    D7       -3.13893  -0.00002  -0.00036  -0.00088  -0.00124  -3.14017
    D8        0.00651  -0.00007   0.00046  -0.00343  -0.00297   0.00354
    D9       -3.13833  -0.00011  -0.00121  -0.00640  -0.00759   3.13727
   D10        0.00304  -0.00007   0.00287  -0.00362  -0.00077   0.00227
   D11        0.03173   0.00001   0.03745   0.00130   0.03875   0.07048
   D12        2.19874   0.00012   0.03933   0.00098   0.04031   2.23904
   D13       -2.04479   0.00012   0.04033   0.00111   0.04145  -2.00334
   D14       -3.10965  -0.00003   0.03363  -0.00134   0.03229  -3.07737
   D15       -0.94264   0.00008   0.03551  -0.00166   0.03384  -0.90880
   D16        1.09702   0.00008   0.03651  -0.00153   0.03498   1.13200
   D17       -0.98503   0.00004   0.00992   0.00273   0.01265  -0.97238
   D18       -3.11619  -0.00001   0.00737   0.00329   0.01066  -3.10553
   D19        1.05304   0.00005   0.01049   0.00281   0.01330   1.06634
   D20        3.13160   0.00006   0.00948   0.00318   0.01266  -3.13892
   D21        1.00044   0.00001   0.00693   0.00373   0.01067   1.01111
   D22       -1.11351   0.00007   0.01005   0.00325   0.01331  -1.10020
   D23        1.10092  -0.00001   0.00956   0.00257   0.01213   1.11305
   D24       -1.03024  -0.00006   0.00701   0.00313   0.01014  -1.02010
   D25        3.13899   0.00001   0.01013   0.00265   0.01278  -3.13141
   D26        3.04802   0.00004   0.00613  -0.00158   0.00454   3.05257
   D27        0.94211   0.00001   0.00653  -0.00212   0.00441   0.94652
   D28       -1.13291   0.00005   0.00621  -0.00154   0.00468  -1.12823
   D29       -1.06449  -0.00001   0.00684  -0.00228   0.00456  -1.05993
   D30        3.11278  -0.00004   0.00725  -0.00282   0.00443   3.11720
   D31        1.03776  -0.00000   0.00693  -0.00223   0.00470   1.04246
   D32        0.98250   0.00001   0.00464  -0.00152   0.00312   0.98562
   D33       -1.12342  -0.00002   0.00504  -0.00206   0.00299  -1.12043
   D34        3.08475   0.00001   0.00472  -0.00147   0.00326   3.08801
   D35        1.36783  -0.00013   0.01763  -0.00078   0.01686   1.38469
   D36       -2.81400  -0.00002   0.01954  -0.00012   0.01942  -2.79459
   D37       -0.76387   0.00038   0.02378   0.00009   0.02387  -0.74000
   D38       -1.11909   0.00005   0.00442  -0.00372   0.00069  -1.11841
   D39        3.06629   0.00020   0.00788  -0.00320   0.00468   3.07097
   D40        0.96447   0.00001   0.00384  -0.00410  -0.00027   0.96421
   D41        3.10416  -0.00005   0.00099  -0.00368  -0.00269   3.10148
   D42        1.00636   0.00010   0.00446  -0.00316   0.00130   1.00767
   D43       -1.09545  -0.00009   0.00042  -0.00406  -0.00364  -1.09910
   D44        1.02265  -0.00014  -0.00006  -0.00382  -0.00387   1.01878
   D45       -1.07515   0.00001   0.00341  -0.00330   0.00012  -1.07503
   D46        3.10622  -0.00018  -0.00063  -0.00420  -0.00483   3.10139
         Item               Value     Threshold  Converged?
 Maximum Force            0.001622     0.000450     NO 
 RMS     Force            0.000330     0.000300     NO 
 Maximum Displacement     0.092167     0.001800     NO 
 RMS     Displacement     0.025362     0.001200     NO 
 Predicted change in Energy=-4.724410D-05
 GradGradGradGradGradGradGradGradGradGradGradGradGradGradGradGradGradGrad

                          Input orientation:                          
 ---------------------------------------------------------------------
 Center     Atomic      Atomic             Coordinates (Angstroms)
 Number     Number       Type             X           Y           Z
 ---------------------------------------------------------------------
      1          8           0        1.582519   -1.306794    0.080100
      2          6           0        1.430988   -0.092154    0.155279
      3          6           0        0.271035    0.706256    0.084929
      4          7           0       -0.946345    0.145022   -0.092830
      5          6           0       -2.041348    0.809579   -0.167385
      6          6           0       -3.382620    0.142155   -0.372382
      7          6           0       -3.251604   -1.376570   -0.372945
      8          6           0       -4.392769    0.608813    0.682604
      9          8           0        2.573621    0.716533    0.342380
     10          6           0        3.791925    0.030537    0.396280
     11          6           0        4.299466   -0.347974   -0.989339
     12          1           0        0.388512    1.795652    0.180989
     13          1           0       -2.055404    1.919076   -0.090173
     14          1           0       -3.791743    0.449122   -1.358851
     15          1           0       -2.524772   -1.699398   -1.129188
     16          1           0       -4.224509   -1.861127   -0.559103
     17          1           0       -2.857618   -1.715990    0.596505
     18          1           0       -5.400602    0.201108    0.493852
     19          1           0       -4.467561    1.707817    0.698375
     20          1           0       -4.066890    0.282882    1.683380
     21          1           0        4.506845    0.708219    0.892887
     22          1           0        3.689596   -0.882839    1.003404
     23          1           0        3.589313   -1.053196   -1.440358
     24          1           0        5.292310   -0.822779   -0.933514
     25          1           0        4.370256    0.545939   -1.627106
 ---------------------------------------------------------------------
                    Distance matrix (angstroms):
                    1          2          3          4          5
     1  O    0.000000
     2  C    1.226363   0.000000
     3  C    2.402579   1.409928   0.000000
     4  N    2.921101   2.401984   1.352257   0.000000
     5  C    4.203891   3.601993   2.328402   1.283053   0.000000
     6  C    5.191994   4.848108   3.725123   2.452263   1.512115
     7  C    4.855808   4.884201   4.117864   2.776315   2.507234
     8  C    6.303700   5.889446   4.702955   3.562897   2.508380
     9  O    2.268243   1.412300   2.316957   3.592520   4.643970
    10  C    2.601903   2.376375   3.598639   4.764824   5.911997
    11  C    3.073246   3.098993   4.300431   5.344653   6.497804
    12  H    3.325809   2.156670   1.099915   2.140421   2.645359
    13  H    4.865154   4.032397   2.629433   2.092197   1.112269
    14  H    5.834083   5.464659   4.319351   3.129150   2.147884
    15  H    4.299576   4.458826   3.883013   2.639574   2.730152
    16  H    5.868343   5.968606   5.216911   3.871486   3.471644
    17  H    4.488756   4.606915   3.989668   2.755269   2.761942
    18  H    7.156043   6.846259   5.708754   4.493078   3.477364
    19  H    6.787755   6.190939   4.881981   3.932848   2.728164
    20  H    6.083864   5.718602   4.642401   3.593289   2.793843
    21  H    3.643155   3.262752   4.312178   5.570109   6.634250
    22  H    2.339231   2.538859   3.880125   4.873415   6.089232
    23  H    2.530479   2.850969   4.053780   4.880958   6.065866
    24  H    3.876110   4.077878   5.346809   6.369003   7.552091
    25  H    3.757479   3.496191   4.445264   5.548062   6.580954
                    6          7          8          9         10
     6  C    0.000000
     7  C    1.524366   0.000000
     8  C    1.533351   2.521544   0.000000
     9  O    6.026409   6.231053   6.975525   0.000000
    10  C    7.216468   7.223778   8.210092   1.399200   0.000000
    11  C    7.722391   7.645693   8.903133   2.425941   1.523420
    12  H    4.154721   4.860070   4.951853   2.442386   3.839948
    13  H    2.235753   3.517405   2.788772   4.802196   6.163966
    14  H    1.111185   2.144041   2.134074   6.594207   7.795366
    15  H    2.167943   1.097455   3.478482   5.830595   6.724611
    16  H    2.181005   1.102722   2.769612   7.326089   8.291826
    17  H    2.160341   1.100121   2.787258   5.956517   6.877999
    18  H    2.196836   2.803319   1.103439   7.992299   9.194628
    19  H    2.185157   3.484210   1.101659   7.119524   8.433483
    20  H    2.171218   2.765311   1.101808   6.788425   7.967514
    21  H    8.010305   8.132786   8.902653   2.010094   1.103168
    22  H    7.277338   7.093544   8.225117   2.059209   1.101511
    23  H    7.153830   6.931240   8.425133   2.709561   2.142141
    24  H    8.746449   8.580174   9.922804   3.374708   2.178911
    25  H    7.864125   7.960007   9.062523   2.671306   2.166610
                   11         12         13         14         15
    11  C    0.000000
    12  H    4.610896   0.000000
    13  H    6.806790   2.462009   0.000000
    14  H    8.138770   4.653900   2.604838   0.000000
    15  H    6.958170   4.734887   3.793839   2.504816   0.000000
    16  H    8.667923   5.932936   4.383475   2.482768   1.800072
    17  H    7.457226   4.800171   3.785337   3.063286   1.757578
    18  H    9.828157   6.012844   3.805634   2.466262   3.810064
    19  H    9.161627   4.884347   2.546554   2.504640   4.327069
    20  H    8.805528   4.939256   3.141448   3.059168   3.770690
    21  H    2.168253   4.318562   6.745050   8.602559   7.702534
    22  H    2.151522   4.329877   6.484726   7.957688   6.620656
    23  H    1.097759   4.581465   6.520754   7.532834   6.156008
    24  H    1.101950   5.669702   7.887832   9.182519   7.868514
    25  H    1.100381   4.548107   6.748095   8.166980   7.268485
                   16         17         18         19         20
    16  H    0.000000
    17  H    1.795797   0.000000
    18  H    2.597061   3.186310   0.000000
    19  H    3.791792   3.784804   1.783975   0.000000
    20  H    3.106502   2.576650   1.788981   1.777979   0.000000
    21  H    9.216635   7.758862   9.928439   9.031998   8.620598
    22  H    8.125979   6.612542   9.168767   8.564096   7.873013
    23  H    7.904756   6.793454   9.280788   8.781263   8.376173
    24  H    9.580615   8.340270  10.836239  10.213816   9.780860
    25  H    8.989137   7.893220  10.004351   9.212211   9.067190
                   21         22         23         24         25
    21  H    0.000000
    22  H    1.792086   0.000000
    23  H    3.064062   2.451744   0.000000
    24  H    2.509312   2.514746   1.791698   0.000000
    25  H    2.528903   3.069900   1.789408   1.790151   0.000000
 Stoichiometry    C8H14NO2(1-)
 Framework group  C1[X(C8H14NO2)]
 Deg. of freedom    69
 Full point group                 C1      NOp   1
 Largest Abelian subgroup         C1      NOp   1
 Largest concise Abelian subgroup C1      NOp   1
                         Standard orientation:                         
 ---------------------------------------------------------------------
 Center     Atomic      Atomic             Coordinates (Angstroms)
 Number     Number       Type             X           Y           Z
 ---------------------------------------------------------------------
      1          8           0       -1.615331    1.155299    0.512888
      2          6           0       -1.433485   -0.023196    0.226448
      3          6           0       -0.257676   -0.730559   -0.097599
      4          7           0        0.940823   -0.105030   -0.127797
      5          6           0        2.048488   -0.685187   -0.415411
      6          6           0        3.367556    0.053585   -0.443075
      7          6           0        3.201221    1.501629    0.003234
      8          6           0        4.417538   -0.669608    0.408803
      9          8           0       -2.551257   -0.885732    0.191701
     10          6           0       -3.783221   -0.282813    0.468310
     11          6           0       -4.338163    0.467929   -0.735531
     12          1           0       -0.346990   -1.803619   -0.322048
     13          1           0        2.090558   -1.767952   -0.666397
     14          1           0        3.755853    0.060490   -1.484185
     15          1           0        2.446109    2.008780   -0.610779
     16          1           0        4.156958    2.048853   -0.052520
     17          1           0        2.826817    1.531177    1.037262
     18          1           0        5.409898   -0.194032    0.327390
     19          1           0        4.518333   -1.722559    0.100928
     20          1           0        4.112390   -0.660021    1.467468
     21          1           0       -4.467924   -1.097392    0.759210
     22          1           0       -3.685192    0.416300    1.313861
     23          1           0       -3.657584    1.295388   -0.974695
     24          1           0       -5.339841    0.875267   -0.523374
     25          1           0       -4.405988   -0.202673   -1.605319
 ---------------------------------------------------------------------
 Rotational constants (GHZ):           3.5961398           0.3685020           0.3499511
 Standard basis: def2SVP (5D, 7F)
 There are   235 symmetry adapted cartesian basis functions of A   symmetry.
 There are   224 symmetry adapted basis functions of A   symmetry.
   224 basis functions,   373 primitive gaussians,   235 cartesian basis functions
    43 alpha electrons       43 beta electrons
       nuclear repulsion energy       596.5794793467 Hartrees.
 NAtoms=   25 NActive=   25 NUniq=   25 SFac= 1.00D+00 NAtFMM=   60 NAOKFM=F Big=F
 Integral buffers will be    131072 words long.
 Raffenetti 2 integral format.
 Two-electron integral symmetry is turned on.
 Nuclear repulsion after empirical dispersion term =      596.5786812935 Hartrees.
 One-electron integrals computed using PRISM.
   1 Symmetry operations used in ECPInt.
 ECPInt:  NShTT=    5886 NPrTT=   20688 LenC2=    5341 LenP2D=   14000.
 LDataN:  DoStor=T MaxTD1= 4 Len=   56
 NBasis=   224 RedAO= T EigKep=  1.18D-03  NBF=   224
 NBsUse=   224 1.00D-06 EigRej= -1.00D+00 NBFU=   224
 Initial guess from the checkpoint file:  "A18_crest_conformers_censo-18.chk"
 B after Tr=     0.000000   -0.000000    0.000000
         Rot=    0.999996    0.002697   -0.000376   -0.000264 Ang=   0.31 deg.
 ExpMin= 1.22D-01 ExpMax= 2.27D+03 ExpMxC= 3.41D+02 IAcc=3 IRadAn=         5 AccDes= 0.00D+00
 Harris functional with IExCor= 1009 and IRadAn=       5 diagonalized for initial guess.
 HarFok:  IExCor= 1009 AccDes= 0.00D+00 IRadAn=         5 IDoV= 1 UseB2=F ITyADJ=14
 ICtDFT=  3500011 ScaDFX=  1.000000  1.000000  1.000000  1.000000
 FoFCou: FMM=F IPFlag=           0 FMFlag=      100000 FMFlg1=           0
         NFxFlg=           0 DoJE=T BraDBF=F KetDBF=T FulRan=T
         wScrn=  0.000000 ICntrl=       500 IOpCl=  0 I1Cent=   200000004 NGrid=           0
         NMat0=    1 NMatS0=      1 NMatT0=    0 NMatD0=    1 NMtDS0=    0 NMtDT0=    0
 Petite list used in FoFCou.
 Requested convergence on RMS density matrix=1.00D-08 within 128 cycles.
 Requested convergence on MAX density matrix=1.00D-06.
 Requested convergence on             energy=1.00D-06.
 No special actions if energy rises.
 Integral accuracy reduced to 1.0D-05 until final iterations.
 Initial convergence to 1.0D-05 achieved.  Increase integral accuracy.
 SCF Done:  E(RM062X) =  -517.870598577     A.U. after   12 cycles
            NFock= 12  Conv=0.56D-08     -V/T= 2.0100
   1 Symmetry operations used in ECPInt.
 ECPInt:  NShTT=    5886 NPrTT=   20688 LenC2=    5341 LenP2D=   14000.
 LDataN:  DoStor=T MaxTD1= 5 Len=  102
 Calling FoFJK, ICntrl=      2127 FMM=F ISym2X=0 I1Cent= 0 IOpClX= 0 NMat=1 NMatS=1 NMatT=0.
 ***** Axes restored to original set *****
 -------------------------------------------------------------------
 Center     Atomic                   Forces (Hartrees/Bohr)
 Number     Number              X              Y              Z
 -------------------------------------------------------------------
      1        8           0.000012074    0.000436761    0.000244488
      2        6           0.000431503   -0.000532338   -0.000217798
      3        6          -0.000368475    0.000452508    0.000190495
      4        7           0.000223499   -0.000176702   -0.000163183
      5        6          -0.000077848    0.000083757   -0.000036553
      6        6          -0.000048902   -0.000062021    0.000106586
      7        6           0.000032591    0.000179937    0.000038025
      8        6           0.000127085   -0.000072466   -0.000215043
      9        8          -0.000158565   -0.000135633   -0.000186161
     10        6          -0.000231199    0.000099017   -0.000176146
     11        6           0.000151374   -0.000050121    0.000081055
     12        1          -0.000044737   -0.000075672    0.000075412
     13        1          -0.000022615   -0.000018627   -0.000000076
     14        1           0.000046368    0.000010573   -0.000000975
     15        1           0.000018585   -0.000005790    0.000045094
     16        1           0.000018522    0.000009198    0.000014146
     17        1          -0.000015074   -0.000068167   -0.000040525
     18        1          -0.000018822    0.000025469    0.000044797
     19        1          -0.000011748   -0.000009264    0.000059838
     20        1          -0.000042208    0.000029360    0.000039919
     21        1          -0.000069703   -0.000060631    0.000086491
     22        1           0.000020364   -0.000109031    0.000079909
     23        1          -0.000004560    0.000049075    0.000047987
     24        1           0.000035444    0.000014023   -0.000130355
     25        1          -0.000002953   -0.000013217    0.000012573
 -------------------------------------------------------------------
 Cartesian Forces:  Max     0.000532338 RMS     0.000149965

 GradGradGradGradGradGradGradGradGradGradGradGradGradGradGradGradGradGrad
 Berny optimization.
 Using GEDIIS/GDIIS optimizer.
 FormGI is forming the generalized inverse of G from B-inverse, IUseBI=4.
 Internal  Forces:  Max     0.000446165 RMS     0.000091271
 Search for a local minimum.
 Step number   9 out of a maximum of  121
 All quantities printed in internal units (Hartrees-Bohrs-Radians)
 Mixed Optimization -- En-DIIS/RFO-DIIS
 Swapping is turned off.
 Update second derivatives using D2CorX and points    6    7    8    9
 DE= -4.91D-05 DEPred=-4.72D-05 R= 1.04D+00
 TightC=F SS=  1.41D+00  RLast= 1.14D-01 DXNew= 2.1164D+00 3.4300D-01
 Trust test= 1.04D+00 RLast= 1.14D-01 DXMaxT set to 1.26D+00
 ITU=  1  1  1  1  1  0  1  1  0
     Eigenvalues ---    0.00113   0.00287   0.00372   0.00438   0.00827
     Eigenvalues ---    0.01403   0.01561   0.02356   0.02433   0.02500
     Eigenvalues ---    0.03408   0.04107   0.04916   0.05302   0.05382
     Eigenvalues ---    0.05486   0.05552   0.05587   0.05716   0.05779
     Eigenvalues ---    0.05826   0.05856   0.08385   0.11765   0.13960
     Eigenvalues ---    0.15699   0.15892   0.15932   0.16000   0.16000
     Eigenvalues ---    0.16001   0.16002   0.16012   0.16022   0.16047
     Eigenvalues ---    0.16197   0.16963   0.18161   0.21843   0.22477
     Eigenvalues ---    0.23205   0.24561   0.25120   0.25820   0.28943
     Eigenvalues ---    0.29411   0.29904   0.32917   0.33187   0.33433
     Eigenvalues ---    0.33648   0.33819   0.33902   0.34377   0.34634
     Eigenvalues ---    0.34805   0.34882   0.34965   0.35026   0.35095
     Eigenvalues ---    0.35121   0.35436   0.37594   0.41472   0.47294
     Eigenvalues ---    0.51699   0.58784   0.74348   0.89299
 En-DIIS/RFO-DIIS/Sim-DIIS IScMMF=       -3 using points:     9    8    7    6    5
 RFO step:  Lambda=-8.96274685D-06.
 DidBck=F Rises=F RFO-DIIS coefs:    1.12534   -0.04006   -0.01243   -0.09269    0.01984
 Iteration  1 RMS(Cart)=  0.01116112 RMS(Int)=  0.00003900
 Iteration  2 RMS(Cart)=  0.00005930 RMS(Int)=  0.00000289
 Iteration  3 RMS(Cart)=  0.00000000 RMS(Int)=  0.00000289
 Variable       Old X    -DE/DX   Delta X   Delta X   Delta X     New X
                                 (Linear)    (Quad)   (Total)
    R1        2.31749  -0.00045  -0.00026  -0.00037  -0.00063   2.31685
    R2        2.66438   0.00032  -0.00021   0.00081   0.00060   2.66497
    R3        2.66886  -0.00035   0.00126  -0.00163  -0.00036   2.66850
    R4        2.55539  -0.00016   0.00050  -0.00044   0.00006   2.55545
    R5        2.07854  -0.00007   0.00013  -0.00026  -0.00013   2.07841
    R6        2.42462   0.00005  -0.00016   0.00016   0.00001   2.42463
    R7        2.85748  -0.00012   0.00010  -0.00040  -0.00030   2.85718
    R8        2.10188  -0.00002   0.00021  -0.00012   0.00008   2.10197
    R9        2.88063  -0.00011   0.00022  -0.00048  -0.00026   2.88037
   R10        2.89761  -0.00009  -0.00017  -0.00027  -0.00045   2.89717
   R11        2.09983  -0.00001   0.00032  -0.00011   0.00022   2.10005
   R12        2.07389  -0.00002   0.00011  -0.00010   0.00002   2.07391
   R13        2.08384  -0.00002   0.00027  -0.00015   0.00012   2.08396
   R14        2.07893  -0.00002   0.00059  -0.00027   0.00032   2.07925
   R15        2.08520   0.00000   0.00018  -0.00006   0.00013   2.08532
   R16        2.08183  -0.00001   0.00028  -0.00010   0.00018   2.08201
   R17        2.08212   0.00001   0.00033  -0.00006   0.00027   2.08238
   R18        2.64410  -0.00005  -0.00024  -0.00010  -0.00034   2.64376
   R19        2.87885   0.00005  -0.00000   0.00007   0.00007   2.87891
   R20        2.08469  -0.00004   0.00022  -0.00020   0.00001   2.08470
   R21        2.08155   0.00013  -0.00026   0.00048   0.00022   2.08178
   R22        2.07446  -0.00005   0.00044  -0.00025   0.00020   2.07466
   R23        2.08238   0.00002   0.00035  -0.00009   0.00025   2.08264
   R24        2.07942  -0.00002   0.00024  -0.00013   0.00011   2.07953
    A1        2.29090   0.00009   0.00083   0.00004   0.00085   2.29175
    A2        2.06608  -0.00013  -0.00000  -0.00070  -0.00072   2.06536
    A3        1.92621   0.00004  -0.00079   0.00067  -0.00013   1.92607
    A4        2.10852  -0.00025   0.00040  -0.00128  -0.00088   2.10763
    A5        2.05854   0.00015  -0.00028   0.00086   0.00058   2.05912
    A6        2.11612   0.00009  -0.00011   0.00042   0.00031   2.11643
    A7        2.16637  -0.00008  -0.00010  -0.00023  -0.00033   2.16604
    A8        2.13681  -0.00009   0.00007  -0.00023  -0.00017   2.13665
    A9        2.12165   0.00007  -0.00022   0.00034   0.00012   2.12176
   A10        2.02471   0.00002   0.00016  -0.00011   0.00004   2.02475
   A11        1.94289  -0.00005  -0.00019  -0.00018  -0.00037   1.94252
   A12        1.93558   0.00004  -0.00026   0.00039   0.00013   1.93571
   A13        1.90182  -0.00003   0.00056  -0.00067  -0.00011   1.90171
   A14        1.93916   0.00001   0.00061  -0.00002   0.00059   1.93975
   A15        1.88236   0.00003  -0.00078   0.00045  -0.00033   1.88203
   A16        1.85894  -0.00000   0.00005   0.00003   0.00008   1.85902
   A17        1.92863   0.00001  -0.00034   0.00017  -0.00017   1.92846
   A18        1.94124  -0.00002  -0.00004  -0.00012  -0.00017   1.94107
   A19        1.91542   0.00011  -0.00009   0.00079   0.00071   1.91613
   A20        1.91637   0.00001   0.00069  -0.00013   0.00056   1.91692
   A21        1.85386  -0.00006   0.00036  -0.00064  -0.00028   1.85357
   A22        1.90621  -0.00005  -0.00057  -0.00008  -0.00065   1.90556
   A23        1.95149   0.00006  -0.00024   0.00051   0.00026   1.95175
   A24        1.93711   0.00005  -0.00010   0.00032   0.00023   1.93734
   A25        1.91778   0.00006   0.00010   0.00039   0.00049   1.91827
   A26        1.88498  -0.00005  -0.00001  -0.00025  -0.00026   1.88472
   A27        1.89253  -0.00006   0.00008  -0.00039  -0.00031   1.89222
   A28        1.87777  -0.00007   0.00018  -0.00064  -0.00046   1.87731
   A29        2.01399  -0.00011   0.00018  -0.00098  -0.00080   2.01319
   A30        1.95720   0.00010  -0.00087   0.00065  -0.00021   1.95699
   A31        1.85505  -0.00007   0.00076  -0.00074   0.00002   1.85506
   A32        1.92504  -0.00002   0.00021   0.00008   0.00029   1.92533
   A33        1.92428   0.00002   0.00001   0.00036   0.00037   1.92465
   A34        1.90312   0.00001  -0.00045   0.00037  -0.00008   1.90304
   A35        1.89808  -0.00005   0.00041  -0.00079  -0.00038   1.89770
   A36        1.89419  -0.00010  -0.00010  -0.00061  -0.00071   1.89347
   A37        1.94030   0.00021   0.00009   0.00139   0.00148   1.94178
   A38        1.92490  -0.00004   0.00052  -0.00054  -0.00003   1.92488
   A39        1.90379  -0.00003  -0.00072   0.00039  -0.00032   1.90346
   A40        1.90220   0.00002  -0.00014  -0.00016  -0.00030   1.90190
   A41        1.89804  -0.00008   0.00033  -0.00048  -0.00015   1.89788
    D1        0.00204  -0.00017   0.00371  -0.00654  -0.00282  -0.00078
    D2        3.14158  -0.00015   0.00373  -0.00552  -0.00179   3.13979
    D3        3.14108  -0.00002   0.00039  -0.00347  -0.00308   3.13800
    D4       -0.00256  -0.00000   0.00041  -0.00245  -0.00205  -0.00461
    D5        0.02233   0.00006  -0.00460   0.00112  -0.00348   0.01885
    D6       -3.11708  -0.00007  -0.00175  -0.00150  -0.00326  -3.12034
    D7       -3.14017   0.00002  -0.00051   0.00108   0.00057  -3.13960
    D8        0.00354   0.00001  -0.00053   0.00004  -0.00049   0.00305
    D9        3.13727   0.00005  -0.00230   0.00222  -0.00008   3.13719
   D10        0.00227   0.00005   0.00028   0.00157   0.00184   0.00412
   D11        0.07048   0.00001   0.01514  -0.00035   0.01479   0.08527
   D12        2.23904   0.00002   0.01561  -0.00023   0.01538   2.25442
   D13       -2.00334   0.00003   0.01586  -0.00037   0.01549  -1.98785
   D14       -3.07737   0.00001   0.01270   0.00027   0.01297  -3.06440
   D15       -0.90880   0.00002   0.01317   0.00039   0.01356  -0.89524
   D16        1.13200   0.00003   0.01342   0.00025   0.01367   1.14567
   D17       -0.97238   0.00003   0.00385   0.00137   0.00522  -0.96716
   D18       -3.10553   0.00003   0.00324   0.00151   0.00474  -3.10079
   D19        1.06634   0.00003   0.00404   0.00116   0.00520   1.07154
   D20       -3.13892   0.00001   0.00388   0.00101   0.00489  -3.13404
   D21        1.01111   0.00000   0.00327   0.00115   0.00441   1.01552
   D22       -1.10020   0.00000   0.00406   0.00080   0.00487  -1.09534
   D23        1.11305  -0.00001   0.00394   0.00072   0.00466   1.11771
   D24       -1.02010  -0.00001   0.00333   0.00086   0.00419  -1.01592
   D25       -3.13141  -0.00001   0.00412   0.00052   0.00464  -3.12678
   D26        3.05257   0.00000   0.00109  -0.00217  -0.00108   3.05149
   D27        0.94652  -0.00001   0.00133  -0.00242  -0.00109   0.94543
   D28       -1.12823   0.00001   0.00110  -0.00207  -0.00097  -1.12920
   D29       -1.05993  -0.00002   0.00110  -0.00213  -0.00103  -1.06097
   D30        3.11720  -0.00003   0.00134  -0.00238  -0.00104   3.11617
   D31        1.04246  -0.00002   0.00111  -0.00203  -0.00092   1.04153
   D32        0.98562   0.00001   0.00052  -0.00159  -0.00107   0.98455
   D33       -1.12043   0.00000   0.00077  -0.00184  -0.00107  -1.12150
   D34        3.08801   0.00002   0.00053  -0.00149  -0.00096   3.08705
   D35        1.38469   0.00013   0.00496   0.00219   0.00716   1.39185
   D36       -2.79459   0.00017   0.00496   0.00254   0.00750  -2.78709
   D37       -0.74000   0.00006   0.00599   0.00122   0.00720  -0.73280
   D38       -1.11841   0.00000   0.00033  -0.00072  -0.00039  -1.11880
   D39        3.07097  -0.00003   0.00122  -0.00167  -0.00044   3.07053
   D40        0.96421  -0.00005   0.00040  -0.00162  -0.00121   0.96299
   D41        3.10148   0.00002  -0.00008  -0.00045  -0.00052   3.10095
   D42        1.00767  -0.00002   0.00082  -0.00139  -0.00057   1.00709
   D43       -1.09910  -0.00003  -0.00000  -0.00134  -0.00134  -1.10044
   D44        1.01878   0.00006  -0.00030   0.00008  -0.00023   1.01855
   D45       -1.07503   0.00002   0.00059  -0.00087  -0.00028  -1.07531
   D46        3.10139   0.00000  -0.00023  -0.00082  -0.00105   3.10035
         Item               Value     Threshold  Converged?
 Maximum Force            0.000446     0.000450     YES
 RMS     Force            0.000091     0.000300     YES
 Maximum Displacement     0.039447     0.001800     NO 
 RMS     Displacement     0.011161     0.001200     NO 
 Predicted change in Energy=-4.422973D-06
 GradGradGradGradGradGradGradGradGradGradGradGradGradGradGradGradGradGrad

                          Input orientation:                          
 ---------------------------------------------------------------------
 Center     Atomic      Atomic             Coordinates (Angstroms)
 Number     Number       Type             X           Y           Z
 ---------------------------------------------------------------------
      1          8           0        1.584329   -1.308723    0.071225
      2          6           0        1.431855   -0.094981    0.153228
      3          6           0        0.271438    0.703872    0.089555
      4          7           0       -0.945411    0.142674   -0.092148
      5          6           0       -2.040887    0.806995   -0.161771
      6          6           0       -3.381455    0.139994   -0.371530
      7          6           0       -3.251699   -1.378671   -0.362316
      8          6           0       -4.398062    0.614396    0.673407
      9          8           0        2.574562    0.712845    0.342133
     10          6           0        3.792029    0.025559    0.393765
     11          6           0        4.303450   -0.340815   -0.993727
     12          1           0        0.388188    1.792601    0.193018
     13          1           0       -2.055643    1.916071   -0.078269
     14          1           0       -3.783438    0.441195   -1.362830
     15          1           0       -2.516320   -1.705982   -1.108314
     16          1           0       -4.222990   -1.863366   -0.556730
     17          1           0       -2.869275   -1.713899    0.613395
     18          1           0       -5.405467    0.207658    0.479950
     19          1           0       -4.471018    1.713690    0.682679
     20          1           0       -4.080313    0.293759    1.678652
     21          1           0        4.505786    0.698083    0.898994
     22          1           0        3.687383   -0.893318    0.992348
     23          1           0        3.593821   -1.041735   -1.452465
     24          1           0        5.296105   -0.816668   -0.940885
     25          1           0        4.375632    0.558656   -1.623574
 ---------------------------------------------------------------------
                    Distance matrix (angstroms):
                    1          2          3          4          5
     1  O    0.000000
     2  C    1.226027   0.000000
     3  C    2.403031   1.410244   0.000000
     4  N    2.921101   2.401684   1.352288   0.000000
     5  C    4.203896   3.601766   2.328228   1.283057   0.000000
     6  C    5.191707   4.847529   3.724807   2.452013   1.511956
     7  C    4.855926   4.883577   4.117484   2.776048   2.506675
     8  C    6.312686   5.895908   4.706710   3.567827   2.508165
     9  O    2.267309   1.412107   2.316949   3.592201   4.643829
    10  C    2.599669   2.375460   3.598224   4.763735   5.911190
    11  C    3.076457   3.101935   4.303718   5.347631   6.500787
    12  H    3.326228   2.157264   1.099847   2.140576   2.645316
    13  H    4.865289   4.032439   2.629239   2.092305   1.112313
    14  H    5.825087   5.457581   4.315141   3.123802   2.147751
    15  H    4.285377   4.446898   3.874776   2.630186   2.727092
    16  H    5.867445   5.967286   5.216156   3.870731   3.471080
    17  H    4.504743   4.618698   3.998013   2.765123   2.764419
    18  H    7.164057   6.851810   5.711908   4.497067   3.477270
    19  H    6.795298   6.196412   4.884917   3.936794   2.727770
    20  H    6.102454   5.732542   4.650932   3.603633   2.794607
    21  H    3.639695   3.261007   4.311024   5.568338   6.632949
    22  H    2.333209   2.535522   3.877465   4.869517   6.085732
    23  H    2.535936   2.854591   4.057486   4.884457   6.069071
    24  H    3.878629   4.080483   5.349871   6.371594   7.554783
    25  H    3.761758   3.500013   4.449753   5.552640   6.585610
                    6          7          8          9         10
     6  C    0.000000
     7  C    1.524226   0.000000
     8  C    1.533115   2.521742   0.000000
     9  O    6.025911   6.230249   6.981183   0.000000
    10  C    7.215098   7.222024   8.215992   1.399019   0.000000
    11  C    7.725029   7.652196   8.911121   2.425650   1.523455
    12  H    4.154519   4.859438   4.952487   2.443018   3.840426
    13  H    2.235671   3.516611   2.783218   4.802425   6.163775
    14  H    1.111300   2.143755   2.134015   6.588236   7.787559
    15  H    2.167703   1.097464   3.478453   5.819932   6.711911
    16  H    2.180810   1.102784   2.771857   7.324721   8.289271
    17  H    2.160862   1.100289   2.785991   5.966409   6.888173
    18  H    2.196866   2.804383   1.103506   7.997191   9.199702
    19  H    2.185183   3.484458   1.101752   7.124455   8.438673
    20  H    2.171473   2.765714   1.101949   6.800682   7.981017
    21  H    8.008387   8.129107   8.907098   2.009960   1.103175
    22  H    7.272989   7.086716   8.230999   2.059347   1.101629
    23  H    7.156771   6.939964   8.433996   2.708878   2.141721
    24  H    8.748680   8.585775   9.931301   3.375254   2.180110
    25  H    7.868627   7.969956   9.069561   2.670512   2.166666
                   11         12         13         14         15
    11  C    0.000000
    12  H    4.614012   0.000000
    13  H    6.809527   2.461941   0.000000
    14  H    8.132990   4.652894   2.609718   0.000000
    15  H    6.956011   4.729663   3.793742   2.506139   0.000000
    16  H    8.672331   5.932216   4.382974   2.480727   1.800483
    17  H    7.477713   4.804511   3.783791   3.063590   1.757533
    18  H    9.835427   6.013386   3.801526   2.466040   3.812055
    19  H    9.166385   4.884452   2.540479   2.505218   4.326968
    20  H    8.822233   4.941775   3.133362   3.059491   3.769909
    21  H    2.168557   4.318678   6.744693   8.596107   7.688875
    22  H    2.151579   4.328715   6.482379   7.946128   6.599935
    23  H    1.097863   4.584447   6.523302   7.525361   6.155769
    24  H    1.102085   5.672888   7.890511   9.175966   7.864661
    25  H    1.100439   4.552179   6.752173   8.164080   7.272764
                   16         17         18         19         20
    16  H    0.000000
    17  H    1.795571   0.000000
    18  H    2.600403   3.184722   0.000000
    19  H    3.793808   3.784012   1.783936   0.000000
    20  H    3.109739   2.575281   1.788947   1.777869   0.000000
    21  H    9.212583   7.764712   9.932222   9.036662   8.630901
    22  H    8.118783   6.618665   9.173582   8.570408   7.887793
    23  H    7.910750   6.818445   9.288831   8.785945   8.395223
    24  H    9.584171   8.360278  10.843968  10.219362   9.798583
    25  H    8.996703   7.915632  10.010890   9.214994   9.081734
                   21         22         23         24         25
    21  H    0.000000
    22  H    1.791943   0.000000
    23  H    3.063985   2.451100   0.000000
    24  H    2.510822   2.516197   1.791686   0.000000
    25  H    2.529768   3.070010   1.789346   1.790210   0.000000
 Stoichiometry    C8H14NO2(1-)
 Framework group  C1[X(C8H14NO2)]
 Deg. of freedom    69
 Full point group                 C1      NOp   1
 Largest Abelian subgroup         C1      NOp   1
 Largest concise Abelian subgroup C1      NOp   1
                         Standard orientation:                         
 ---------------------------------------------------------------------
 Center     Atomic      Atomic             Coordinates (Angstroms)
 Number     Number       Type             X           Y           Z
 ---------------------------------------------------------------------
      1          8           0       -1.617114    1.159349    0.503401
      2          6           0       -1.433919   -0.020843    0.226403
      3          6           0       -0.257391   -0.730919   -0.090399
      4          7           0        0.940237   -0.103971   -0.126524
      5          6           0        2.048542   -0.685620   -0.408625
      6          6           0        3.366515    0.054478   -0.443443
      7          6           0        3.201490    1.500664    0.008860
      8          6           0        4.423571   -0.670657    0.397540
      9          8           0       -2.551463   -0.883534    0.196300
     10          6           0       -3.782731   -0.278459    0.470379
     11          6           0       -4.342256    0.458073   -0.740145
     12          1           0       -0.345550   -1.806016   -0.305008
     13          1           0        2.091702   -1.770355   -0.650959
     14          1           0        3.746808    0.065757   -1.487588
     15          1           0        2.437508    2.007174   -0.594634
     16          1           0        4.155159    2.050546   -0.056551
     17          1           0        2.839498    1.527053    1.047562
     18          1           0        5.415184   -0.194518    0.309669
     19          1           0        4.522529   -1.722748    0.085823
     20          1           0        4.127400   -0.664787    1.458925
     21          1           0       -4.465707   -1.090108    0.773307
     22          1           0       -3.682514    0.430483    1.307603
     23          1           0       -3.662735    1.283297   -0.990267
     24          1           0       -5.343871    0.867447   -0.530930
     25          1           0       -4.411384   -0.222252   -1.602319
 ---------------------------------------------------------------------
 Rotational constants (GHZ):           3.6044158           0.3682090           0.3496508
 Standard basis: def2SVP (5D, 7F)
 There are   235 symmetry adapted cartesian basis functions of A   symmetry.
 There are   224 symmetry adapted basis functions of A   symmetry.
   224 basis functions,   373 primitive gaussians,   235 cartesian basis functions
    43 alpha electrons       43 beta electrons
       nuclear repulsion energy       596.5490400307 Hartrees.
 NAtoms=   25 NActive=   25 NUniq=   25 SFac= 1.00D+00 NAtFMM=   60 NAOKFM=F Big=F
 Integral buffers will be    131072 words long.
 Raffenetti 2 integral format.
 Two-electron integral symmetry is turned on.
 Nuclear repulsion after empirical dispersion term =      596.5482422890 Hartrees.
 One-electron integrals computed using PRISM.
   1 Symmetry operations used in ECPInt.
 ECPInt:  NShTT=    5886 NPrTT=   20688 LenC2=    5341 LenP2D=   13999.
 LDataN:  DoStor=T MaxTD1= 4 Len=   56
 NBasis=   224 RedAO= T EigKep=  1.17D-03  NBF=   224
 NBsUse=   224 1.00D-06 EigRej= -1.00D+00 NBFU=   224
 Initial guess from the checkpoint file:  "A18_crest_conformers_censo-18.chk"
 B after Tr=    -0.000000    0.000000    0.000000
         Rot=    0.999999    0.001468   -0.000131   -0.000102 Ang=   0.17 deg.
 ExpMin= 1.22D-01 ExpMax= 2.27D+03 ExpMxC= 3.41D+02 IAcc=3 IRadAn=         5 AccDes= 0.00D+00
 Harris functional with IExCor= 1009 and IRadAn=       5 diagonalized for initial guess.
 HarFok:  IExCor= 1009 AccDes= 0.00D+00 IRadAn=         5 IDoV= 1 UseB2=F ITyADJ=14
 ICtDFT=  3500011 ScaDFX=  1.000000  1.000000  1.000000  1.000000
 FoFCou: FMM=F IPFlag=           0 FMFlag=      100000 FMFlg1=           0
         NFxFlg=           0 DoJE=T BraDBF=F KetDBF=T FulRan=T
         wScrn=  0.000000 ICntrl=       500 IOpCl=  0 I1Cent=   200000004 NGrid=           0
         NMat0=    1 NMatS0=      1 NMatT0=    0 NMatD0=    1 NMtDS0=    0 NMtDT0=    0
 Petite list used in FoFCou.
 Requested convergence on RMS density matrix=1.00D-08 within 128 cycles.
 Requested convergence on MAX density matrix=1.00D-06.
 Requested convergence on             energy=1.00D-06.
 No special actions if energy rises.
 Integral accuracy reduced to 1.0D-05 until final iterations.
 Initial convergence to 1.0D-05 achieved.  Increase integral accuracy.
 SCF Done:  E(RM062X) =  -517.870603075     A.U. after   11 cycles
            NFock= 11  Conv=0.56D-08     -V/T= 2.0100
   1 Symmetry operations used in ECPInt.
 ECPInt:  NShTT=    5886 NPrTT=   20688 LenC2=    5341 LenP2D=   13999.
 LDataN:  DoStor=T MaxTD1= 5 Len=  102
 Calling FoFJK, ICntrl=      2127 FMM=F ISym2X=0 I1Cent= 0 IOpClX= 0 NMat=1 NMatS=1 NMatT=0.
 ***** Axes restored to original set *****
 -------------------------------------------------------------------
 Center     Atomic                   Forces (Hartrees/Bohr)
 Number     Number              X              Y              Z
 -------------------------------------------------------------------
      1        8          -0.000204407   -0.000048580    0.000131896
      2        6           0.000280787    0.000064113   -0.000246743
      3        6          -0.000244524    0.000050669    0.000077651
      4        7           0.000254229   -0.000023019    0.000033650
      5        6          -0.000061748    0.000145491   -0.000000066
      6        6          -0.000043460   -0.000018853   -0.000003451
      7        6          -0.000030221    0.000009319    0.000018241
      8        6           0.000056985   -0.000044087   -0.000076878
      9        8          -0.000114657   -0.000090746   -0.000084912
     10        6           0.000124257    0.000078926    0.000007807
     11        6           0.000053811   -0.000081304   -0.000025715
     12        1          -0.000013905   -0.000063660    0.000044391
     13        1          -0.000003270   -0.000050572    0.000008066
     14        1          -0.000001131   -0.000017521    0.000027032
     15        1          -0.000036614    0.000018263    0.000039928
     16        1           0.000053408   -0.000002069    0.000011619
     17        1          -0.000036658    0.000007541   -0.000068736
     18        1           0.000050540    0.000025215    0.000033471
     19        1          -0.000003078   -0.000055712    0.000023254
     20        1          -0.000036544    0.000033414   -0.000035399
     21        1          -0.000008396   -0.000037796    0.000036323
     22        1           0.000001371    0.000013064    0.000014089
     23        1           0.000030111    0.000064641    0.000032589
     24        1          -0.000061293    0.000064546   -0.000033425
     25        1          -0.000005589   -0.000041282    0.000035320
 -------------------------------------------------------------------
 Cartesian Forces:  Max     0.000280787 RMS     0.000081283

 GradGradGradGradGradGradGradGradGradGradGradGradGradGradGradGradGradGrad
 Berny optimization.
 Using GEDIIS/GDIIS optimizer.
 FormGI is forming the generalized inverse of G from B-inverse, IUseBI=4.
 Internal  Forces:  Max     0.000327438 RMS     0.000059772
 Search for a local minimum.
 Step number  10 out of a maximum of  121
 All quantities printed in internal units (Hartrees-Bohrs-Radians)
 Mixed Optimization -- En-DIIS/RFO-DIIS
 Swapping is turned off.
 Update second derivatives using D2CorX and points    6    7    8    9   10
 DE= -4.50D-06 DEPred=-4.42D-06 R= 1.02D+00
 TightC=F SS=  1.41D+00  RLast= 4.09D-02 DXNew= 2.1164D+00 1.2280D-01
 Trust test= 1.02D+00 RLast= 4.09D-02 DXMaxT set to 1.26D+00
 ITU=  1  1  1  1  1  1  0  1  1  0
     Eigenvalues ---    0.00113   0.00286   0.00371   0.00434   0.00692
     Eigenvalues ---    0.01404   0.01670   0.02243   0.02357   0.02500
     Eigenvalues ---    0.03499   0.04108   0.04934   0.05378   0.05446
     Eigenvalues ---    0.05487   0.05550   0.05581   0.05720   0.05776
     Eigenvalues ---    0.05816   0.05895   0.08275   0.11713   0.13950
     Eigenvalues ---    0.15344   0.15875   0.15924   0.16000   0.16000
     Eigenvalues ---    0.16000   0.16001   0.16008   0.16032   0.16093
     Eigenvalues ---    0.16154   0.17094   0.18185   0.21260   0.22462
     Eigenvalues ---    0.23374   0.24870   0.25603   0.25905   0.28852
     Eigenvalues ---    0.29485   0.29889   0.32968   0.33224   0.33536
     Eigenvalues ---    0.33742   0.33871   0.34006   0.34352   0.34638
     Eigenvalues ---    0.34814   0.34953   0.34980   0.35038   0.35118
     Eigenvalues ---    0.35212   0.35522   0.37524   0.42803   0.47113
     Eigenvalues ---    0.55486   0.59520   0.74399   0.90510
 En-DIIS/RFO-DIIS/Sim-DIIS IScMMF=       -3 using points:    10    9    8    7    6    5
 RFO step:  Lambda=-2.55298120D-06.
 DidBck=F Rises=F RFO-DIIS coefs:    1.34913   -0.17940   -0.26068    0.03196    0.07800
                  RFO-DIIS coefs:   -0.01902
 Iteration  1 RMS(Cart)=  0.00268812 RMS(Int)=  0.00000345
 Iteration  2 RMS(Cart)=  0.00001036 RMS(Int)=  0.00000195
 Iteration  3 RMS(Cart)=  0.00000000 RMS(Int)=  0.00000195
 Variable       Old X    -DE/DX   Delta X   Delta X   Delta X     New X
                                 (Linear)    (Quad)   (Total)
    R1        2.31685   0.00001  -0.00056   0.00038  -0.00018   2.31667
    R2        2.66497   0.00008   0.00063  -0.00029   0.00034   2.66531
    R3        2.66850  -0.00000  -0.00014   0.00007  -0.00007   2.66843
    R4        2.55545  -0.00016   0.00023  -0.00042  -0.00019   2.55526
    R5        2.07841  -0.00006  -0.00016  -0.00001  -0.00018   2.07823
    R6        2.42463   0.00011   0.00011   0.00004   0.00016   2.42478
    R7        2.85718   0.00005   0.00017   0.00001   0.00018   2.85736
    R8        2.10197  -0.00005   0.00002  -0.00013  -0.00011   2.10185
    R9        2.88037  -0.00004  -0.00011  -0.00001  -0.00012   2.88025
   R10        2.89717  -0.00010  -0.00037  -0.00002  -0.00040   2.89677
   R11        2.10005  -0.00003   0.00013  -0.00016  -0.00003   2.10002
   R12        2.07391  -0.00006   0.00014  -0.00025  -0.00011   2.07380
   R13        2.08396  -0.00005   0.00017  -0.00023  -0.00006   2.08390
   R14        2.07925  -0.00008   0.00030  -0.00039  -0.00009   2.07916
   R15        2.08532  -0.00006   0.00019  -0.00029  -0.00010   2.08523
   R16        2.08201  -0.00005   0.00020  -0.00027  -0.00007   2.08194
   R17        2.08238  -0.00005   0.00030  -0.00035  -0.00005   2.08233
   R18        2.64376   0.00009  -0.00031   0.00031  -0.00001   2.64376
   R19        2.87891  -0.00001  -0.00016   0.00011  -0.00005   2.87886
   R20        2.08470  -0.00001   0.00012  -0.00012   0.00001   2.08470
   R21        2.08178  -0.00000   0.00000   0.00001   0.00001   2.08179
   R22        2.07466  -0.00007   0.00033  -0.00038  -0.00005   2.07461
   R23        2.08264  -0.00008   0.00025  -0.00040  -0.00015   2.08249
   R24        2.07953  -0.00005   0.00018  -0.00028  -0.00010   2.07943
    A1        2.29175  -0.00022   0.00020  -0.00066  -0.00045   2.29130
    A2        2.06536   0.00022  -0.00001   0.00046   0.00045   2.06581
    A3        1.92607  -0.00000  -0.00021   0.00020   0.00000   1.92607
    A4        2.10763  -0.00010  -0.00091   0.00030  -0.00061   2.10703
    A5        2.05912   0.00005   0.00050  -0.00015   0.00035   2.05947
    A6        2.11643   0.00005   0.00041  -0.00015   0.00026   2.11669
    A7        2.16604   0.00004   0.00003   0.00010   0.00013   2.16617
    A8        2.13665  -0.00001  -0.00017   0.00010  -0.00006   2.13658
    A9        2.12176   0.00001  -0.00023   0.00023   0.00001   2.12177
   A10        2.02475   0.00000   0.00038  -0.00034   0.00005   2.02479
   A11        1.94252   0.00004  -0.00016   0.00040   0.00024   1.94276
   A12        1.93571  -0.00002   0.00006  -0.00008  -0.00002   1.93569
   A13        1.90171  -0.00000  -0.00019   0.00022   0.00003   1.90174
   A14        1.93975  -0.00002   0.00022  -0.00021   0.00001   1.93976
   A15        1.88203  -0.00001  -0.00009  -0.00017  -0.00026   1.88176
   A16        1.85902   0.00001   0.00016  -0.00019  -0.00002   1.85900
   A17        1.92846  -0.00001  -0.00010  -0.00002  -0.00012   1.92834
   A18        1.94107   0.00003   0.00006   0.00015   0.00021   1.94128
   A19        1.91613   0.00002   0.00033  -0.00012   0.00021   1.91634
   A20        1.91692  -0.00001   0.00015  -0.00008   0.00006   1.91698
   A21        1.85357  -0.00000  -0.00011   0.00005  -0.00005   1.85352
   A22        1.90556  -0.00003  -0.00034   0.00001  -0.00032   1.90524
   A23        1.95175   0.00002   0.00032  -0.00009   0.00023   1.95199
   A24        1.93734   0.00002   0.00021  -0.00004   0.00017   1.93751
   A25        1.91827   0.00003   0.00013   0.00011   0.00024   1.91851
   A26        1.88472  -0.00002  -0.00010  -0.00002  -0.00012   1.88460
   A27        1.89222  -0.00003  -0.00019  -0.00004  -0.00023   1.89199
   A28        1.87731  -0.00003  -0.00042   0.00009  -0.00033   1.87698
   A29        2.01319   0.00033  -0.00017   0.00086   0.00069   2.01389
   A30        1.95699  -0.00002  -0.00079   0.00032  -0.00047   1.95652
   A31        1.85506   0.00001   0.00043  -0.00003   0.00040   1.85547
   A32        1.92533  -0.00000   0.00022  -0.00032  -0.00010   1.92523
   A33        1.92465   0.00002   0.00076  -0.00030   0.00046   1.92511
   A34        1.90304   0.00003  -0.00043   0.00046   0.00003   1.90307
   A35        1.89770  -0.00003  -0.00015  -0.00016  -0.00031   1.89738
   A36        1.89347  -0.00002  -0.00065   0.00038  -0.00027   1.89321
   A37        1.94178   0.00005   0.00130  -0.00058   0.00072   1.94250
   A38        1.92488  -0.00002   0.00020  -0.00037  -0.00018   1.92470
   A39        1.90346   0.00001  -0.00052   0.00062   0.00010   1.90356
   A40        1.90190   0.00000  -0.00025   0.00001  -0.00024   1.90166
   A41        1.89788  -0.00002  -0.00011  -0.00003  -0.00014   1.89774
    D1       -0.00078  -0.00013  -0.00224  -0.00176  -0.00401  -0.00479
    D2        3.13979  -0.00012  -0.00143  -0.00171  -0.00314   3.13665
    D3        3.13800   0.00002  -0.00161  -0.00084  -0.00245   3.13556
    D4       -0.00461   0.00003  -0.00080  -0.00079  -0.00158  -0.00619
    D5        0.01885   0.00003  -0.00535   0.00049  -0.00486   0.01399
    D6       -3.12034  -0.00010  -0.00591  -0.00029  -0.00619  -3.12653
    D7       -3.13960   0.00001   0.00028   0.00022   0.00049  -3.13911
    D8        0.00305   0.00000  -0.00056   0.00016  -0.00040   0.00264
    D9        3.13719  -0.00004  -0.00024  -0.00083  -0.00108   3.13612
   D10        0.00412  -0.00003   0.00015  -0.00043  -0.00028   0.00383
   D11        0.08527   0.00001   0.00286   0.00029   0.00314   0.08841
   D12        2.25442  -0.00000   0.00307   0.00025   0.00332   2.25775
   D13       -1.98785   0.00000   0.00319   0.00011   0.00330  -1.98455
   D14       -3.06440   0.00000   0.00248  -0.00009   0.00239  -3.06200
   D15       -0.89524  -0.00001   0.00270  -0.00013   0.00257  -0.89267
   D16        1.14567  -0.00001   0.00281  -0.00026   0.00255   1.14822
   D17       -0.96716  -0.00000   0.00197  -0.00029   0.00168  -0.96548
   D18       -3.10079  -0.00000   0.00181  -0.00027   0.00154  -3.09925
   D19        1.07154  -0.00001   0.00198  -0.00030   0.00167   1.07321
   D20       -3.13404   0.00000   0.00184  -0.00033   0.00152  -3.13252
   D21        1.01552   0.00000   0.00169  -0.00031   0.00138   1.01690
   D22       -1.09534   0.00000   0.00185  -0.00034   0.00151  -1.09383
   D23        1.11771   0.00001   0.00158   0.00012   0.00170   1.11941
   D24       -1.01592   0.00001   0.00142   0.00013   0.00156  -1.01436
   D25       -3.12678   0.00001   0.00159   0.00010   0.00169  -3.12509
   D26        3.05149  -0.00001  -0.00017   0.00059   0.00042   3.05191
   D27        0.94543  -0.00001  -0.00041   0.00071   0.00030   0.94573
   D28       -1.12920  -0.00001  -0.00011   0.00055   0.00045  -1.12875
   D29       -1.06097   0.00002  -0.00017   0.00091   0.00073  -1.06023
   D30        3.11617   0.00001  -0.00041   0.00102   0.00061   3.11677
   D31        1.04153   0.00002  -0.00011   0.00086   0.00076   1.04229
   D32        0.98455  -0.00000  -0.00007   0.00048   0.00041   0.98496
   D33       -1.12150  -0.00001  -0.00031   0.00059   0.00028  -1.12122
   D34        3.08705  -0.00000  -0.00001   0.00044   0.00043   3.08748
   D35        1.39185   0.00004   0.00266   0.00053   0.00319   1.39504
   D36       -2.78709   0.00005   0.00342   0.00033   0.00374  -2.78335
   D37       -0.73280   0.00001   0.00360  -0.00005   0.00355  -0.72925
   D38       -1.11880   0.00001  -0.00032   0.00026  -0.00006  -1.11886
   D39        3.07053  -0.00001  -0.00006  -0.00039  -0.00045   3.07008
   D40        0.96299  -0.00000  -0.00090   0.00028  -0.00062   0.96237
   D41        3.10095   0.00001  -0.00086   0.00029  -0.00057   3.10038
   D42        1.00709  -0.00002  -0.00060  -0.00036  -0.00096   1.00613
   D43       -1.10044  -0.00001  -0.00144   0.00031  -0.00113  -1.10157
   D44        1.01855   0.00002  -0.00087   0.00039  -0.00049   1.01807
   D45       -1.07531  -0.00001  -0.00061  -0.00026  -0.00087  -1.07618
   D46        3.10035  -0.00000  -0.00145   0.00041  -0.00104   3.09930
         Item               Value     Threshold  Converged?
 Maximum Force            0.000327     0.000450     YES
 RMS     Force            0.000060     0.000300     YES
 Maximum Displacement     0.010670     0.001800     NO 
 RMS     Displacement     0.002686     0.001200     NO 
 Predicted change in Energy=-1.271013D-06
 GradGradGradGradGradGradGradGradGradGradGradGradGradGradGradGradGradGrad

                          Input orientation:                          
 ---------------------------------------------------------------------
 Center     Atomic      Atomic             Coordinates (Angstroms)
 Number     Number       Type             X           Y           Z
 ---------------------------------------------------------------------
      1          8           0        1.583106   -1.307888    0.068119
      2          6           0        1.431709   -0.094097    0.149953
      3          6           0        0.271090    0.705048    0.089754
      4          7           0       -0.945544    0.143662   -0.092056
      5          6           0       -2.041577    0.807472   -0.159275
      6          6           0       -3.381788    0.140058   -0.370656
      7          6           0       -3.251923   -1.378536   -0.361788
      8          6           0       -4.399570    0.613976    0.673049
      9          8           0        2.574967    0.713435    0.336486
     10          6           0        3.792190    0.026064    0.392446
     11          6           0        4.306627   -0.342334   -0.993363
     12          1           0        0.387686    1.793514    0.195119
     13          1           0       -2.057006    1.916275   -0.073108
     14          1           0       -3.782765    0.441254   -1.362347
     15          1           0       -2.514495   -1.705293   -1.105919
     16          1           0       -4.222534   -1.863425   -0.558913
     17          1           0       -2.872149   -1.714383    0.614694
     18          1           0       -5.406589    0.206768    0.478871
     19          1           0       -4.473201    1.713188    0.682296
     20          1           0       -4.082849    0.293827    1.678748
     21          1           0        4.504883    0.698780    0.898928
     22          1           0        3.685633   -0.891987    0.991970
     23          1           0        3.597788   -1.043801   -1.452418
     24          1           0        5.299220   -0.817902   -0.938468
     25          1           0        4.379690    0.556215   -1.624331
 ---------------------------------------------------------------------
                    Distance matrix (angstroms):
                    1          2          3          4          5
     1  O    0.000000
     2  C    1.225931   0.000000
     3  C    2.402866   1.410423   0.000000
     4  N    2.920055   2.401339   1.352186   0.000000
     5  C    4.202949   3.601689   2.328290   1.283141   0.000000
     6  C    5.190303   4.847228   3.724878   2.452126   1.512049
     7  C    4.854618   4.883448   4.117867   2.776549   2.506906
     8  C    6.312837   5.897356   4.707822   3.568876   2.508054
     9  O    2.267500   1.412070   2.317066   3.591975   4.644039
    10  C    2.600898   2.375945   3.598720   4.763895   5.911669
    11  C    3.078410   3.103860   4.307634   5.351060   6.505186
    12  H    3.326237   2.157569   1.099752   2.140557   2.645599
    13  H    4.864729   4.032677   2.629378   2.092335   1.112253
    14  H    5.822225   5.455675   4.314154   3.122823   2.147844
    15  H    4.280962   4.443613   3.872837   2.628338   2.726495
    16  H    5.865770   5.966865   5.216367   3.871049   3.471308
    17  H    4.507026   4.622176   4.001145   2.768327   2.765616
    18  H    7.163710   6.852812   5.712770   4.497874   3.477267
    19  H    6.795805   6.198196   4.886282   3.937943   2.727886
    20  H    6.104315   5.735682   4.653041   3.605687   2.794450
    21  H    3.640568   3.260984   4.310429   5.567527   6.632325
    22  H    2.333901   2.534915   3.876031   4.867800   6.083951
    23  H    2.537857   2.856821   4.062472   4.889019   6.074690
    24  H    3.881083   4.082424   5.353382   6.374801   7.558854
    25  H    3.762998   3.501654   4.454305   5.556634   6.591069
                    6          7          8          9         10
     6  C    0.000000
     7  C    1.524162   0.000000
     8  C    1.532905   2.521525   0.000000
     9  O    6.025923   6.230295   6.983361   0.000000
    10  C    7.215351   7.222278   8.217622   1.399015   0.000000
    11  C    7.728661   7.655343   8.915679   2.425242   1.523426
    12  H    4.154872   4.859918   4.953539   2.443512   3.841024
    13  H    2.235739   3.516666   2.782146   4.803099   6.164636
    14  H    1.111284   2.143490   2.133804   6.586416   7.786632
    15  H    2.167517   1.097406   3.478109   5.816649   6.709469
    16  H    2.180880   1.102753   2.772470   7.324478   8.289214
    17  H    2.160925   1.100244   2.785260   5.970157   6.891442
    18  H    2.196808   2.804012   1.103455   7.998889   9.200960
    19  H    2.185092   3.484306   1.101714   7.127114   8.440799
    20  H    2.171448   2.766048   1.101924   6.804722   7.983891
    21  H    8.007721   8.128510   8.907721   2.010256   1.103178
    22  H    7.271197   7.085130   8.230440   2.059276   1.101635
    23  H    7.161439   6.944066   8.439405   2.708177   2.141477
    24  H    8.752142   8.588882   9.935481   3.375212   2.180538
    25  H    7.873083   7.973631   9.075059   2.669560   2.166473
                   11         12         13         14         15
    11  C    0.000000
    12  H    4.618705   0.000000
    13  H    6.814984   2.462425   0.000000
    14  H    8.135627   4.652631   2.610760   0.000000
    15  H    6.956870   4.728320   3.793646   2.506377   0.000000
    16  H    8.674622   5.932614   4.383110   2.480010   1.800450
    17  H    7.483529   4.807069   3.784073   3.063443   1.757415
    18  H    9.839490   6.014308   3.800895   2.466145   3.812053
    19  H    9.171607   4.885900   2.539661   2.505011   4.326690
    20  H    8.827694   4.943268   3.131354   3.059419   3.769692
    21  H    2.168868   4.317997   6.744296   8.594463   7.685743
    22  H    2.151580   4.327048   6.480635   7.943381   6.595771
    23  H    1.097835   4.590151   6.530026   7.529014   6.157730
    24  H    1.102006   5.676942   7.895481   9.178649   7.865726
    25  H    1.100386   4.558224   6.759225   8.167468   7.274130
                   16         17         18         19         20
    16  H    0.000000
    17  H    1.795302   0.000000
    18  H    2.600900   3.183183   0.000000
    19  H    3.794153   3.783672   1.783787   0.000000
    20  H    3.111330   2.575055   1.788735   1.777604   0.000000
    21  H    9.211841   7.766901   9.932563   9.037806   8.632568
    22  H    8.117145   6.619908   9.172733   8.570263   7.888417
    23  H    7.913758   6.825153   9.293686   8.791976   8.401525
    24  H    9.586500   8.365839  10.847725  10.224162   9.803518
    25  H    8.999336   7.921997  10.015830   9.221323   9.088110
                   21         22         23         24         25
    21  H    0.000000
    22  H    1.791749   0.000000
    23  H    3.064023   2.450672   0.000000
    24  H    2.511438   2.517089   1.791660   0.000000
    25  H    2.530383   3.069859   1.789128   1.790011   0.000000
 Stoichiometry    C8H14NO2(1-)
 Framework group  C1[X(C8H14NO2)]
 Deg. of freedom    69
 Full point group                 C1      NOp   1
 Largest Abelian subgroup         C1      NOp   1
 Largest concise Abelian subgroup C1      NOp   1
                         Standard orientation:                         
 ---------------------------------------------------------------------
 Center     Atomic      Atomic             Coordinates (Angstroms)
 Number     Number       Type             X           Y           Z
 ---------------------------------------------------------------------
      1          8           0       -1.615994    1.159350    0.501428
      2          6           0       -1.433818   -0.020874    0.224322
      3          6           0       -0.256999   -0.732099   -0.089604
      4          7           0        0.940307   -0.104787   -0.126269
      5          6           0        2.049203   -0.686503   -0.406281
      6          6           0        3.366651    0.054624   -0.443072
      7          6           0        3.201475    1.500859    0.008804
      8          6           0        4.425237   -0.669432    0.396533
      9          8           0       -2.551883   -0.882770    0.192536
     10          6           0       -3.782766   -0.279000    0.471164
     11          6           0       -4.345842    0.458697   -0.736965
     12          1           0       -0.344887   -1.807524   -0.302187
     13          1           0        2.093167   -1.771745   -0.645913
     14          1           0        3.745545    0.065942   -1.487708
     15          1           0        2.435225    2.006075   -0.592792
     16          1           0        4.154283    2.051815   -0.059530
     17          1           0        2.842513    1.527749    1.048497
     18          1           0        5.416336   -0.192520    0.307711
     19          1           0        4.524897   -1.721432    0.084865
     20          1           0        4.130502   -0.664067    1.458295
     21          1           0       -4.464416   -1.091225    0.775540
     22          1           0       -3.680384    0.429031    1.308905
     23          1           0       -3.667336    1.284580   -0.987540
     24          1           0       -5.347309    0.867090   -0.525545
     25          1           0       -4.416126   -0.220539   -1.599837
 ---------------------------------------------------------------------
 Rotational constants (GHZ):           3.6083033           0.3680660           0.3494735
 Standard basis: def2SVP (5D, 7F)
 There are   235 symmetry adapted cartesian basis functions of A   symmetry.
 There are   224 symmetry adapted basis functions of A   symmetry.
   224 basis functions,   373 primitive gaussians,   235 cartesian basis functions
    43 alpha electrons       43 beta electrons
       nuclear repulsion energy       596.5119376435 Hartrees.
 NAtoms=   25 NActive=   25 NUniq=   25 SFac= 1.00D+00 NAtFMM=   60 NAOKFM=F Big=F
 Integral buffers will be    131072 words long.
 Raffenetti 2 integral format.
 Two-electron integral symmetry is turned on.
 Nuclear repulsion after empirical dispersion term =      596.5111400310 Hartrees.
 One-electron integrals computed using PRISM.
   1 Symmetry operations used in ECPInt.
 ECPInt:  NShTT=    5886 NPrTT=   20688 LenC2=    5341 LenP2D=   13995.
 LDataN:  DoStor=T MaxTD1= 4 Len=   56
 NBasis=   224 RedAO= T EigKep=  1.18D-03  NBF=   224
 NBsUse=   224 1.00D-06 EigRej= -1.00D+00 NBFU=   224
 Initial guess from the checkpoint file:  "A18_crest_conformers_censo-18.chk"
 B after Tr=    -0.000000   -0.000000   -0.000000
         Rot=    1.000000    0.000006   -0.000062   -0.000033 Ang=   0.01 deg.
 Requested convergence on RMS density matrix=1.00D-08 within 128 cycles.
 Requested convergence on MAX density matrix=1.00D-06.
 Requested convergence on             energy=1.00D-06.
 No special actions if energy rises.
 SCF Done:  E(RM062X) =  -517.870604633     A.U. after    9 cycles
            NFock=  9  Conv=0.51D-08     -V/T= 2.0100
   1 Symmetry operations used in ECPInt.
 ECPInt:  NShTT=    5886 NPrTT=   20688 LenC2=    5341 LenP2D=   13995.
 LDataN:  DoStor=T MaxTD1= 5 Len=  102
 Calling FoFJK, ICntrl=      2127 FMM=F ISym2X=0 I1Cent= 0 IOpClX= 0 NMat=1 NMatS=1 NMatT=0.
 ***** Axes restored to original set *****
 -------------------------------------------------------------------
 Center     Atomic                   Forces (Hartrees/Bohr)
 Number     Number              X              Y              Z
 -------------------------------------------------------------------
      1        8          -0.000051281   -0.000108179    0.000040584
      2        6           0.000132287    0.000202945   -0.000048055
      3        6          -0.000105927   -0.000081943    0.000012712
      4        7           0.000104881    0.000030412    0.000011731
      5        6          -0.000024803    0.000030973   -0.000000286
      6        6          -0.000002435    0.000005064   -0.000017128
      7        6           0.000002996   -0.000016188    0.000011736
      8        6           0.000001219   -0.000002166    0.000015295
      9        8          -0.000103989   -0.000036467   -0.000026743
     10        6           0.000057814   -0.000016988   -0.000017274
     11        6           0.000021603   -0.000058426   -0.000042721
     12        1           0.000000636   -0.000006124    0.000020042
     13        1          -0.000008168   -0.000021379   -0.000001462
     14        1          -0.000003578   -0.000001915    0.000007714
     15        1          -0.000017416    0.000005841    0.000010418
     16        1           0.000026547    0.000008992    0.000001263
     17        1          -0.000011068    0.000011176   -0.000022850
     18        1           0.000024523    0.000008837    0.000005757
     19        1          -0.000000713   -0.000021632    0.000003690
     20        1          -0.000011535    0.000008063   -0.000022795
     21        1          -0.000013113   -0.000006228    0.000000385
     22        1          -0.000005846   -0.000002677    0.000008919
     23        1           0.000013816    0.000039278    0.000023996
     24        1          -0.000024880    0.000035519    0.000007093
     25        1          -0.000001569   -0.000006787    0.000017976
 -------------------------------------------------------------------
 Cartesian Forces:  Max     0.000202945 RMS     0.000043524

 GradGradGradGradGradGradGradGradGradGradGradGradGradGradGradGradGradGrad
 Berny optimization.
 Using GEDIIS/GDIIS optimizer.
 FormGI is forming the generalized inverse of G from B-inverse, IUseBI=4.
 Internal  Forces:  Max     0.000098009 RMS     0.000022911
 Search for a local minimum.
 Step number  11 out of a maximum of  121
 All quantities printed in internal units (Hartrees-Bohrs-Radians)
 Mixed Optimization -- En-DIIS/RFO-DIIS
 Swapping is turned off.
 Update second derivatives using D2CorX and points    6    7    8    9   10
                                                     11
 DE= -1.56D-06 DEPred=-1.27D-06 R= 1.23D+00
 TightC=F SS=  1.41D+00  RLast= 1.48D-02 DXNew= 2.1164D+00 4.4465D-02
 Trust test= 1.23D+00 RLast= 1.48D-02 DXMaxT set to 1.26D+00
 ITU=  1  1  1  1  1  1  1  0  1  1  0
     Eigenvalues ---    0.00121   0.00288   0.00369   0.00429   0.00638
     Eigenvalues ---    0.01404   0.01615   0.02004   0.02357   0.02500
     Eigenvalues ---    0.03510   0.04122   0.04942   0.05377   0.05473
     Eigenvalues ---    0.05500   0.05557   0.05588   0.05719   0.05780
     Eigenvalues ---    0.05801   0.05897   0.07951   0.11644   0.13995
     Eigenvalues ---    0.15582   0.15892   0.15918   0.15993   0.16000
     Eigenvalues ---    0.16000   0.16002   0.16026   0.16076   0.16093
     Eigenvalues ---    0.16191   0.17141   0.18185   0.21307   0.22473
     Eigenvalues ---    0.23615   0.24681   0.25611   0.25901   0.28923
     Eigenvalues ---    0.29458   0.29942   0.32801   0.32982   0.33501
     Eigenvalues ---    0.33754   0.33918   0.34082   0.34290   0.34640
     Eigenvalues ---    0.34787   0.34925   0.34982   0.35031   0.35128
     Eigenvalues ---    0.35250   0.35544   0.36222   0.43365   0.47498
     Eigenvalues ---    0.55637   0.58010   0.74358   0.91882
 En-DIIS/RFO-DIIS/Sim-DIIS IScMMF=       -3 using points:    11   10    9    8    7    6    5
 RFO step:  Lambda=-4.59477956D-07.
 DidBck=F Rises=F RFO-DIIS coefs:    1.38958   -0.37126   -0.06534    0.02923    0.01656
                  RFO-DIIS coefs:   -0.01250    0.01373
 Iteration  1 RMS(Cart)=  0.00334686 RMS(Int)=  0.00000345
 Iteration  2 RMS(Cart)=  0.00000539 RMS(Int)=  0.00000097
 Iteration  3 RMS(Cart)=  0.00000000 RMS(Int)=  0.00000097
 Variable       Old X    -DE/DX   Delta X   Delta X   Delta X     New X
                                 (Linear)    (Quad)   (Total)
    R1        2.31667   0.00010  -0.00003   0.00012   0.00009   2.31676
    R2        2.66531  -0.00000   0.00018  -0.00010   0.00008   2.66539
    R3        2.66843  -0.00008  -0.00022  -0.00014  -0.00036   2.66807
    R4        2.55526  -0.00009  -0.00016  -0.00004  -0.00020   2.55506
    R5        2.07823  -0.00000  -0.00007   0.00005  -0.00002   2.07821
    R6        2.42478   0.00003   0.00007   0.00001   0.00008   2.42486
    R7        2.85736  -0.00001   0.00002  -0.00001   0.00001   2.85737
    R8        2.10185  -0.00002  -0.00007  -0.00002  -0.00009   2.10176
    R9        2.88025  -0.00001  -0.00007   0.00004  -0.00002   2.88023
   R10        2.89677  -0.00001  -0.00007   0.00006  -0.00000   2.89677
   R11        2.10002  -0.00001  -0.00010   0.00003  -0.00006   2.09996
   R12        2.07380  -0.00002  -0.00001  -0.00001  -0.00002   2.07377
   R13        2.08390  -0.00003  -0.00005  -0.00003  -0.00008   2.08382
   R14        2.07916  -0.00003  -0.00012   0.00001  -0.00010   2.07906
   R15        2.08523  -0.00003  -0.00004  -0.00002  -0.00006   2.08517
   R16        2.08194  -0.00002  -0.00006  -0.00000  -0.00006   2.08187
   R17        2.08233  -0.00003  -0.00006  -0.00002  -0.00008   2.08226
   R18        2.64376   0.00005   0.00007   0.00001   0.00008   2.64384
   R19        2.87886  -0.00001  -0.00000  -0.00006  -0.00006   2.87880
   R20        2.08470  -0.00001  -0.00003  -0.00000  -0.00003   2.08468
   R21        2.08179   0.00001   0.00005  -0.00001   0.00004   2.08182
   R22        2.07461  -0.00004  -0.00009  -0.00003  -0.00011   2.07449
   R23        2.08249  -0.00004  -0.00009  -0.00004  -0.00013   2.08236
   R24        2.07943  -0.00002  -0.00006   0.00001  -0.00005   2.07938
    A1        2.29130  -0.00008  -0.00031  -0.00007  -0.00038   2.29092
    A2        2.06581   0.00005   0.00025  -0.00008   0.00016   2.06598
    A3        1.92607   0.00003   0.00006   0.00016   0.00022   1.92629
    A4        2.10703  -0.00000  -0.00029   0.00020  -0.00010   2.10693
    A5        2.05947  -0.00000   0.00018  -0.00014   0.00003   2.05950
    A6        2.11669   0.00000   0.00011  -0.00005   0.00006   2.11675
    A7        2.16617   0.00003   0.00005   0.00014   0.00020   2.16636
    A8        2.13658  -0.00001  -0.00015   0.00001  -0.00014   2.13645
    A9        2.12177   0.00002   0.00009   0.00001   0.00011   2.12188
   A10        2.02479  -0.00000   0.00005  -0.00002   0.00004   2.02483
   A11        1.94276  -0.00000   0.00008  -0.00012  -0.00005   1.94272
   A12        1.93569  -0.00000   0.00004  -0.00005  -0.00001   1.93569
   A13        1.90174   0.00000  -0.00016   0.00014  -0.00002   1.90172
   A14        1.93976   0.00000  -0.00015   0.00003  -0.00013   1.93963
   A15        1.88176   0.00000   0.00015  -0.00001   0.00013   1.88190
   A16        1.85900   0.00000   0.00005   0.00003   0.00008   1.85908
   A17        1.92834  -0.00000   0.00005  -0.00002   0.00004   1.92838
   A18        1.94128   0.00001   0.00010  -0.00003   0.00007   1.94135
   A19        1.91634  -0.00000   0.00004  -0.00010  -0.00006   1.91628
   A20        1.91698  -0.00000  -0.00016   0.00000  -0.00016   1.91682
   A21        1.85352   0.00000  -0.00005   0.00010   0.00005   1.85357
   A22        1.90524   0.00000   0.00001   0.00005   0.00006   1.90529
   A23        1.95199  -0.00000   0.00015  -0.00010   0.00005   1.95203
   A24        1.93751   0.00000   0.00008  -0.00001   0.00007   1.93758
   A25        1.91851   0.00000   0.00002  -0.00004  -0.00002   1.91849
   A26        1.88460  -0.00000  -0.00003   0.00002  -0.00000   1.88459
   A27        1.89199  -0.00000  -0.00008   0.00004  -0.00004   1.89195
   A28        1.87698  -0.00000  -0.00015   0.00010  -0.00006   1.87693
   A29        2.01389   0.00005   0.00042  -0.00033   0.00009   2.01398
   A30        1.95652   0.00002   0.00004  -0.00010  -0.00006   1.95646
   A31        1.85547  -0.00001  -0.00004   0.00002  -0.00002   1.85544
   A32        1.92523  -0.00001  -0.00001  -0.00006  -0.00007   1.92516
   A33        1.92511  -0.00001   0.00006   0.00002   0.00007   1.92518
   A34        1.90307   0.00001   0.00016  -0.00001   0.00015   1.90321
   A35        1.89738  -0.00000  -0.00022   0.00016  -0.00007   1.89731
   A36        1.89321  -0.00001  -0.00008  -0.00000  -0.00008   1.89313
   A37        1.94250  -0.00001   0.00027  -0.00025   0.00003   1.94252
   A38        1.92470  -0.00001  -0.00016  -0.00003  -0.00019   1.92452
   A39        1.90356   0.00002   0.00016   0.00015   0.00030   1.90386
   A40        1.90166   0.00001  -0.00008   0.00007  -0.00001   1.90165
   A41        1.89774   0.00001  -0.00012   0.00007  -0.00005   1.89769
    D1       -0.00479  -0.00004  -0.00206  -0.00007  -0.00213  -0.00692
    D2        3.13665  -0.00004  -0.00174  -0.00002  -0.00176   3.13489
    D3        3.13556  -0.00000  -0.00119  -0.00020  -0.00139   3.13417
    D4       -0.00619   0.00000  -0.00087  -0.00014  -0.00102  -0.00721
    D5        0.01399   0.00001  -0.00116  -0.00005  -0.00122   0.01278
    D6       -3.12653  -0.00002  -0.00190   0.00005  -0.00185  -3.12838
    D7       -3.13911   0.00000   0.00028  -0.00010   0.00018  -3.13893
    D8        0.00264  -0.00000  -0.00005  -0.00015  -0.00020   0.00244
    D9        3.13612  -0.00001   0.00024  -0.00013   0.00011   3.13623
   D10        0.00383  -0.00001  -0.00017  -0.00025  -0.00042   0.00341
   D11        0.08841  -0.00000  -0.00373  -0.00003  -0.00376   0.08465
   D12        2.25775  -0.00001  -0.00384  -0.00012  -0.00397   2.25378
   D13       -1.98455  -0.00000  -0.00385  -0.00003  -0.00389  -1.98843
   D14       -3.06200  -0.00000  -0.00333   0.00008  -0.00326  -3.06526
   D15       -0.89267  -0.00001  -0.00345  -0.00001  -0.00346  -0.89613
   D16        1.14822  -0.00000  -0.00346   0.00008  -0.00338   1.14484
   D17       -0.96548  -0.00000  -0.00062  -0.00009  -0.00072  -0.96620
   D18       -3.09925  -0.00000  -0.00052  -0.00006  -0.00058  -3.09983
   D19        1.07321  -0.00000  -0.00063  -0.00004  -0.00066   1.07254
   D20       -3.13252   0.00000  -0.00062   0.00004  -0.00058  -3.13310
   D21        1.01690   0.00000  -0.00052   0.00007  -0.00045   1.01645
   D22       -1.09383   0.00000  -0.00062   0.00009  -0.00053  -1.09436
   D23        1.11941  -0.00000  -0.00069  -0.00000  -0.00069   1.11872
   D24       -1.01436   0.00000  -0.00058   0.00003  -0.00056  -1.01492
   D25       -3.12509   0.00000  -0.00069   0.00005  -0.00063  -3.12572
   D26        3.05191   0.00000   0.00001   0.00009   0.00010   3.05201
   D27        0.94573   0.00000  -0.00011   0.00014   0.00003   0.94576
   D28       -1.12875   0.00000   0.00002   0.00005   0.00007  -1.12868
   D29       -1.06023  -0.00000   0.00003  -0.00008  -0.00005  -1.06029
   D30        3.11677  -0.00000  -0.00009  -0.00004  -0.00013   3.11664
   D31        1.04229  -0.00000   0.00003  -0.00012  -0.00009   1.04220
   D32        0.98496  -0.00000   0.00015  -0.00007   0.00009   0.98504
   D33       -1.12122  -0.00000   0.00003  -0.00002   0.00001  -1.12121
   D34        3.08748  -0.00000   0.00016  -0.00011   0.00005   3.08753
   D35        1.39504   0.00002   0.00128  -0.00001   0.00127   1.39630
   D36       -2.78335   0.00002   0.00134  -0.00004   0.00130  -2.78204
   D37       -0.72925   0.00000   0.00105   0.00012   0.00117  -0.72808
   D38       -1.11886   0.00000  -0.00029   0.00008  -0.00021  -1.11907
   D39        3.07008  -0.00001  -0.00060   0.00005  -0.00055   3.06953
   D40        0.96237  -0.00000  -0.00053   0.00014  -0.00038   0.96199
   D41        3.10038   0.00001  -0.00031   0.00012  -0.00019   3.10019
   D42        1.00613  -0.00001  -0.00062   0.00009  -0.00053   1.00561
   D43       -1.10157   0.00000  -0.00054   0.00018  -0.00036  -1.10193
   D44        1.01807   0.00001  -0.00016  -0.00008  -0.00024   1.01783
   D45       -1.07618  -0.00001  -0.00047  -0.00011  -0.00058  -1.07675
   D46        3.09930   0.00000  -0.00040  -0.00001  -0.00041   3.09889
         Item               Value     Threshold  Converged?
 Maximum Force            0.000098     0.000450     YES
 RMS     Force            0.000023     0.000300     YES
 Maximum Displacement     0.009840     0.001800     NO 
 RMS     Displacement     0.003347     0.001200     NO 
 Predicted change in Energy=-2.214423D-07
 GradGradGradGradGradGradGradGradGradGradGradGradGradGradGradGradGradGrad

                          Input orientation:                          
 ---------------------------------------------------------------------
 Center     Atomic      Atomic             Coordinates (Angstroms)
 Number     Number       Type             X           Y           Z
 ---------------------------------------------------------------------
      1          8           0        1.581678   -1.306567    0.071450
      2          6           0        1.431103   -0.092400    0.149867
      3          6           0        0.270545    0.706840    0.088762
      4          7           0       -0.946026    0.145305   -0.092209
      5          6           0       -2.042185    0.808888   -0.160408
      6          6           0       -3.382234    0.140777   -0.370676
      7          6           0       -3.251082   -1.377708   -0.364683
      8          6           0       -4.398520    0.611844    0.675770
      9          8           0        2.574698    0.715006    0.333417
     10          6           0        3.791569    0.027161    0.392257
     11          6           0        4.306823   -0.345317   -0.992119
     12          1           0        0.387291    1.795449    0.192371
     13          1           0       -2.057925    1.917735   -0.075490
     14          1           0       -3.785165    0.443499   -1.361071
     15          1           0       -2.515200   -1.702628   -1.111126
     16          1           0       -4.221665   -1.863128   -0.560398
     17          1           0       -2.868736   -1.714805    0.610301
     18          1           0       -5.405521    0.204139    0.482721
     19          1           0       -4.473102    1.710937    0.687310
     20          1           0       -4.079684    0.290075    1.680236
     21          1           0        4.504163    0.700927    0.897448
     22          1           0        3.684028   -0.889105    0.994364
     23          1           0        3.598066   -1.047819   -1.449572
     24          1           0        5.299320   -0.820701   -0.935260
     25          1           0        4.380361    0.551486   -1.625470
 ---------------------------------------------------------------------
                    Distance matrix (angstroms):
                    1          2          3          4          5
     1  O    0.000000
     2  C    1.225979   0.000000
     3  C    2.402744   1.410465   0.000000
     4  N    2.919590   2.401218   1.352079   0.000000
     5  C    4.202533   3.601710   2.328351   1.283182   0.000000
     6  C    5.189480   4.847014   3.724822   2.452075   1.512056
     7  C    4.852921   4.882585   4.117379   2.776166   2.506863
     8  C    6.309380   5.895510   4.706780   3.567515   2.508054
     9  O    2.267481   1.411880   2.317119   3.591826   4.644166
    10  C    2.601032   2.375889   3.598845   4.763767   5.911787
    11  C    3.079220   3.104491   4.308930   5.351913   6.506446
    12  H    3.326212   2.157620   1.099743   2.140489   2.645772
    13  H    4.864609   4.032957   2.629642   2.092392   1.112206
    14  H    5.823904   5.457067   4.315107   3.124043   2.147809
    15  H    4.282494   4.444800   3.873712   2.629707   2.726778
    16  H    5.864110   5.966049   5.215947   3.870765   3.471282
    17  H    4.501467   4.618746   3.998932   2.765926   2.765177
    18  H    7.160469   6.851142   5.711885   4.496788   3.477264
    19  H    6.793010   6.196814   4.885557   3.936892   2.727944
    20  H    6.098236   5.732110   4.650911   3.603100   2.794377
    21  H    3.640498   3.260667   4.310166   5.567109   6.632148
    22  H    2.333649   2.534479   3.875438   4.867036   6.083271
    23  H    2.538952   2.857754   4.064196   4.890271   6.076325
    24  H    3.882060   4.083017   5.354491   6.375598   7.560003
    25  H    3.763579   3.502076   4.455706   5.557542   6.592553
                    6          7          8          9         10
     6  C    0.000000
     7  C    1.524151   0.000000
     8  C    1.532903   2.521403   0.000000
     9  O    6.025821   6.229487   6.982379   0.000000
    10  C    7.215153   7.221188   8.215826   1.399060   0.000000
    11  C    7.729429   7.653851   8.915213   2.425199   1.523393
    12  H    4.155031   4.859732   4.953644   2.443767   3.841342
    13  H    2.235734   3.516703   2.783546   4.803640   6.165196
    14  H    1.111250   2.143555   2.133838   6.587326   7.788094
    15  H    2.167523   1.097394   3.478027   5.817105   6.710266
    16  H    2.180889   1.102710   2.772161   7.323676   8.288105
    17  H    2.160830   1.100190   2.785287   5.967547   6.887790
    18  H    2.196814   2.803915   1.103422   7.997947   9.199237
    19  H    2.185116   3.484215   1.101681   7.126613   8.439606
    20  H    2.171398   2.765823   1.101882   6.802594   7.980266
    21  H    8.007320   8.127579   8.905889   2.010265   1.103163
    22  H    7.270216   7.083890   8.226903   2.059281   1.101654
    23  H    7.162496   6.942380   8.439013   2.708114   2.141346
    24  H    8.752860   8.587502   9.934571   3.375130   2.180478
    25  H    7.874076   7.971844   9.075688   2.669156   2.166291
                   11         12         13         14         15
    11  C    0.000000
    12  H    4.620458   0.000000
    13  H    6.817011   2.462882   0.000000
    14  H    8.138712   4.652994   2.609492   0.000000
    15  H    6.956756   4.728647   3.793240   2.506221   0.000000
    16  H    8.673249   5.932481   4.383131   2.480350   1.800301
    17  H    7.478763   4.806065   3.784584   3.063402   1.757398
    18  H    9.839039   6.014419   3.801895   2.466255   3.811832
    19  H    9.172555   4.886260   2.541203   2.505100   4.326683
    20  H    8.824891   4.943052   3.133586   3.059384   3.769639
    21  H    2.168879   4.317841   6.744497   8.595357   7.686541
    22  H    2.151673   4.326487   6.480197   7.944354   6.597373
    23  H    1.097774   4.592300   6.532445   7.532859   6.157543
    24  H    1.101940   5.678364   7.897296   9.181905   7.866094
    25  H    1.100362   4.560328   6.761701   8.170520   7.272850
                   16         17         18         19         20
    16  H    0.000000
    17  H    1.795259   0.000000
    18  H    2.600617   3.183379   0.000000
    19  H    3.793935   3.783601   1.783732   0.000000
    20  H    3.110769   2.575015   1.788650   1.777506   0.000000
    21  H    9.210851   7.763882   9.930792   9.036348   8.629252
    22  H    8.115786   6.615738   9.169343   8.566987   7.882646
    23  H    7.912240   6.819638   9.293316   8.793222   8.398422
    24  H    9.585214   8.360940  10.846869  10.224586   9.800018
    25  H    8.997755   7.917333  10.016417   9.223725   9.086715
                   21         22         23         24         25
    21  H    0.000000
    22  H    1.791708   0.000000
    23  H    3.063924   2.450593   0.000000
    24  H    2.511263   2.517399   1.791749   0.000000
    25  H    2.530370   3.069807   1.789051   1.789908   0.000000
 Stoichiometry    C8H14NO2(1-)
 Framework group  C1[X(C8H14NO2)]
 Deg. of freedom    69
 Full point group                 C1      NOp   1
 Largest Abelian subgroup         C1      NOp   1
 Largest concise Abelian subgroup C1      NOp   1
                         Standard orientation:                         
 ---------------------------------------------------------------------
 Center     Atomic      Atomic             Coordinates (Angstroms)
 Number     Number       Type             X           Y           Z
 ---------------------------------------------------------------------
      1          8           0       -1.614674    1.157574    0.504486
      2          6           0       -1.433405   -0.022024    0.223925
      3          6           0       -0.256666   -0.733053   -0.090934
      4          7           0        0.940599   -0.105841   -0.126681
      5          6           0        2.049591   -0.687027   -0.407598
      6          6           0        3.366892    0.054442   -0.443038
      7          6           0        3.200343    1.501329    0.006200
      8          6           0        4.423984   -0.667794    0.400006
      9          8           0       -2.551896   -0.882943    0.189239
     10          6           0       -3.782359   -0.279567    0.470784
     11          6           0       -4.346287    0.461693   -0.734721
     12          1           0       -0.344748   -1.808093   -0.305325
     13          1           0        2.093835   -1.771921   -0.648533
     14          1           0        3.747830    0.064073   -1.486910
     15          1           0        2.435622    2.005553   -0.598144
     16          1           0        4.153151    2.052390   -0.060570
     17          1           0        2.838720    1.529684    1.044874
     18          1           0        5.415087   -0.190727    0.312464
     19          1           0        4.524664   -1.720289    0.090463
     20          1           0        4.127045   -0.660676    1.461100
     21          1           0       -4.463929   -1.092445    0.773539
     22          1           0       -3.678890    0.425971    1.310518
     23          1           0       -3.667837    1.288120   -0.983383
     24          1           0       -5.347600    0.869326   -0.521460
     25          1           0       -4.417143   -0.215127   -1.599412
 ---------------------------------------------------------------------
 Rotational constants (GHZ):           3.6072827           0.3681375           0.3495447
 Standard basis: def2SVP (5D, 7F)
 There are   235 symmetry adapted cartesian basis functions of A   symmetry.
 There are   224 symmetry adapted basis functions of A   symmetry.
   224 basis functions,   373 primitive gaussians,   235 cartesian basis functions
    43 alpha electrons       43 beta electrons
       nuclear repulsion energy       596.5300699517 Hartrees.
 NAtoms=   25 NActive=   25 NUniq=   25 SFac= 1.00D+00 NAtFMM=   60 NAOKFM=F Big=F
 Integral buffers will be    131072 words long.
 Raffenetti 2 integral format.
 Two-electron integral symmetry is turned on.
 Nuclear repulsion after empirical dispersion term =      596.5292722270 Hartrees.
 One-electron integrals computed using PRISM.
   1 Symmetry operations used in ECPInt.
 ECPInt:  NShTT=    5886 NPrTT=   20688 LenC2=    5341 LenP2D=   13995.
 LDataN:  DoStor=T MaxTD1= 4 Len=   56
 NBasis=   224 RedAO= T EigKep=  1.18D-03  NBF=   224
 NBsUse=   224 1.00D-06 EigRej= -1.00D+00 NBFU=   224
 Initial guess from the checkpoint file:  "A18_crest_conformers_censo-18.chk"
 B after Tr=    -0.000000   -0.000000    0.000000
         Rot=    1.000000   -0.000271    0.000006   -0.000005 Ang=  -0.03 deg.
 Requested convergence on RMS density matrix=1.00D-08 within 128 cycles.
 Requested convergence on MAX density matrix=1.00D-06.
 Requested convergence on             energy=1.00D-06.
 No special actions if energy rises.
 SCF Done:  E(RM062X) =  -517.870604876     A.U. after    8 cycles
            NFock=  8  Conv=0.10D-07     -V/T= 2.0100
   1 Symmetry operations used in ECPInt.
 ECPInt:  NShTT=    5886 NPrTT=   20688 LenC2=    5341 LenP2D=   13995.
 LDataN:  DoStor=T MaxTD1= 5 Len=  102
 Calling FoFJK, ICntrl=      2127 FMM=F ISym2X=0 I1Cent= 0 IOpClX= 0 NMat=1 NMatS=1 NMatT=0.
 ***** Axes restored to original set *****
 -------------------------------------------------------------------
 Center     Atomic                   Forces (Hartrees/Bohr)
 Number     Number              X              Y              Z
 -------------------------------------------------------------------
      1        8           0.000000210   -0.000048040   -0.000010385
      2        6           0.000018365    0.000089156    0.000026283
      3        6          -0.000018072   -0.000043132   -0.000002159
      4        7           0.000006597    0.000025576   -0.000009768
      5        6           0.000006027   -0.000027843    0.000001698
      6        6           0.000015921    0.000003685    0.000000600
      7        6           0.000006097   -0.000004431    0.000002844
      8        6          -0.000010037    0.000006489    0.000014543
      9        8          -0.000044625   -0.000013061   -0.000016465
     10        6           0.000034804   -0.000017573    0.000019208
     11        6          -0.000000617   -0.000004079   -0.000014703
     12        1           0.000004473    0.000009404    0.000003225
     13        1          -0.000003803    0.000003507   -0.000000596
     14        1          -0.000005588    0.000002065   -0.000000915
     15        1          -0.000001401   -0.000000817    0.000009205
     16        1          -0.000004616    0.000006325   -0.000001276
     17        1           0.000004470   -0.000000026   -0.000008453
     18        1          -0.000002561    0.000000163   -0.000002724
     19        1           0.000000359    0.000000714   -0.000002505
     20        1           0.000000818   -0.000003090   -0.000003632
     21        1          -0.000001300    0.000003725   -0.000003576
     22        1          -0.000005763    0.000005433   -0.000009307
     23        1          -0.000000473    0.000001992    0.000002490
     24        1           0.000000715    0.000001520    0.000004613
     25        1          -0.000000001    0.000002337    0.000001754
 -------------------------------------------------------------------
 Cartesian Forces:  Max     0.000089156 RMS     0.000016782

 GradGradGradGradGradGradGradGradGradGradGradGradGradGradGradGradGradGrad
 Berny optimization.
 Using GEDIIS/GDIIS optimizer.
 FormGI is forming the generalized inverse of G from B-inverse, IUseBI=4.
 Internal  Forces:  Max     0.000048237 RMS     0.000008000
 Search for a local minimum.
 Step number  12 out of a maximum of  121
 All quantities printed in internal units (Hartrees-Bohrs-Radians)
 Mixed Optimization -- En-DIIS/RFO-DIIS
 Swapping is turned off.
 Update second derivatives using D2CorX and points    6    7    8    9   10
                                                     11   12
 DE= -2.43D-07 DEPred=-2.21D-07 R= 1.10D+00
 Trust test= 1.10D+00 RLast= 1.03D-02 DXMaxT set to 1.26D+00
 ITU=  0  1  1  1  1  1  1  1  0  1  1  0
     Eigenvalues ---    0.00122   0.00289   0.00368   0.00436   0.00634
     Eigenvalues ---    0.01403   0.01538   0.02072   0.02357   0.02504
     Eigenvalues ---    0.03544   0.04141   0.04937   0.05377   0.05468
     Eigenvalues ---    0.05506   0.05533   0.05582   0.05731   0.05781
     Eigenvalues ---    0.05814   0.05902   0.08101   0.11650   0.13967
     Eigenvalues ---    0.15621   0.15754   0.15921   0.15994   0.16000
     Eigenvalues ---    0.16002   0.16014   0.16025   0.16053   0.16154
     Eigenvalues ---    0.16207   0.17153   0.18227   0.21527   0.22575
     Eigenvalues ---    0.23276   0.24287   0.25618   0.25797   0.28989
     Eigenvalues ---    0.29417   0.29956   0.32206   0.32997   0.33508
     Eigenvalues ---    0.33759   0.33875   0.34075   0.34150   0.34640
     Eigenvalues ---    0.34793   0.34921   0.34987   0.35066   0.35121
     Eigenvalues ---    0.35257   0.35599   0.36184   0.43548   0.47378
     Eigenvalues ---    0.55097   0.57542   0.74537   0.90259
 En-DIIS/RFO-DIIS/Sim-DIIS IScMMF=       -3 using points:    12   11   10    9    8    7    6    5
 RFO step:  Lambda=-4.25680443D-08.
 DIIS inversion failure, remove point   8.
 RFO-DIIS uses    7 points instead of    8
 DidBck=T Rises=F RFO-DIIS coefs:    0.66962    0.46252   -0.08212   -0.05678   -0.00593
                  RFO-DIIS coefs:    0.00832    0.00437    0.00000
 Iteration  1 RMS(Cart)=  0.00065586 RMS(Int)=  0.00000026
 Iteration  2 RMS(Cart)=  0.00000022 RMS(Int)=  0.00000023
 Variable       Old X    -DE/DX   Delta X   Delta X   Delta X     New X
                                 (Linear)    (Quad)   (Total)
    R1        2.31676   0.00005  -0.00007   0.00010   0.00003   2.31680
    R2        2.66539  -0.00001   0.00007  -0.00008  -0.00001   2.66539
    R3        2.66807  -0.00003   0.00001  -0.00007  -0.00006   2.66800
    R4        2.55506  -0.00002   0.00001  -0.00004  -0.00003   2.55503
    R5        2.07821   0.00001  -0.00003   0.00005   0.00001   2.07822
    R6        2.42486  -0.00001   0.00001  -0.00001  -0.00001   2.42486
    R7        2.85737  -0.00001  -0.00001  -0.00002  -0.00003   2.85735
    R8        2.10176   0.00000   0.00000   0.00000   0.00000   2.10177
    R9        2.88023  -0.00000  -0.00004   0.00002  -0.00001   2.88021
   R10        2.89677   0.00001  -0.00006   0.00006   0.00000   2.89677
   R11        2.09996   0.00000   0.00000   0.00001   0.00001   2.09997
   R12        2.07377  -0.00001  -0.00001  -0.00002  -0.00003   2.07375
   R13        2.08382   0.00000   0.00001  -0.00001  -0.00000   2.08382
   R14        2.07906  -0.00001  -0.00000  -0.00001  -0.00001   2.07904
   R15        2.08517   0.00000   0.00000  -0.00001  -0.00000   2.08516
   R16        2.08187   0.00000   0.00000  -0.00000  -0.00000   2.08187
   R17        2.08226  -0.00000   0.00001  -0.00002  -0.00001   2.08225
   R18        2.64384   0.00003  -0.00002   0.00006   0.00004   2.64388
   R19        2.87880   0.00000   0.00002  -0.00001   0.00001   2.87880
   R20        2.08468  -0.00000  -0.00000  -0.00000  -0.00000   2.08467
   R21        2.08182  -0.00001   0.00002  -0.00003  -0.00001   2.08181
   R22        2.07449  -0.00000   0.00001  -0.00002  -0.00001   2.07448
   R23        2.08236   0.00000   0.00001  -0.00002  -0.00001   2.08236
   R24        2.07938   0.00000  -0.00001   0.00000  -0.00001   2.07938
    A1        2.29092  -0.00001   0.00003  -0.00008  -0.00005   2.29087
    A2        2.06598   0.00000   0.00001   0.00002   0.00002   2.06600
    A3        1.92629   0.00001  -0.00003   0.00006   0.00003   1.92631
    A4        2.10693   0.00002  -0.00013   0.00016   0.00003   2.10696
    A5        2.05950  -0.00001   0.00009  -0.00012  -0.00003   2.05947
    A6        2.11675  -0.00000   0.00004  -0.00004  -0.00000   2.11675
    A7        2.16636  -0.00000  -0.00005   0.00004  -0.00001   2.16635
    A8        2.13645   0.00002   0.00001   0.00005   0.00006   2.13650
    A9        2.12188  -0.00000  -0.00001   0.00000  -0.00000   2.12187
   A10        2.02483  -0.00001  -0.00001  -0.00005  -0.00006   2.02478
   A11        1.94272  -0.00000   0.00003  -0.00002   0.00001   1.94273
   A12        1.93569   0.00000   0.00003  -0.00002   0.00001   1.93570
   A13        1.90172   0.00000  -0.00005   0.00007   0.00003   1.90175
   A14        1.93963   0.00000   0.00002   0.00000   0.00002   1.93965
   A15        1.88190   0.00000  -0.00002  -0.00000  -0.00002   1.88188
   A16        1.85908  -0.00000  -0.00002  -0.00003  -0.00005   1.85903
   A17        1.92838   0.00001  -0.00001   0.00002   0.00001   1.92839
   A18        1.94135  -0.00001  -0.00000  -0.00004  -0.00004   1.94131
   A19        1.91628   0.00000   0.00009  -0.00005   0.00004   1.91632
   A20        1.91682   0.00000   0.00003   0.00001   0.00004   1.91686
   A21        1.85357  -0.00001  -0.00007   0.00002  -0.00005   1.85353
   A22        1.90529   0.00000  -0.00005   0.00005   0.00000   1.90529
   A23        1.95203  -0.00000   0.00005  -0.00006  -0.00001   1.95202
   A24        1.93758  -0.00000   0.00002  -0.00003  -0.00001   1.93758
   A25        1.91849  -0.00000   0.00005  -0.00003   0.00002   1.91851
   A26        1.88459   0.00000  -0.00003   0.00001  -0.00001   1.88458
   A27        1.89195   0.00000  -0.00004   0.00004  -0.00000   1.89195
   A28        1.87693   0.00000  -0.00007   0.00008   0.00001   1.87694
   A29        2.01398   0.00002   0.00007  -0.00001   0.00005   2.01403
   A30        1.95646   0.00000   0.00001  -0.00001   0.00000   1.95646
   A31        1.85544  -0.00000  -0.00000  -0.00001  -0.00001   1.85543
   A32        1.92516  -0.00000   0.00002  -0.00005  -0.00003   1.92513
   A33        1.92518  -0.00000   0.00004  -0.00004   0.00000   1.92518
   A34        1.90321  -0.00000  -0.00001   0.00001   0.00001   1.90322
   A35        1.89731   0.00000  -0.00007   0.00010   0.00003   1.89734
   A36        1.89313  -0.00000  -0.00004   0.00003  -0.00001   1.89311
   A37        1.94252  -0.00001   0.00016  -0.00017  -0.00001   1.94251
   A38        1.92452  -0.00000   0.00000  -0.00002  -0.00002   1.92449
   A39        1.90386   0.00000  -0.00005   0.00009   0.00003   1.90389
   A40        1.90165   0.00000  -0.00003   0.00005   0.00001   1.90166
   A41        1.89769   0.00000  -0.00004   0.00004   0.00000   1.89769
    D1       -0.00692   0.00000  -0.00027   0.00010  -0.00016  -0.00708
    D2        3.13489   0.00000  -0.00022   0.00009  -0.00013   3.13476
    D3        3.13417  -0.00000  -0.00009  -0.00006  -0.00015   3.13402
    D4       -0.00721  -0.00000  -0.00004  -0.00008  -0.00011  -0.00733
    D5        0.01278  -0.00001  -0.00009  -0.00020  -0.00029   0.01248
    D6       -3.12838  -0.00000  -0.00025  -0.00006  -0.00031  -3.12869
    D7       -3.13893   0.00000   0.00006  -0.00002   0.00004  -3.13889
    D8        0.00244   0.00000   0.00001  -0.00000   0.00001   0.00245
    D9        3.13623   0.00001  -0.00002   0.00002   0.00000   3.13623
   D10        0.00341   0.00001   0.00014  -0.00000   0.00014   0.00356
   D11        0.08465   0.00000   0.00094   0.00005   0.00099   0.08564
   D12        2.25378   0.00000   0.00101   0.00002   0.00104   2.25482
   D13       -1.98843  -0.00000   0.00098   0.00002   0.00099  -1.98744
   D14       -3.06526   0.00000   0.00079   0.00007   0.00086  -3.06440
   D15       -0.89613   0.00000   0.00086   0.00004   0.00090  -0.89523
   D16        1.14484  -0.00000   0.00082   0.00004   0.00086   1.14570
   D17       -0.96620   0.00000   0.00036  -0.00015   0.00021  -0.96599
   D18       -3.09983   0.00000   0.00033  -0.00015   0.00018  -3.09965
   D19        1.07254  -0.00000   0.00033  -0.00015   0.00018   1.07272
   D20       -3.13310  -0.00000   0.00029  -0.00011   0.00018  -3.13292
   D21        1.01645  -0.00000   0.00026  -0.00011   0.00014   1.01659
   D22       -1.09436  -0.00000   0.00026  -0.00011   0.00015  -1.09421
   D23        1.11872   0.00000   0.00031  -0.00007   0.00024   1.11896
   D24       -1.01492   0.00000   0.00028  -0.00007   0.00021  -1.01471
   D25       -3.12572   0.00000   0.00028  -0.00007   0.00021  -3.12551
   D26        3.05201  -0.00000  -0.00012  -0.00007  -0.00019   3.05183
   D27        0.94576  -0.00000  -0.00013  -0.00003  -0.00016   0.94560
   D28       -1.12868  -0.00000  -0.00010  -0.00008  -0.00018  -1.12887
   D29       -1.06029  -0.00000  -0.00004  -0.00011  -0.00015  -1.06044
   D30        3.11664   0.00000  -0.00006  -0.00006  -0.00012   3.11652
   D31        1.04220  -0.00000  -0.00002  -0.00012  -0.00015   1.04205
   D32        0.98504  -0.00000  -0.00006  -0.00013  -0.00019   0.98485
   D33       -1.12121   0.00000  -0.00008  -0.00008  -0.00017  -1.12138
   D34        3.08753  -0.00000  -0.00005  -0.00014  -0.00019   3.08734
   D35        1.39630   0.00000   0.00008   0.00005   0.00013   1.39644
   D36       -2.78204   0.00000   0.00014  -0.00001   0.00013  -2.78191
   D37       -0.72808   0.00000   0.00006   0.00008   0.00014  -0.72794
   D38       -1.11907   0.00000  -0.00003   0.00003   0.00000  -1.11907
   D39        3.06953   0.00000  -0.00004   0.00001  -0.00002   3.06951
   D40        0.96199   0.00000  -0.00010   0.00009  -0.00000   0.96199
   D41        3.10019   0.00000  -0.00007   0.00008   0.00001   3.10020
   D42        1.00561   0.00000  -0.00007   0.00006  -0.00001   1.00559
   D43       -1.10193   0.00000  -0.00013   0.00014   0.00001  -1.10193
   D44        1.01783  -0.00000   0.00000  -0.00003  -0.00003   1.01780
   D45       -1.07675  -0.00000  -0.00001  -0.00005  -0.00005  -1.07681
   D46        3.09889  -0.00000  -0.00006   0.00003  -0.00003   3.09886
         Item               Value     Threshold  Converged?
 Maximum Force            0.000048     0.000450     YES
 RMS     Force            0.000008     0.000300     YES
 Maximum Displacement     0.002161     0.001800     NO 
 RMS     Displacement     0.000656     0.001200     YES
 Predicted change in Energy=-1.869557D-08
 GradGradGradGradGradGradGradGradGradGradGradGradGradGradGradGradGradGrad

                          Input orientation:                          
 ---------------------------------------------------------------------
 Center     Atomic      Atomic             Coordinates (Angstroms)
 Number     Number       Type             X           Y           Z
 ---------------------------------------------------------------------
      1          8           0        1.581841   -1.306730    0.070578
      2          6           0        1.431218   -0.092590    0.149589
      3          6           0        0.270578    0.706567    0.089020
      4          7           0       -0.945947    0.145060   -0.092226
      5          6           0       -2.042140    0.808622   -0.160012
      6          6           0       -3.382188    0.140646   -0.370605
      7          6           0       -3.251276   -1.377850   -0.364094
      8          6           0       -4.398850    0.612220    0.675249
      9          8           0        2.574755    0.714788    0.333370
     10          6           0        3.791699    0.027019    0.392113
     11          6           0        4.307145   -0.344943   -0.992335
     12          1           0        0.387253    1.795131    0.193249
     13          1           0       -2.057917    1.917433   -0.074598
     14          1           0       -3.784710    0.443105   -1.361256
     15          1           0       -2.515001   -1.703106   -1.109983
     16          1           0       -4.221839   -1.863135   -0.560231
     17          1           0       -2.869549   -1.714761    0.611190
     18          1           0       -5.405862    0.204744    0.481798
     19          1           0       -4.473155    1.711333    0.686487
     20          1           0       -4.080601    0.290600    1.679944
     21          1           0        4.504167    0.700680    0.897615
     22          1           0        3.684136   -0.889456    0.993887
     23          1           0        3.598496   -1.047344   -1.450093
     24          1           0        5.299683   -0.820234   -0.935514
     25          1           0        4.380665    0.552093   -1.625352
 ---------------------------------------------------------------------
                    Distance matrix (angstroms):
                    1          2          3          4          5
     1  O    0.000000
     2  C    1.225996   0.000000
     3  C    2.402731   1.410463   0.000000
     4  N    2.919574   2.401221   1.352062   0.000000
     5  C    4.202514   3.601701   2.328325   1.283179   0.000000
     6  C    5.189521   4.847048   3.724812   2.452098   1.512042
     7  C    4.853145   4.882777   4.117470   2.776276   2.506855
     8  C    6.310044   5.895995   4.707029   3.567884   2.508050
     9  O    2.267482   1.411847   2.317112   3.591805   4.644130
    10  C    2.601104   2.375920   3.598881   4.763801   5.911803
    11  C    3.079301   3.104614   4.309161   5.352128   6.506680
    12  H    3.326204   2.157605   1.099749   2.140479   2.645740
    13  H    4.864581   4.032929   2.629612   2.092390   1.112207
    14  H    5.823396   5.456695   4.314866   3.123755   2.147823
    15  H    4.281933   4.444426   3.873445   2.629349   2.726687
    16  H    5.864317   5.966215   5.216005   3.870833   3.471246
    17  H    4.502624   4.619644   3.999486   2.766581   2.765288
    18  H    7.161121   6.851601   5.712099   4.497101   3.477243
    19  H    6.793455   6.197097   4.885644   3.937106   2.727871
    20  H    6.099572   5.733146   4.651540   3.603863   2.794478
    21  H    3.640560   3.260650   4.310120   5.567067   6.632070
    22  H    2.333723   2.534458   3.875365   4.866984   6.083189
    23  H    2.539019   2.857907   4.064494   4.890561   6.076652
    24  H    3.882170   4.083128   5.354688   6.375799   7.560220
    25  H    3.763617   3.502181   4.455979   5.557783   6.592834
                    6          7          8          9         10
     6  C    0.000000
     7  C    1.524143   0.000000
     8  C    1.532903   2.521416   0.000000
     9  O    6.025810   6.229625   6.982733   0.000000
    10  C    7.215213   7.221426   8.216307   1.399082   0.000000
    11  C    7.729695   7.654496   8.915791   2.425222   1.523397
    12  H    4.154989   4.859766   4.953622   2.443755   3.841356
    13  H    2.235684   3.516646   2.783130   4.803587   6.165184
    14  H    1.111258   2.143539   2.133804   6.586985   7.787773
    15  H    2.167513   1.097380   3.478027   5.816794   6.709999
    16  H    2.180851   1.102708   2.772206   7.323790   8.288331
    17  H    2.160846   1.100183   2.785266   5.968277   6.888687
    18  H    2.196806   2.803994   1.103420   7.998277   9.199715
    19  H    2.185111   3.484216   1.101679   7.126768   8.439868
    20  H    2.171409   2.765790   1.101878   6.803452   7.981296
    21  H    8.007285   8.127674   8.906232   2.010274   1.103161
    22  H    7.270205   7.083966   8.227467   2.059274   1.101648
    23  H    7.162860   6.943198   8.439714   2.708117   2.141333
    24  H    8.753131   8.588152   9.935191   3.375144   2.180470
    25  H    7.874362   7.972577   9.076137   2.669153   2.166276
                   11         12         13         14         15
    11  C    0.000000
    12  H    4.620723   0.000000
    13  H    6.817228   2.462835   0.000000
    14  H    8.138504   4.652927   2.609779   0.000000
    15  H    6.957019   4.728546   3.793316   2.506296   0.000000
    16  H    8.673822   5.932484   4.383046   2.480215   1.800315
    17  H    7.480149   4.806326   3.784426   3.063404   1.757349
    18  H    9.839600   6.014381   3.801528   2.466130   3.811921
    19  H    9.172806   4.886089   2.540689   2.505117   4.326669
    20  H    8.826056   4.943237   3.133090   3.059363   3.769570
    21  H    2.168884   4.317747   6.744378   8.595017   7.686179
    22  H    2.151677   4.326369   6.480082   7.943934   6.596786
    23  H    1.097767   4.592638   6.532756   7.532667   6.157966
    24  H    1.101935   5.678574   7.897485   9.181692   7.866332
    25  H    1.100359   4.560679   6.761977   8.170372   7.273358
                   16         17         18         19         20
    16  H    0.000000
    17  H    1.795252   0.000000
    18  H    2.600742   3.183414   0.000000
    19  H    3.793981   3.783562   1.783719   0.000000
    20  H    3.110773   2.574948   1.788642   1.777509   0.000000
    21  H    9.210952   7.764540   9.931140   9.036498   8.630089
    22  H    8.115896   6.616523   9.169928   8.567379   7.883803
    23  H    7.912965   6.821286   9.293998   8.793567   8.399748
    24  H    9.585815   8.362345  10.847491  10.224875   9.801240
    25  H    8.998383   7.918734  10.016829   9.223804   9.087705
                   21         22         23         24         25
    21  H    0.000000
    22  H    1.791718   0.000000
    23  H    3.063913   2.450572   0.000000
    24  H    2.511253   2.517414   1.791761   0.000000
    25  H    2.530355   3.069794   1.789051   1.789902   0.000000
 Stoichiometry    C8H14NO2(1-)
 Framework group  C1[X(C8H14NO2)]
 Deg. of freedom    69
 Full point group                 C1      NOp   1
 Largest Abelian subgroup         C1      NOp   1
 Largest concise Abelian subgroup C1      NOp   1
                         Standard orientation:                         
 ---------------------------------------------------------------------
 Center     Atomic      Atomic             Coordinates (Angstroms)
 Number     Number       Type             X           Y           Z
 ---------------------------------------------------------------------
      1          8           0       -1.614825    1.157880    0.503781
      2          6           0       -1.433486   -0.021867    0.223818
      3          6           0       -0.256655   -0.732960   -0.090536
      4          7           0        0.940547   -0.105681   -0.126616
      5          6           0        2.049582   -0.686959   -0.407163
      6          6           0        3.366864    0.054494   -0.443024
      7          6           0        3.200567    1.501257    0.006679
      8          6           0        4.424370   -0.668009    0.399274
      9          8           0       -2.551903   -0.882840    0.189427
     10          6           0       -3.782436   -0.279520    0.470892
     11          6           0       -4.346605    0.461223   -0.734823
     12          1           0       -0.344642   -1.808141   -0.304292
     13          1           0        2.093881   -1.771965   -0.647588
     14          1           0        3.747338    0.064416   -1.487072
     15          1           0        2.435431    2.005604   -0.597012
     16          1           0        4.153336    2.052321   -0.060585
     17          1           0        2.839618    1.529387    1.045585
     18          1           0        5.415468   -0.191033    0.311229
     19          1           0        4.524766   -1.720452    0.089464
     20          1           0        4.128070   -0.661060    1.460543
     21          1           0       -4.463850   -1.092387    0.774021
     22          1           0       -3.678937    0.426337    1.310346
     23          1           0       -3.668291    1.287642   -0.983852
     24          1           0       -5.347955    0.868768   -0.521595
     25          1           0       -4.417453   -0.215939   -1.599244
 ---------------------------------------------------------------------
 Rotational constants (GHZ):           3.6078939           0.3681088           0.3495133
 Standard basis: def2SVP (5D, 7F)
 There are   235 symmetry adapted cartesian basis functions of A   symmetry.
 There are   224 symmetry adapted basis functions of A   symmetry.
   224 basis functions,   373 primitive gaussians,   235 cartesian basis functions
    43 alpha electrons       43 beta electrons
       nuclear repulsion energy       596.5237992240 Hartrees.
 NAtoms=   25 NActive=   25 NUniq=   25 SFac= 1.00D+00 NAtFMM=   60 NAOKFM=F Big=F
 Integral buffers will be    131072 words long.
 Raffenetti 2 integral format.
 Two-electron integral symmetry is turned on.
 Nuclear repulsion after empirical dispersion term =      596.5230015358 Hartrees.
 One-electron integrals computed using PRISM.
   1 Symmetry operations used in ECPInt.
 ECPInt:  NShTT=    5886 NPrTT=   20688 LenC2=    5341 LenP2D=   13995.
 LDataN:  DoStor=T MaxTD1= 4 Len=   56
 NBasis=   224 RedAO= T EigKep=  1.18D-03  NBF=   224
 NBsUse=   224 1.00D-06 EigRej= -1.00D+00 NBFU=   224
 Initial guess from the checkpoint file:  "A18_crest_conformers_censo-18.chk"
 B after Tr=     0.000000    0.000000    0.000000
         Rot=    1.000000    0.000044   -0.000008   -0.000003 Ang=   0.01 deg.
 Requested convergence on RMS density matrix=1.00D-08 within 128 cycles.
 Requested convergence on MAX density matrix=1.00D-06.
 Requested convergence on             energy=1.00D-06.
 No special actions if energy rises.
 SCF Done:  E(RM062X) =  -517.870604891     A.U. after    8 cycles
            NFock=  8  Conv=0.27D-08     -V/T= 2.0100
   1 Symmetry operations used in ECPInt.
 ECPInt:  NShTT=    5886 NPrTT=   20688 LenC2=    5341 LenP2D=   13995.
 LDataN:  DoStor=T MaxTD1= 5 Len=  102
 Calling FoFJK, ICntrl=      2127 FMM=F ISym2X=0 I1Cent= 0 IOpClX= 0 NMat=1 NMatS=1 NMatT=0.
 ***** Axes restored to original set *****
 -------------------------------------------------------------------
 Center     Atomic                   Forces (Hartrees/Bohr)
 Number     Number              X              Y              Z
 -------------------------------------------------------------------
      1        8           0.000006001   -0.000028602   -0.000010232
      2        6           0.000012461    0.000054606    0.000025096
      3        6          -0.000005049   -0.000027234   -0.000006328
      4        7          -0.000003573    0.000015068   -0.000001026
      5        6           0.000002662   -0.000014091    0.000002480
      6        6           0.000009148    0.000004316   -0.000002406
      7        6          -0.000000442   -0.000004634   -0.000001170
      8        6          -0.000006097    0.000003855    0.000010530
      9        8          -0.000026837   -0.000007739   -0.000012609
     10        6           0.000018631   -0.000013922    0.000013816
     11        6          -0.000003947    0.000002170   -0.000006716
     12        1           0.000002961    0.000007171    0.000000087
     13        1          -0.000000023    0.000003950    0.000000917
     14        1          -0.000003012    0.000000256   -0.000001468
     15        1           0.000001215   -0.000000339   -0.000000633
     16        1          -0.000003374    0.000000751   -0.000001032
     17        1           0.000003082    0.000000875    0.000001849
     18        1          -0.000001902   -0.000001748   -0.000002370
     19        1           0.000000724    0.000001872   -0.000002310
     20        1           0.000002302   -0.000002649    0.000000661
     21        1          -0.000000840    0.000003120   -0.000002748
     22        1          -0.000004118    0.000002260   -0.000007107
     23        1          -0.000002484   -0.000001375   -0.000000282
     24        1           0.000002435   -0.000000871    0.000003767
     25        1           0.000000072    0.000002931   -0.000000769
 -------------------------------------------------------------------
 Cartesian Forces:  Max     0.000054606 RMS     0.000010517

 GradGradGradGradGradGradGradGradGradGradGradGradGradGradGradGradGradGrad
 Berny optimization.
 Using GEDIIS/GDIIS optimizer.
 FormGI is forming the generalized inverse of G from B-inverse, IUseBI=4.
 Internal  Forces:  Max     0.000029691 RMS     0.000004818
 Search for a local minimum.
 Step number  13 out of a maximum of  121
 All quantities printed in internal units (Hartrees-Bohrs-Radians)
 Mixed Optimization -- En-DIIS/RFO-DIIS
 Swapping is turned off.
 Update second derivatives using D2CorX and points    6    7    8    9   10
                                                     11   12   13
 DE= -1.56D-08 DEPred=-1.87D-08 R= 8.33D-01
 Trust test= 8.33D-01 RLast= 2.51D-03 DXMaxT set to 1.26D+00
 ITU=  0  0  1  1  1  1  1  1  1  0  1  1  0
     Eigenvalues ---    0.00130   0.00297   0.00369   0.00434   0.00579
     Eigenvalues ---    0.01405   0.01650   0.02063   0.02357   0.02516
     Eigenvalues ---    0.03672   0.04201   0.04909   0.05366   0.05466
     Eigenvalues ---    0.05505   0.05520   0.05580   0.05756   0.05797
     Eigenvalues ---    0.05813   0.05870   0.08151   0.11667   0.13953
     Eigenvalues ---    0.15278   0.15712   0.15920   0.15983   0.16000
     Eigenvalues ---    0.16004   0.16007   0.16019   0.16028   0.16132
     Eigenvalues ---    0.16479   0.17310   0.18228   0.21138   0.22203
     Eigenvalues ---    0.23279   0.24116   0.25621   0.25699   0.28887
     Eigenvalues ---    0.29428   0.29937   0.31643   0.33008   0.33509
     Eigenvalues ---    0.33697   0.33859   0.33972   0.34168   0.34647
     Eigenvalues ---    0.34801   0.34923   0.34983   0.35083   0.35131
     Eigenvalues ---    0.35258   0.35619   0.36595   0.42915   0.47114
     Eigenvalues ---    0.57405   0.58068   0.74314   0.87522
 En-DIIS/RFO-DIIS/Sim-DIIS IScMMF=       -3 using points:    13   12   11   10    9    8    7    6    5
 RFO step:  Lambda=-7.18381116D-09.
 DIIS inversion failure, remove point   9.
 DIIS inversion failure, remove point   8.
 DIIS inversion failure, remove point   7.
 DIIS inversion failure, remove point   6.
 DIIS inversion failure, remove point   5.
 DIIS inversion failure, remove point   4.
 RFO-DIIS uses    3 points instead of    9
 DidBck=F Rises=F RFO-DIIS coefs:    1.27995   -0.24393   -0.03602    0.00000    0.00000
                  RFO-DIIS coefs:    0.00000    0.00000    0.00000    0.00000
 Iteration  1 RMS(Cart)=  0.00013425 RMS(Int)=  0.00000001
 Iteration  2 RMS(Cart)=  0.00000002 RMS(Int)=  0.00000000
 Variable       Old X    -DE/DX   Delta X   Delta X   Delta X     New X
                                 (Linear)    (Quad)   (Total)
    R1        2.31680   0.00003   0.00001   0.00003   0.00004   2.31684
    R2        2.66539  -0.00001   0.00000  -0.00001  -0.00001   2.66538
    R3        2.66800  -0.00002  -0.00003  -0.00004  -0.00007   2.66793
    R4        2.55503  -0.00000  -0.00002  -0.00000  -0.00002   2.55501
    R5        2.07822   0.00001   0.00000   0.00002   0.00002   2.07825
    R6        2.42486  -0.00001   0.00000  -0.00001  -0.00001   2.42485
    R7        2.85735  -0.00000  -0.00001  -0.00001  -0.00001   2.85733
    R8        2.10177   0.00000  -0.00000   0.00001   0.00001   2.10178
    R9        2.88021   0.00000  -0.00000   0.00001   0.00001   2.88022
   R10        2.89677   0.00001  -0.00000   0.00002   0.00002   2.89679
   R11        2.09997   0.00000   0.00000   0.00001   0.00001   2.09998
   R12        2.07375   0.00000  -0.00001   0.00001  -0.00000   2.07374
   R13        2.08382   0.00000  -0.00000   0.00001   0.00000   2.08382
   R14        2.07904   0.00000  -0.00001   0.00001   0.00000   2.07905
   R15        2.08516   0.00000  -0.00000   0.00001   0.00000   2.08516
   R16        2.08187   0.00000  -0.00000   0.00000   0.00000   2.08187
   R17        2.08225   0.00000  -0.00001   0.00001  -0.00000   2.08225
   R18        2.64388   0.00001   0.00001   0.00003   0.00004   2.64392
   R19        2.87880   0.00000  -0.00000   0.00000   0.00000   2.87881
   R20        2.08467   0.00000  -0.00000   0.00000  -0.00000   2.08467
   R21        2.08181  -0.00001  -0.00000  -0.00002  -0.00002   2.08180
   R22        2.07448   0.00000  -0.00001   0.00001   0.00000   2.07448
   R23        2.08236   0.00000  -0.00001   0.00001   0.00000   2.08236
   R24        2.07938   0.00000  -0.00000   0.00001   0.00000   2.07938
    A1        2.29087  -0.00000  -0.00003   0.00000  -0.00003   2.29085
    A2        2.06600  -0.00001   0.00001  -0.00002  -0.00001   2.06599
    A3        1.92631   0.00001   0.00002   0.00002   0.00003   1.92635
    A4        2.10696   0.00001   0.00000   0.00006   0.00006   2.10702
    A5        2.05947  -0.00001  -0.00001  -0.00004  -0.00005   2.05943
    A6        2.11675  -0.00000   0.00000  -0.00002  -0.00001   2.11674
    A7        2.16635   0.00000   0.00000   0.00000   0.00001   2.16635
    A8        2.13650   0.00000   0.00001   0.00001   0.00002   2.13653
    A9        2.12187  -0.00000   0.00000  -0.00001  -0.00001   2.12187
   A10        2.02478  -0.00000  -0.00001  -0.00000  -0.00002   2.02476
   A11        1.94273  -0.00000   0.00000   0.00000   0.00001   1.94274
   A12        1.93570  -0.00000   0.00000  -0.00001  -0.00000   1.93569
   A13        1.90175   0.00000   0.00001   0.00002   0.00003   1.90177
   A14        1.93965   0.00000   0.00000  -0.00000  -0.00000   1.93965
   A15        1.88188  -0.00000  -0.00000  -0.00001  -0.00001   1.88187
   A16        1.85903  -0.00000  -0.00001  -0.00001  -0.00002   1.85900
   A17        1.92839   0.00000   0.00000  -0.00000   0.00000   1.92839
   A18        1.94131  -0.00000  -0.00001  -0.00001  -0.00001   1.94130
   A19        1.91632  -0.00000   0.00001  -0.00002  -0.00001   1.91630
   A20        1.91686   0.00000   0.00001   0.00001   0.00001   1.91688
   A21        1.85353  -0.00000  -0.00001   0.00000  -0.00001   1.85352
   A22        1.90529   0.00000   0.00000   0.00002   0.00002   1.90532
   A23        1.95202  -0.00000  -0.00000  -0.00002  -0.00002   1.95200
   A24        1.93758  -0.00000   0.00000  -0.00002  -0.00002   1.93755
   A25        1.91851  -0.00000   0.00000  -0.00001  -0.00001   1.91850
   A26        1.88458   0.00000  -0.00000   0.00001   0.00000   1.88458
   A27        1.89195   0.00000  -0.00000   0.00002   0.00002   1.89196
   A28        1.87694   0.00000   0.00000   0.00003   0.00003   1.87697
   A29        2.01403  -0.00001   0.00002  -0.00002   0.00000   2.01403
   A30        1.95646  -0.00000  -0.00000  -0.00002  -0.00002   1.95644
   A31        1.85543   0.00000  -0.00000  -0.00000  -0.00001   1.85542
   A32        1.92513  -0.00000  -0.00001  -0.00002  -0.00003   1.92510
   A33        1.92518  -0.00000   0.00000  -0.00000   0.00000   1.92519
   A34        1.90322  -0.00000   0.00001  -0.00001  -0.00000   1.90322
   A35        1.89734   0.00000   0.00000   0.00006   0.00006   1.89740
   A36        1.89311  -0.00000  -0.00001  -0.00000  -0.00001   1.89310
   A37        1.94251  -0.00001  -0.00000  -0.00004  -0.00004   1.94247
   A38        1.92449   0.00000  -0.00001   0.00001  -0.00000   1.92449
   A39        1.90389   0.00000   0.00002   0.00000   0.00002   1.90392
   A40        1.90166   0.00000   0.00000   0.00002   0.00002   1.90168
   A41        1.89769   0.00000  -0.00000   0.00001   0.00001   1.89771
    D1       -0.00708   0.00000  -0.00012   0.00014   0.00001  -0.00707
    D2        3.13476   0.00000  -0.00010   0.00012   0.00002   3.13478
    D3        3.13402  -0.00000  -0.00009   0.00001  -0.00008   3.13394
    D4       -0.00733  -0.00000  -0.00007  -0.00000  -0.00007  -0.00740
    D5        0.01248  -0.00001  -0.00013  -0.00012  -0.00024   0.01224
    D6       -3.12869   0.00000  -0.00015  -0.00001  -0.00016  -3.12885
    D7       -3.13889  -0.00000   0.00002  -0.00004  -0.00002  -3.13890
    D8        0.00245  -0.00000  -0.00000  -0.00002  -0.00003   0.00242
    D9        3.13623   0.00000   0.00001  -0.00004  -0.00003   3.13620
   D10        0.00356   0.00000   0.00002  -0.00001   0.00001   0.00357
   D11        0.08564   0.00000   0.00014   0.00003   0.00018   0.08582
   D12        2.25482   0.00000   0.00015   0.00003   0.00018   2.25499
   D13       -1.98744  -0.00000   0.00014   0.00003   0.00016  -1.98728
   D14       -3.06440   0.00000   0.00012   0.00001   0.00013  -3.06427
   D15       -0.89523   0.00000   0.00013   0.00000   0.00013  -0.89510
   D16        1.14570  -0.00000   0.00012   0.00000   0.00012   1.14582
   D17       -0.96599  -0.00000   0.00003  -0.00007  -0.00004  -0.96603
   D18       -3.09965  -0.00000   0.00003  -0.00008  -0.00005  -3.09970
   D19        1.07272  -0.00000   0.00003  -0.00009  -0.00006   1.07266
   D20       -3.13292  -0.00000   0.00003  -0.00007  -0.00004  -3.13296
   D21        1.01659  -0.00000   0.00002  -0.00007  -0.00005   1.01654
   D22       -1.09421  -0.00000   0.00002  -0.00008  -0.00006  -1.09427
   D23        1.11896   0.00000   0.00004  -0.00005  -0.00001   1.11895
   D24       -1.01471   0.00000   0.00004  -0.00006  -0.00002  -1.01473
   D25       -3.12551   0.00000   0.00004  -0.00006  -0.00003  -3.12554
   D26        3.05183  -0.00000  -0.00005   0.00002  -0.00003   3.05180
   D27        0.94560   0.00000  -0.00004   0.00004  -0.00000   0.94560
   D28       -1.12887  -0.00000  -0.00005   0.00003  -0.00002  -1.12889
   D29       -1.06044  -0.00000  -0.00004   0.00002  -0.00002  -1.06046
   D30        3.11652   0.00000  -0.00004   0.00004   0.00000   3.11652
   D31        1.04205  -0.00000  -0.00004   0.00003  -0.00002   1.04204
   D32        0.98485  -0.00000  -0.00005   0.00001  -0.00004   0.98481
   D33       -1.12138   0.00000  -0.00005   0.00003  -0.00002  -1.12140
   D34        3.08734  -0.00000  -0.00005   0.00001  -0.00004   3.08730
   D35        1.39644   0.00000   0.00008   0.00011   0.00019   1.39663
   D36       -2.78191  -0.00000   0.00008   0.00009   0.00018  -2.78174
   D37       -0.72794   0.00000   0.00008   0.00014   0.00023  -0.72771
   D38       -1.11907   0.00000  -0.00001   0.00003   0.00002  -1.11905
   D39        3.06951   0.00000  -0.00003   0.00005   0.00002   3.06953
   D40        0.96199   0.00000  -0.00002   0.00005   0.00003   0.96202
   D41        3.10020   0.00000  -0.00000   0.00004   0.00004   3.10024
   D42        1.00559   0.00000  -0.00002   0.00006   0.00004   1.00563
   D43       -1.10193   0.00000  -0.00001   0.00007   0.00005  -1.10187
   D44        1.01780  -0.00000  -0.00002  -0.00002  -0.00004   1.01777
   D45       -1.07681  -0.00000  -0.00004   0.00000  -0.00003  -1.07684
   D46        3.09886  -0.00000  -0.00002   0.00000  -0.00002   3.09884
         Item               Value     Threshold  Converged?
 Maximum Force            0.000030     0.000450     YES
 RMS     Force            0.000005     0.000300     YES
 Maximum Displacement     0.000466     0.001800     YES
 RMS     Displacement     0.000134     0.001200     YES
 Predicted change in Energy=-5.317524D-09
 Optimization completed.
    -- Stationary point found.
                           ----------------------------
                           !   Optimized Parameters   !
                           ! (Angstroms and Degrees)  !
 --------------------------                            --------------------------
 ! Name  Definition              Value          Derivative Info.                !
 --------------------------------------------------------------------------------
 ! R1    R(1,2)                  1.226          -DE/DX =    0.0                 !
 ! R2    R(2,3)                  1.4105         -DE/DX =    0.0                 !
 ! R3    R(2,9)                  1.4118         -DE/DX =    0.0                 !
 ! R4    R(3,4)                  1.3521         -DE/DX =    0.0                 !
 ! R5    R(3,12)                 1.0997         -DE/DX =    0.0                 !
 ! R6    R(4,5)                  1.2832         -DE/DX =    0.0                 !
 ! R7    R(5,6)                  1.512          -DE/DX =    0.0                 !
 ! R8    R(5,13)                 1.1122         -DE/DX =    0.0                 !
 ! R9    R(6,7)                  1.5241         -DE/DX =    0.0                 !
 ! R10   R(6,8)                  1.5329         -DE/DX =    0.0                 !
 ! R11   R(6,14)                 1.1113         -DE/DX =    0.0                 !
 ! R12   R(7,15)                 1.0974         -DE/DX =    0.0                 !
 ! R13   R(7,16)                 1.1027         -DE/DX =    0.0                 !
 ! R14   R(7,17)                 1.1002         -DE/DX =    0.0                 !
 ! R15   R(8,18)                 1.1034         -DE/DX =    0.0                 !
 ! R16   R(8,19)                 1.1017         -DE/DX =    0.0                 !
 ! R17   R(8,20)                 1.1019         -DE/DX =    0.0                 !
 ! R18   R(9,10)                 1.3991         -DE/DX =    0.0                 !
 ! R19   R(10,11)                1.5234         -DE/DX =    0.0                 !
 ! R20   R(10,21)                1.1032         -DE/DX =    0.0                 !
 ! R21   R(10,22)                1.1016         -DE/DX =    0.0                 !
 ! R22   R(11,23)                1.0978         -DE/DX =    0.0                 !
 ! R23   R(11,24)                1.1019         -DE/DX =    0.0                 !
 ! R24   R(11,25)                1.1004         -DE/DX =    0.0                 !
 ! A1    A(1,2,3)              131.2574         -DE/DX =    0.0                 !
 ! A2    A(1,2,9)              118.3729         -DE/DX =    0.0                 !
 ! A3    A(3,2,9)              110.3697         -DE/DX =    0.0                 !
 ! A4    A(2,3,4)              120.7199         -DE/DX =    0.0                 !
 ! A5    A(2,3,12)             117.9992         -DE/DX =    0.0                 !
 ! A6    A(4,3,12)             121.2809         -DE/DX =    0.0                 !
 ! A7    A(3,4,5)              124.1225         -DE/DX =    0.0                 !
 ! A8    A(4,5,6)              122.4126         -DE/DX =    0.0                 !
 ! A9    A(4,5,13)             121.5744         -DE/DX =    0.0                 !
 ! A10   A(6,5,13)             116.0111         -DE/DX =    0.0                 !
 ! A11   A(5,6,7)              111.3102         -DE/DX =    0.0                 !
 ! A12   A(5,6,8)              110.9072         -DE/DX =    0.0                 !
 ! A13   A(5,6,14)             108.962          -DE/DX =    0.0                 !
 ! A14   A(7,6,8)              111.1338         -DE/DX =    0.0                 !
 ! A15   A(7,6,14)             107.8237         -DE/DX =    0.0                 !
 ! A16   A(8,6,14)             106.5144         -DE/DX =    0.0                 !
 ! A17   A(6,7,15)             110.4885         -DE/DX =    0.0                 !
 ! A18   A(6,7,16)             111.2289         -DE/DX =    0.0                 !
 ! A19   A(6,7,17)             109.7968         -DE/DX =    0.0                 !
 ! A20   A(15,7,16)            109.8282         -DE/DX =    0.0                 !
 ! A21   A(15,7,17)            106.1992         -DE/DX =    0.0                 !
 ! A22   A(16,7,17)            109.1654         -DE/DX =    0.0                 !
 ! A23   A(6,8,18)             111.8427         -DE/DX =    0.0                 !
 ! A24   A(6,8,19)             111.0149         -DE/DX =    0.0                 !
 ! A25   A(6,8,20)             109.9224         -DE/DX =    0.0                 !
 ! A26   A(18,8,19)            107.9785         -DE/DX =    0.0                 !
 ! A27   A(18,8,20)            108.4005         -DE/DX =    0.0                 !
 ! A28   A(19,8,20)            107.5407         -DE/DX =    0.0                 !
 ! A29   A(2,9,10)             115.3953         -DE/DX =    0.0                 !
 ! A30   A(9,10,11)            112.0971         -DE/DX =    0.0                 !
 ! A31   A(9,10,21)            106.3085         -DE/DX =    0.0                 !
 ! A32   A(9,10,22)            110.3018         -DE/DX =    0.0                 !
 ! A33   A(11,10,21)           110.3049         -DE/DX =    0.0                 !
 ! A34   A(11,10,22)           109.0466         -DE/DX =    0.0                 !
 ! A35   A(21,10,22)           108.7095         -DE/DX =    0.0                 !
 ! A36   A(10,11,23)           108.4674         -DE/DX =    0.0                 !
 ! A37   A(10,11,24)           111.2978         -DE/DX =    0.0                 !
 ! A38   A(10,11,25)           110.2654         -DE/DX =    0.0                 !
 ! A39   A(23,11,24)           109.085          -DE/DX =    0.0                 !
 ! A40   A(23,11,25)           108.9571         -DE/DX =    0.0                 !
 ! A41   A(24,11,25)           108.7299         -DE/DX =    0.0                 !
 ! D1    D(1,2,3,4)             -0.4057         -DE/DX =    0.0                 !
 ! D2    D(1,2,3,12)           179.6083         -DE/DX =    0.0                 !
 ! D3    D(9,2,3,4)            179.5661         -DE/DX =    0.0                 !
 ! D4    D(9,2,3,12)            -0.4198         -DE/DX =    0.0                 !
 ! D5    D(1,2,9,10)             0.7153         -DE/DX =    0.0                 !
 ! D6    D(3,2,9,10)          -179.2606         -DE/DX =    0.0                 !
 ! D7    D(2,3,4,5)           -179.8449         -DE/DX =    0.0                 !
 ! D8    D(12,3,4,5)             0.1405         -DE/DX =    0.0                 !
 ! D9    D(3,4,5,6)            179.693          -DE/DX =    0.0                 !
 ! D10   D(3,4,5,13)             0.2038         -DE/DX =    0.0                 !
 ! D11   D(4,5,6,7)              4.9071         -DE/DX =    0.0                 !
 ! D12   D(4,5,6,8)            129.1915         -DE/DX =    0.0                 !
 ! D13   D(4,5,6,14)          -113.8721         -DE/DX =    0.0                 !
 ! D14   D(13,5,6,7)          -175.5772         -DE/DX =    0.0                 !
 ! D15   D(13,5,6,8)           -51.2928         -DE/DX =    0.0                 !
 ! D16   D(13,5,6,14)           65.6437         -DE/DX =    0.0                 !
 ! D17   D(5,6,7,15)           -55.3469         -DE/DX =    0.0                 !
 ! D18   D(5,6,7,16)          -177.5971         -DE/DX =    0.0                 !
 ! D19   D(5,6,7,17)            61.4625         -DE/DX =    0.0                 !
 ! D20   D(8,6,7,15)          -179.5033         -DE/DX =    0.0                 !
 ! D21   D(8,6,7,16)            58.2465         -DE/DX =    0.0                 !
 ! D22   D(8,6,7,17)           -62.6939         -DE/DX =    0.0                 !
 ! D23   D(14,6,7,15)           64.1117         -DE/DX =    0.0                 !
 ! D24   D(14,6,7,16)          -58.1384         -DE/DX =    0.0                 !
 ! D25   D(14,6,7,17)         -179.0788         -DE/DX =    0.0                 !
 ! D26   D(5,6,8,18)           174.8567         -DE/DX =    0.0                 !
 ! D27   D(5,6,8,19)            54.1788         -DE/DX =    0.0                 !
 ! D28   D(5,6,8,20)           -64.6793         -DE/DX =    0.0                 !
 ! D29   D(7,6,8,18)           -60.7586         -DE/DX =    0.0                 !
 ! D30   D(7,6,8,19)           178.5635         -DE/DX =    0.0                 !
 ! D31   D(7,6,8,20)            59.7053         -DE/DX =    0.0                 !
 ! D32   D(14,6,8,18)           56.4277         -DE/DX =    0.0                 !
 ! D33   D(14,6,8,19)          -64.2502         -DE/DX =    0.0                 !
 ! D34   D(14,6,8,20)          176.8917         -DE/DX =    0.0                 !
 ! D35   D(2,9,10,11)           80.01           -DE/DX =    0.0                 !
 ! D36   D(2,9,10,21)         -159.3918         -DE/DX =    0.0                 !
 ! D37   D(2,9,10,22)          -41.7077         -DE/DX =    0.0                 !
 ! D38   D(9,10,11,23)         -64.1181         -DE/DX =    0.0                 !
 ! D39   D(9,10,11,24)         175.8698         -DE/DX =    0.0                 !
 ! D40   D(9,10,11,25)          55.1177         -DE/DX =    0.0                 !
 ! D41   D(21,10,11,23)        177.6284         -DE/DX =    0.0                 !
 ! D42   D(21,10,11,24)         57.6162         -DE/DX =    0.0                 !
 ! D43   D(21,10,11,25)        -63.1359         -DE/DX =    0.0                 !
 ! D44   D(22,10,11,23)         58.3157         -DE/DX =    0.0                 !
 ! D45   D(22,10,11,24)        -61.6964         -DE/DX =    0.0                 !
 ! D46   D(22,10,11,25)        177.5515         -DE/DX =    0.0                 !
 --------------------------------------------------------------------------------
 GradGradGradGradGradGradGradGradGradGradGradGradGradGradGradGradGradGrad

                          Input orientation:                          
 ---------------------------------------------------------------------
 Center     Atomic      Atomic             Coordinates (Angstroms)
 Number     Number       Type             X           Y           Z
 ---------------------------------------------------------------------
      1          8           0        1.581841   -1.306730    0.070578
      2          6           0        1.431218   -0.092590    0.149589
      3          6           0        0.270578    0.706567    0.089020
      4          7           0       -0.945947    0.145060   -0.092226
      5          6           0       -2.042140    0.808622   -0.160012
      6          6           0       -3.382188    0.140646   -0.370605
      7          6           0       -3.251276   -1.377850   -0.364094
      8          6           0       -4.398850    0.612220    0.675249
      9          8           0        2.574755    0.714788    0.333370
     10          6           0        3.791699    0.027019    0.392113
     11          6           0        4.307145   -0.344943   -0.992335
     12          1           0        0.387253    1.795131    0.193249
     13          1           0       -2.057917    1.917433   -0.074598
     14          1           0       -3.784710    0.443105   -1.361256
     15          1           0       -2.515001   -1.703106   -1.109983
     16          1           0       -4.221839   -1.863135   -0.560231
     17          1           0       -2.869549   -1.714761    0.611190
     18          1           0       -5.405862    0.204744    0.481798
     19          1           0       -4.473155    1.711333    0.686487
     20          1           0       -4.080601    0.290600    1.679944
     21          1           0        4.504167    0.700680    0.897615
     22          1           0        3.684136   -0.889456    0.993887
     23          1           0        3.598496   -1.047344   -1.450093
     24          1           0        5.299683   -0.820234   -0.935514
     25          1           0        4.380665    0.552093   -1.625352
 ---------------------------------------------------------------------
                    Distance matrix (angstroms):
                    1          2          3          4          5
     1  O    0.000000
     2  C    1.225996   0.000000
     3  C    2.402731   1.410463   0.000000
     4  N    2.919574   2.401221   1.352062   0.000000
     5  C    4.202514   3.601701   2.328325   1.283179   0.000000
     6  C    5.189521   4.847048   3.724812   2.452098   1.512042
     7  C    4.853145   4.882777   4.117470   2.776276   2.506855
     8  C    6.310044   5.895995   4.707029   3.567884   2.508050
     9  O    2.267482   1.411847   2.317112   3.591805   4.644130
    10  C    2.601104   2.375920   3.598881   4.763801   5.911803
    11  C    3.079301   3.104614   4.309161   5.352128   6.506680
    12  H    3.326204   2.157605   1.099749   2.140479   2.645740
    13  H    4.864581   4.032929   2.629612   2.092390   1.112207
    14  H    5.823396   5.456695   4.314866   3.123755   2.147823
    15  H    4.281933   4.444426   3.873445   2.629349   2.726687
    16  H    5.864317   5.966215   5.216005   3.870833   3.471246
    17  H    4.502624   4.619644   3.999486   2.766581   2.765288
    18  H    7.161121   6.851601   5.712099   4.497101   3.477243
    19  H    6.793455   6.197097   4.885644   3.937106   2.727871
    20  H    6.099572   5.733146   4.651540   3.603863   2.794478
    21  H    3.640560   3.260650   4.310120   5.567067   6.632070
    22  H    2.333723   2.534458   3.875365   4.866984   6.083189
    23  H    2.539019   2.857907   4.064494   4.890561   6.076652
    24  H    3.882170   4.083128   5.354688   6.375799   7.560220
    25  H    3.763617   3.502181   4.455979   5.557783   6.592834
                    6          7          8          9         10
     6  C    0.000000
     7  C    1.524143   0.000000
     8  C    1.532903   2.521416   0.000000
     9  O    6.025810   6.229625   6.982733   0.000000
    10  C    7.215213   7.221426   8.216307   1.399082   0.000000
    11  C    7.729695   7.654496   8.915791   2.425222   1.523397
    12  H    4.154989   4.859766   4.953622   2.443755   3.841356
    13  H    2.235684   3.516646   2.783130   4.803587   6.165184
    14  H    1.111258   2.143539   2.133804   6.586985   7.787773
    15  H    2.167513   1.097380   3.478027   5.816794   6.709999
    16  H    2.180851   1.102708   2.772206   7.323790   8.288331
    17  H    2.160846   1.100183   2.785266   5.968277   6.888687
    18  H    2.196806   2.803994   1.103420   7.998277   9.199715
    19  H    2.185111   3.484216   1.101679   7.126768   8.439868
    20  H    2.171409   2.765790   1.101878   6.803452   7.981296
    21  H    8.007285   8.127674   8.906232   2.010274   1.103161
    22  H    7.270205   7.083966   8.227467   2.059274   1.101648
    23  H    7.162860   6.943198   8.439714   2.708117   2.141333
    24  H    8.753131   8.588152   9.935191   3.375144   2.180470
    25  H    7.874362   7.972577   9.076137   2.669153   2.166276
                   11         12         13         14         15
    11  C    0.000000
    12  H    4.620723   0.000000
    13  H    6.817228   2.462835   0.000000
    14  H    8.138504   4.652927   2.609779   0.000000
    15  H    6.957019   4.728546   3.793316   2.506296   0.000000
    16  H    8.673822   5.932484   4.383046   2.480215   1.800315
    17  H    7.480149   4.806326   3.784426   3.063404   1.757349
    18  H    9.839600   6.014381   3.801528   2.466130   3.811921
    19  H    9.172806   4.886089   2.540689   2.505117   4.326669
    20  H    8.826056   4.943237   3.133090   3.059363   3.769570
    21  H    2.168884   4.317747   6.744378   8.595017   7.686179
    22  H    2.151677   4.326369   6.480082   7.943934   6.596786
    23  H    1.097767   4.592638   6.532756   7.532667   6.157966
    24  H    1.101935   5.678574   7.897485   9.181692   7.866332
    25  H    1.100359   4.560679   6.761977   8.170372   7.273358
                   16         17         18         19         20
    16  H    0.000000
    17  H    1.795252   0.000000
    18  H    2.600742   3.183414   0.000000
    19  H    3.793981   3.783562   1.783719   0.000000
    20  H    3.110773   2.574948   1.788642   1.777509   0.000000
    21  H    9.210952   7.764540   9.931140   9.036498   8.630089
    22  H    8.115896   6.616523   9.169928   8.567379   7.883803
    23  H    7.912965   6.821286   9.293998   8.793567   8.399748
    24  H    9.585815   8.362345  10.847491  10.224875   9.801240
    25  H    8.998383   7.918734  10.016829   9.223804   9.087705
                   21         22         23         24         25
    21  H    0.000000
    22  H    1.791718   0.000000
    23  H    3.063913   2.450572   0.000000
    24  H    2.511253   2.517414   1.791761   0.000000
    25  H    2.530355   3.069794   1.789051   1.789902   0.000000
 Stoichiometry    C8H14NO2(1-)
 Framework group  C1[X(C8H14NO2)]
 Deg. of freedom    69
 Full point group                 C1      NOp   1
 Largest Abelian subgroup         C1      NOp   1
 Largest concise Abelian subgroup C1      NOp   1
                         Standard orientation:                         
 ---------------------------------------------------------------------
 Center     Atomic      Atomic             Coordinates (Angstroms)
 Number     Number       Type             X           Y           Z
 ---------------------------------------------------------------------
      1          8           0       -1.614825    1.157880    0.503781
      2          6           0       -1.433486   -0.021867    0.223818
      3          6           0       -0.256655   -0.732960   -0.090536
      4          7           0        0.940547   -0.105681   -0.126616
      5          6           0        2.049582   -0.686959   -0.407163
      6          6           0        3.366864    0.054494   -0.443024
      7          6           0        3.200567    1.501257    0.006679
      8          6           0        4.424370   -0.668009    0.399274
      9          8           0       -2.551903   -0.882840    0.189427
     10          6           0       -3.782436   -0.279520    0.470892
     11          6           0       -4.346605    0.461223   -0.734823
     12          1           0       -0.344642   -1.808141   -0.304292
     13          1           0        2.093881   -1.771965   -0.647588
     14          1           0        3.747338    0.064416   -1.487072
     15          1           0        2.435431    2.005604   -0.597012
     16          1           0        4.153336    2.052321   -0.060585
     17          1           0        2.839618    1.529387    1.045585
     18          1           0        5.415468   -0.191033    0.311229
     19          1           0        4.524766   -1.720452    0.089464
     20          1           0        4.128070   -0.661060    1.460543
     21          1           0       -4.463850   -1.092387    0.774021
     22          1           0       -3.678937    0.426337    1.310346
     23          1           0       -3.668291    1.287642   -0.983852
     24          1           0       -5.347955    0.868768   -0.521595
     25          1           0       -4.417453   -0.215939   -1.599244
 ---------------------------------------------------------------------
 Rotational constants (GHZ):           3.6078939           0.3681088           0.3495133

 **********************************************************************

            Population analysis using the SCF Density.

 **********************************************************************

 Orbital symmetries:
       Occupied  (A) (A) (A) (A) (A) (A) (A) (A) (A) (A) (A) (A)
                 (A) (A) (A) (A) (A) (A) (A) (A) (A) (A) (A) (A)
                 (A) (A) (A) (A) (A) (A) (A) (A) (A) (A) (A) (A)
                 (A) (A) (A) (A) (A) (A) (A)
       Virtual   (A) (A) (A) (A) (A) (A) (A) (A) (A) (A) (A) (A)
                 (A) (A) (A) (A) (A) (A) (A) (A) (A) (A) (A) (A)
                 (A) (A) (A) (A) (A) (A) (A) (A) (A) (A) (A) (A)
                 (A) (A) (A) (A) (A) (A) (A) (A) (A) (A) (A) (A)
                 (A) (A) (A) (A) (A) (A) (A) (A) (A) (A) (A) (A)
                 (A) (A) (A) (A) (A) (A) (A) (A) (A) (A) (A) (A)
                 (A) (A) (A) (A) (A) (A) (A) (A) (A) (A) (A) (A)
                 (A) (A) (A) (A) (A) (A) (A) (A) (A) (A) (A) (A)
                 (A) (A) (A) (A) (A) (A) (A) (A) (A) (A) (A) (A)
                 (A) (A) (A) (A) (A) (A) (A) (A) (A) (A) (A) (A)
                 (A) (A) (A) (A) (A) (A) (A) (A) (A) (A) (A) (A)
                 (A) (A) (A) (A) (A) (A) (A) (A) (A) (A) (A) (A)
                 (A) (A) (A) (A) (A) (A) (A) (A) (A) (A) (A) (A)
                 (A) (A) (A) (A) (A) (A) (A) (A) (A) (A) (A) (A)
                 (A) (A) (A) (A) (A) (A) (A) (A) (A) (A) (A) (A)
                 (A)
 The electronic state is 1-A.
 Alpha  occ. eigenvalues --  -19.47619 -19.40249 -14.57621 -10.46805 -10.45717
 Alpha  occ. eigenvalues --  -10.42339 -10.41543 -10.41505 -10.40566 -10.39137
 Alpha  occ. eigenvalues --  -10.35228  -1.01072  -0.90913  -0.83432  -0.74529
 Alpha  occ. eigenvalues --   -0.70641  -0.63617  -0.62390  -0.57453  -0.52977
 Alpha  occ. eigenvalues --   -0.47063  -0.43630  -0.41264  -0.39607  -0.38339
 Alpha  occ. eigenvalues --   -0.37514  -0.36152  -0.34818  -0.33369  -0.32510
 Alpha  occ. eigenvalues --   -0.31621  -0.31098  -0.29218  -0.28245  -0.26580
 Alpha  occ. eigenvalues --   -0.26176  -0.25458  -0.23881  -0.22322  -0.18276
 Alpha  occ. eigenvalues --   -0.14996  -0.13106  -0.03415
 Alpha virt. eigenvalues --    0.20350   0.22871   0.23490   0.26164   0.26490
 Alpha virt. eigenvalues --    0.27450   0.28145   0.28404   0.29119   0.29954
 Alpha virt. eigenvalues --    0.30103   0.32052   0.32986   0.33158   0.33974
 Alpha virt. eigenvalues --    0.35258   0.36579   0.38324   0.40027   0.40955
 Alpha virt. eigenvalues --    0.44815   0.46390   0.48417   0.52290   0.56249
 Alpha virt. eigenvalues --    0.57864   0.58878   0.60092   0.60875   0.61334
 Alpha virt. eigenvalues --    0.62864   0.64195   0.66072   0.68236   0.69645
 Alpha virt. eigenvalues --    0.71791   0.73137   0.75082   0.77797   0.77994
 Alpha virt. eigenvalues --    0.79016   0.80603   0.80880   0.81942   0.82831
 Alpha virt. eigenvalues --    0.83151   0.83785   0.84124   0.85496   0.85754
 Alpha virt. eigenvalues --    0.86076   0.86342   0.86649   0.86892   0.87482
 Alpha virt. eigenvalues --    0.88048   0.88798   0.89377   0.89723   0.91199
 Alpha virt. eigenvalues --    0.91666   0.93834   0.95772   1.00415   1.02069
 Alpha virt. eigenvalues --    1.02754   1.06150   1.09662   1.10293   1.12025
 Alpha virt. eigenvalues --    1.17224   1.19310   1.21895   1.25824   1.29392
 Alpha virt. eigenvalues --    1.31095   1.33236   1.33527   1.36397   1.39869
 Alpha virt. eigenvalues --    1.42083   1.43769   1.44836   1.48777   1.50203
 Alpha virt. eigenvalues --    1.53841   1.56519   1.59480   1.60132   1.64396
 Alpha virt. eigenvalues --    1.66494   1.70312   1.71040   1.71851   1.73278
 Alpha virt. eigenvalues --    1.74071   1.74802   1.77708   1.80223   1.88443
 Alpha virt. eigenvalues --    1.90731   1.91332   1.91434   1.92830   1.94677
 Alpha virt. eigenvalues --    1.94855   1.94910   1.96903   1.98207   1.98341
 Alpha virt. eigenvalues --    1.98904   1.99719   2.01373   2.01741   2.02948
 Alpha virt. eigenvalues --    2.04636   2.06029   2.06377   2.06726   2.09612
 Alpha virt. eigenvalues --    2.10785   2.11156   2.12041   2.13599   2.15879
 Alpha virt. eigenvalues --    2.16303   2.19232   2.20633   2.22823   2.26543
 Alpha virt. eigenvalues --    2.28692   2.30994   2.32513   2.36338   2.38244
 Alpha virt. eigenvalues --    2.41795   2.42588   2.46028   2.47655   2.52425
 Alpha virt. eigenvalues --    2.52884   2.53860   2.55584   2.58861   2.65228
 Alpha virt. eigenvalues --    2.65848   2.69143   2.69457   2.72507   2.75106
 Alpha virt. eigenvalues --    2.76704   2.82018   2.83109   2.85729   2.90329
 Alpha virt. eigenvalues --    2.91810   2.93186   2.95520   2.96171   2.99229
 Alpha virt. eigenvalues --    3.00616   3.02542   3.03348   3.04984   3.05829
 Alpha virt. eigenvalues --    3.07738   3.08602   3.14022   3.15298   3.16639
 Alpha virt. eigenvalues --    3.20561   3.21584   3.24947   3.28673   3.39199
 Alpha virt. eigenvalues --    3.44826   3.55025   3.57147   3.68789   3.84031
 Alpha virt. eigenvalues --    3.94653
          Condensed to atoms (all electrons):
               1          2          3          4          5          6
     1  O    7.868283   0.674793  -0.102723   0.001223   0.000266   0.000024
     2  C    0.674793   4.594324   0.331317  -0.060616   0.011974   0.000257
     3  C   -0.102723   0.331317   5.382903   0.427915  -0.115383   0.018837
     4  N    0.001223  -0.060616   0.427915   6.245144   0.652910  -0.133965
     5  C    0.000266   0.011974  -0.115383   0.652910   5.115653   0.185958
     6  C    0.000024   0.000257   0.018837  -0.133965   0.185958   5.252738
     7  C   -0.000084  -0.000249  -0.000367   0.018703  -0.038032   0.354025
     8  C   -0.000000   0.000008  -0.000084   0.002488  -0.080516   0.384899
     9  O   -0.098425   0.283832  -0.113644   0.001970  -0.000098  -0.000000
    10  C    0.007353  -0.041204   0.010805  -0.000181   0.000011  -0.000000
    11  C   -0.019527  -0.006053  -0.001309   0.000013  -0.000002  -0.000000
    12  H    0.003672  -0.060646   0.373077  -0.045639  -0.014531  -0.002482
    13  H   -0.000019  -0.001428  -0.018170  -0.040592   0.414020  -0.147177
    14  H   -0.000001   0.000014   0.000065   0.000202  -0.024491   0.338323
    15  H    0.000202  -0.000076  -0.000644   0.015671  -0.010708  -0.011763
    16  H    0.000000  -0.000007   0.000006   0.001228   0.010510  -0.034759
    17  H    0.000074  -0.000092  -0.000596   0.008129  -0.007163  -0.020842
    18  H    0.000000  -0.000000   0.000002  -0.000165   0.010017  -0.016322
    19  H   -0.000000  -0.000002  -0.000040   0.000087  -0.004979  -0.024802
    20  H    0.000000  -0.000009  -0.000318   0.000872   0.005684  -0.028968
    21  H    0.000830   0.006845   0.000064   0.000003  -0.000000   0.000000
    22  H    0.027187  -0.009836   0.002333  -0.000005   0.000001  -0.000000
    23  H    0.022540   0.002293  -0.000400  -0.000004   0.000004   0.000000
    24  H    0.000092   0.000130  -0.000004  -0.000000   0.000000   0.000000
    25  H    0.000551  -0.000252  -0.000151   0.000001   0.000000  -0.000000
               7          8          9         10         11         12
     1  O   -0.000084  -0.000000  -0.098425   0.007353  -0.019527   0.003672
     2  C   -0.000249   0.000008   0.283832  -0.041204  -0.006053  -0.060646
     3  C   -0.000367  -0.000084  -0.113644   0.010805  -0.001309   0.373077
     4  N    0.018703   0.002488   0.001970  -0.000181   0.000013  -0.045639
     5  C   -0.038032  -0.080516  -0.000098   0.000011  -0.000002  -0.014531
     6  C    0.354025   0.384899  -0.000000  -0.000000  -0.000000  -0.002482
     7  C    4.584550  -0.046909  -0.000000   0.000000  -0.000000   0.000215
     8  C   -0.046909   4.751743  -0.000000   0.000000  -0.000000   0.000028
     9  O   -0.000000  -0.000000   8.165377   0.290098  -0.052248   0.010427
    10  C    0.000000   0.000000   0.290098   4.423300   0.421241  -0.000209
    11  C   -0.000000  -0.000000  -0.052248   0.421241   4.764230   0.000096
    12  H    0.000215   0.000028   0.010427  -0.000209   0.000096   0.783216
    13  H    0.013068   0.000527   0.000000   0.000003  -0.000000   0.018615
    14  H   -0.026738  -0.061407  -0.000000  -0.000000   0.000000   0.000029
    15  H    0.383485   0.009964   0.000002  -0.000000  -0.000000   0.000128
    16  H    0.372451  -0.006944   0.000000  -0.000000   0.000000   0.000007
    17  H    0.389114  -0.012704   0.000001  -0.000000   0.000000   0.000059
    18  H   -0.008048   0.352939   0.000000  -0.000000   0.000000  -0.000000
    19  H    0.009408   0.378995   0.000000   0.000000   0.000000   0.000028
    20  H   -0.008092   0.372561   0.000000  -0.000000   0.000000   0.000004
    21  H    0.000000   0.000000  -0.031842   0.380526  -0.045594  -0.000200
    22  H    0.000000  -0.000000  -0.034197   0.379973  -0.042317  -0.000044
    23  H    0.000000   0.000000  -0.006600  -0.009215   0.375986  -0.000131
    24  H    0.000000   0.000000   0.005097  -0.013286   0.342993  -0.000002
    25  H    0.000000   0.000000   0.004015  -0.019344   0.366779   0.000063
              13         14         15         16         17         18
     1  O   -0.000019  -0.000001   0.000202   0.000000   0.000074   0.000000
     2  C   -0.001428   0.000014  -0.000076  -0.000007  -0.000092  -0.000000
     3  C   -0.018170   0.000065  -0.000644   0.000006  -0.000596   0.000002
     4  N   -0.040592   0.000202   0.015671   0.001228   0.008129  -0.000165
     5  C    0.414020  -0.024491  -0.010708   0.010510  -0.007163   0.010017
     6  C   -0.147177   0.338323  -0.011763  -0.034759  -0.020842  -0.016322
     7  C    0.013068  -0.026738   0.383485   0.372451   0.389114  -0.008048
     8  C    0.000527  -0.061407   0.009964  -0.006944  -0.012704   0.352939
     9  O    0.000000  -0.000000   0.000002   0.000000   0.000001   0.000000
    10  C    0.000003  -0.000000  -0.000000  -0.000000  -0.000000  -0.000000
    11  C   -0.000000   0.000000  -0.000000   0.000000   0.000000   0.000000
    12  H    0.018615   0.000029   0.000128   0.000007   0.000059  -0.000000
    13  H    0.816869   0.001356   0.001035  -0.000272   0.000672  -0.000292
    14  H    0.001356   0.781118  -0.008521  -0.006329   0.010238  -0.004420
    15  H    0.001035  -0.008521   0.624821  -0.026720  -0.018762  -0.000339
    16  H   -0.000272  -0.006329  -0.026720   0.731885  -0.029441   0.005518
    17  H    0.000672   0.010238  -0.018762  -0.029441   0.647725  -0.000507
    18  H   -0.000292  -0.004420  -0.000339   0.005518  -0.000507   0.716851
    19  H    0.007282  -0.005486  -0.000432  -0.000011   0.000109  -0.028045
    20  H   -0.000408   0.011651  -0.000195  -0.000931   0.008800  -0.023958
    21  H    0.000000  -0.000000   0.000000  -0.000000  -0.000000  -0.000000
    22  H   -0.000000   0.000000  -0.000000  -0.000000  -0.000000   0.000000
    23  H    0.000000  -0.000000   0.000000  -0.000000  -0.000000  -0.000000
    24  H    0.000000  -0.000000   0.000000  -0.000000  -0.000000  -0.000000
    25  H   -0.000000  -0.000000  -0.000000  -0.000000  -0.000000  -0.000000
              19         20         21         22         23         24
     1  O   -0.000000   0.000000   0.000830   0.027187   0.022540   0.000092
     2  C   -0.000002  -0.000009   0.006845  -0.009836   0.002293   0.000130
     3  C   -0.000040  -0.000318   0.000064   0.002333  -0.000400  -0.000004
     4  N    0.000087   0.000872   0.000003  -0.000005  -0.000004  -0.000000
     5  C   -0.004979   0.005684  -0.000000   0.000001   0.000004   0.000000
     6  C   -0.024802  -0.028968   0.000000  -0.000000   0.000000   0.000000
     7  C    0.009408  -0.008092   0.000000   0.000000   0.000000   0.000000
     8  C    0.378995   0.372561   0.000000  -0.000000   0.000000   0.000000
     9  O    0.000000   0.000000  -0.031842  -0.034197  -0.006600   0.005097
    10  C    0.000000  -0.000000   0.380526   0.379973  -0.009215  -0.013286
    11  C    0.000000   0.000000  -0.045594  -0.042317   0.375986   0.342993
    12  H    0.000028   0.000004  -0.000200  -0.000044  -0.000131  -0.000002
    13  H    0.007282  -0.000408   0.000000  -0.000000   0.000000   0.000000
    14  H   -0.005486   0.011651  -0.000000   0.000000  -0.000000  -0.000000
    15  H   -0.000432  -0.000195   0.000000  -0.000000   0.000000   0.000000
    16  H   -0.000011  -0.000931  -0.000000  -0.000000  -0.000000  -0.000000
    17  H    0.000109   0.008800  -0.000000  -0.000000  -0.000000  -0.000000
    18  H   -0.028045  -0.023958  -0.000000   0.000000  -0.000000  -0.000000
    19  H    0.679245  -0.024415  -0.000000   0.000000  -0.000000  -0.000000
    20  H   -0.024415   0.666687  -0.000000   0.000000  -0.000000  -0.000000
    21  H   -0.000000  -0.000000   0.741166  -0.037080   0.008485  -0.001687
    22  H    0.000000   0.000000  -0.037080   0.701817  -0.012735   0.000439
    23  H   -0.000000  -0.000000   0.008485  -0.012735   0.601960  -0.018881
    24  H   -0.000000  -0.000000  -0.001687   0.000439  -0.018881   0.712153
    25  H    0.000000  -0.000000  -0.010494   0.010161  -0.023906  -0.023098
              25
     1  O    0.000551
     2  C   -0.000252
     3  C   -0.000151
     4  N    0.000001
     5  C    0.000000
     6  C   -0.000000
     7  C    0.000000
     8  C    0.000000
     9  O    0.004015
    10  C   -0.019344
    11  C    0.366779
    12  H    0.000063
    13  H   -0.000000
    14  H   -0.000000
    15  H   -0.000000
    16  H   -0.000000
    17  H   -0.000000
    18  H   -0.000000
    19  H    0.000000
    20  H   -0.000000
    21  H   -0.010494
    22  H    0.010161
    23  H   -0.023906
    24  H   -0.023098
    25  H    0.676249
 Mulliken charges:
               1
     1  O   -0.386311
     2  C    0.274684
     3  C   -0.193490
     4  N   -0.095392
     5  C   -0.111104
     6  C   -0.113981
     7  C    0.003498
     8  C   -0.045588
     9  O   -0.423761
    10  C    0.170130
    11  C   -0.104288
    12  H   -0.065779
    13  H   -0.065091
    14  H   -0.005603
    15  H    0.042854
    16  H   -0.016192
    17  H    0.025188
    18  H   -0.003231
    19  H    0.013057
    20  H    0.021035
    21  H   -0.011022
    22  H    0.014304
    23  H    0.060602
    24  H   -0.003946
    25  H    0.019427
 Sum of Mulliken charges =  -1.00000
 Mulliken charges with hydrogens summed into heavy atoms:
               1
     1  O   -0.386311
     2  C    0.274684
     3  C   -0.259269
     4  N   -0.095392
     5  C   -0.176195
     6  C   -0.119584
     7  C    0.055347
     8  C   -0.014726
     9  O   -0.423761
    10  C    0.173412
    11  C   -0.028205
 Electronic spatial extent (au):  <R**2>=           3265.1974
 Charge=             -1.0000 electrons
 Dipole moment (field-independent basis, Debye):
    X=              0.6901    Y=             -0.8621    Z=             -0.4825  Tot=              1.2051
 Quadrupole moment (field-independent basis, Debye-Ang):
   XX=            -93.7684   YY=            -78.8193   ZZ=            -73.1293
   XY=              1.1604   XZ=              0.1621   YZ=             -1.1549
 Traceless Quadrupole moment (field-independent basis, Debye-Ang):
   XX=            -11.8627   YY=              3.0864   ZZ=              8.7764
   XY=              1.1604   XZ=              0.1621   YZ=             -1.1549
 Octapole moment (field-independent basis, Debye-Ang**2):
  XXX=            -46.9200  YYY=             -1.1786  ZZZ=              5.4346  XYY=             -2.1891
  XXY=              0.2034  XXZ=              3.4343  XZZ=             -7.1149  YZZ=              1.5726
  YYZ=             -2.3276  XYZ=              1.7041
 Hexadecapole moment (field-independent basis, Debye-Ang**3):
 XXXX=          -4363.6822 YYYY=           -410.9074 ZZZZ=           -188.7350 XXXY=             23.1945
 XXXZ=            -53.9454 YYYX=             -0.7666 YYYZ=             -1.4712 ZZZX=             -4.9760
 ZZZY=              1.1981 XXYY=           -776.4879 XXZZ=           -718.3638 YYZZ=           -100.1209
 XXYZ=              6.6555 YYXZ=             -0.8752 ZZXY=              5.5208
 N-N= 5.965230015358D+02 E-N=-2.412442941428D+03  KE= 5.127248607272D+02
 Unable to Open any file for archive entry.
 1\1\GINC-NOTCH108\FOpt\RM062X\def2SVP\C8H14N1O2(1-)\U6067110\18-Jul-20
 25\0\\#N OPT FREQ=NORAMAN Integral(Ultrafine) M062X EmpiricalDispersio
 n=GD3 def2SVP\\A18_crest_conformers_censo-18\\-1,1\O,1.581841293,-1.30
 6730071,0.0705776621\C,1.4312176584,-0.0925902905,0.1495885428\C,0.270
 5779454,0.7065665137,0.0890195186\N,-0.9459467196,0.1450600435,-0.0922
 260537\C,-2.0421398189,0.8086221456,-0.1600119137\C,-3.3821881836,0.14
 06459102,-0.3706050156\C,-3.2512758336,-1.3778502665,-0.3640937429\C,-
 4.3988495921,0.6122202857,0.6752486707\O,2.5747548243,0.7147882888,0.3
 333704211\C,3.7916986013,0.0270187383,0.3921132174\C,4.3071448798,-0.3
 449431932,-0.9923349115\H,0.3872525901,1.7951306024,0.1932489692\H,-2.
 0579173704,1.9174327736,-0.0745984428\H,-3.7847102252,0.4431045456,-1.
 36125579\H,-2.5150007495,-1.7031059521,-1.1099827704\H,-4.221839044,-1
 .8631351998,-0.560230726\H,-2.8695489187,-1.7147609249,0.611189597\H,-
 5.4058624279,0.2047436937,0.4817983289\H,-4.4731545017,1.7113333047,0.
 6864874183\H,-4.0806010397,0.290600096,1.6799438443\H,4.5041667066,0.7
 006804426,0.8976154295\H,3.6841359718,-0.8894561427,0.9938874048\H,3.5
 984960578,-1.0473443625,-1.4500929787\H,5.299682686,-0.8202339071,-0.9
 355144196\H,4.3806652104,0.5520929258,-1.6253522598\\Version=ES64L-G16
 RevC.01\State=1-A\HF=-517.8706049\RMSD=2.712e-09\RMSF=1.052e-05\Dipole
 =-0.2648309,0.3859301,-0.0754984\Quadrupole=-8.7528375,2.1276178,6.625
 2197,1.1037605,0.5733262,-0.4967705\PG=C01 [X(C8H14N1O2)]\\@
 The archive entry for this job was punched.


 IT IS THE BEHAVIOR AND DISTRIBUTION OF THE ELECTRONS 
 AROUND THE NUCLEUS THAT GIVES THE FUNDAMENTAL 
 CHARACTER OF AN ATOM:  IT MUST BE THE SAME FOR MOLECULES.

                               -- C. A. COULSON, 1951
 Job cpu time:       0 days  6 hours 18 minutes 35.4 seconds.
 Elapsed time:       0 days  0 hours 24 minutes 33.8 seconds.
 File lengths (MBytes):  RWF=     50 Int=      0 D2E=      0 Chk=      6 Scr=      2
 Normal termination of Gaussian 16 at Fri Jul 18 11:51:06 2025.
 Link1:  Proceeding to internal job step number  2.
 -------------------------------------------------------------------
 #N Geom=AllCheck Guess=TCheck SCRF=Check GenChk RM062X/def2SVP Freq
 -------------------------------------------------------------------
 1/10=4,29=7,30=1,38=1,40=1/1,3;
 2/12=2,40=1/2;
 3/5=43,7=101,11=2,14=-4,25=1,30=1,70=2,71=2,74=-55,75=-5,116=1,124=31,140=1/1,2,3;
 4/5=101/1;
 5/5=2,38=6,98=1/2;
 8/6=4,10=90,11=11/1;
 11/6=1,8=1,9=11,15=111,16=1/1,2,10;
 10/6=1/2;
 6/7=2,8=2,9=2,10=2,28=1/1;
 7/8=1,10=1,25=1/1,2,3,16;
 1/10=4,30=1/3;
 99//99;
 Structure from the checkpoint file:  "A18_crest_conformers_censo-18.chk"
 -----------------------------
 A18_crest_conformers_censo-18
 -----------------------------
 Charge = -1 Multiplicity = 1
 Redundant internal coordinates found in file.  (old form).
 O,0,1.581841293,-1.306730071,0.0705776621
 C,0,1.4312176584,-0.0925902905,0.1495885428
 C,0,0.2705779454,0.7065665137,0.0890195186
 N,0,-0.9459467196,0.1450600435,-0.0922260537
 C,0,-2.0421398189,0.8086221456,-0.1600119137
 C,0,-3.3821881836,0.1406459102,-0.3706050156
 C,0,-3.2512758336,-1.3778502665,-0.3640937429
 C,0,-4.3988495921,0.6122202857,0.6752486707
 O,0,2.5747548243,0.7147882888,0.3333704211
 C,0,3.7916986013,0.0270187383,0.3921132174
 C,0,4.3071448798,-0.3449431932,-0.9923349115
 H,0,0.3872525901,1.7951306024,0.1932489692
 H,0,-2.0579173704,1.9174327736,-0.0745984428
 H,0,-3.7847102252,0.4431045456,-1.36125579
 H,0,-2.5150007495,-1.7031059521,-1.1099827704
 H,0,-4.221839044,-1.8631351998,-0.560230726
 H,0,-2.8695489187,-1.7147609249,0.611189597
 H,0,-5.4058624279,0.2047436937,0.4817983289
 H,0,-4.4731545017,1.7113333047,0.6864874183
 H,0,-4.0806010397,0.290600096,1.6799438443
 H,0,4.5041667066,0.7006804426,0.8976154295
 H,0,3.6841359718,-0.8894561427,0.9938874048
 H,0,3.5984960578,-1.0473443625,-1.4500929787
 H,0,5.299682686,-0.8202339071,-0.9355144196
 H,0,4.3806652104,0.5520929258,-1.6253522598
 Recover connectivity data from disk.

 GradGradGradGradGradGradGradGradGradGradGradGradGradGradGradGradGradGrad
 Berny optimization.
 Initialization pass.
                           ----------------------------
                           !    Initial Parameters    !
                           ! (Angstroms and Degrees)  !
 --------------------------                            --------------------------
 ! Name  Definition              Value          Derivative Info.                !
 --------------------------------------------------------------------------------
 ! R1    R(1,2)                  1.226          calculate D2E/DX2 analytically  !
 ! R2    R(2,3)                  1.4105         calculate D2E/DX2 analytically  !
 ! R3    R(2,9)                  1.4118         calculate D2E/DX2 analytically  !
 ! R4    R(3,4)                  1.3521         calculate D2E/DX2 analytically  !
 ! R5    R(3,12)                 1.0997         calculate D2E/DX2 analytically  !
 ! R6    R(4,5)                  1.2832         calculate D2E/DX2 analytically  !
 ! R7    R(5,6)                  1.512          calculate D2E/DX2 analytically  !
 ! R8    R(5,13)                 1.1122         calculate D2E/DX2 analytically  !
 ! R9    R(6,7)                  1.5241         calculate D2E/DX2 analytically  !
 ! R10   R(6,8)                  1.5329         calculate D2E/DX2 analytically  !
 ! R11   R(6,14)                 1.1113         calculate D2E/DX2 analytically  !
 ! R12   R(7,15)                 1.0974         calculate D2E/DX2 analytically  !
 ! R13   R(7,16)                 1.1027         calculate D2E/DX2 analytically  !
 ! R14   R(7,17)                 1.1002         calculate D2E/DX2 analytically  !
 ! R15   R(8,18)                 1.1034         calculate D2E/DX2 analytically  !
 ! R16   R(8,19)                 1.1017         calculate D2E/DX2 analytically  !
 ! R17   R(8,20)                 1.1019         calculate D2E/DX2 analytically  !
 ! R18   R(9,10)                 1.3991         calculate D2E/DX2 analytically  !
 ! R19   R(10,11)                1.5234         calculate D2E/DX2 analytically  !
 ! R20   R(10,21)                1.1032         calculate D2E/DX2 analytically  !
 ! R21   R(10,22)                1.1016         calculate D2E/DX2 analytically  !
 ! R22   R(11,23)                1.0978         calculate D2E/DX2 analytically  !
 ! R23   R(11,24)                1.1019         calculate D2E/DX2 analytically  !
 ! R24   R(11,25)                1.1004         calculate D2E/DX2 analytically  !
 ! A1    A(1,2,3)              131.2574         calculate D2E/DX2 analytically  !
 ! A2    A(1,2,9)              118.3729         calculate D2E/DX2 analytically  !
 ! A3    A(3,2,9)              110.3697         calculate D2E/DX2 analytically  !
 ! A4    A(2,3,4)              120.7199         calculate D2E/DX2 analytically  !
 ! A5    A(2,3,12)             117.9992         calculate D2E/DX2 analytically  !
 ! A6    A(4,3,12)             121.2809         calculate D2E/DX2 analytically  !
 ! A7    A(3,4,5)              124.1225         calculate D2E/DX2 analytically  !
 ! A8    A(4,5,6)              122.4126         calculate D2E/DX2 analytically  !
 ! A9    A(4,5,13)             121.5744         calculate D2E/DX2 analytically  !
 ! A10   A(6,5,13)             116.0111         calculate D2E/DX2 analytically  !
 ! A11   A(5,6,7)              111.3102         calculate D2E/DX2 analytically  !
 ! A12   A(5,6,8)              110.9072         calculate D2E/DX2 analytically  !
 ! A13   A(5,6,14)             108.962          calculate D2E/DX2 analytically  !
 ! A14   A(7,6,8)              111.1338         calculate D2E/DX2 analytically  !
 ! A15   A(7,6,14)             107.8237         calculate D2E/DX2 analytically  !
 ! A16   A(8,6,14)             106.5144         calculate D2E/DX2 analytically  !
 ! A17   A(6,7,15)             110.4885         calculate D2E/DX2 analytically  !
 ! A18   A(6,7,16)             111.2289         calculate D2E/DX2 analytically  !
 ! A19   A(6,7,17)             109.7968         calculate D2E/DX2 analytically  !
 ! A20   A(15,7,16)            109.8282         calculate D2E/DX2 analytically  !
 ! A21   A(15,7,17)            106.1992         calculate D2E/DX2 analytically  !
 ! A22   A(16,7,17)            109.1654         calculate D2E/DX2 analytically  !
 ! A23   A(6,8,18)             111.8427         calculate D2E/DX2 analytically  !
 ! A24   A(6,8,19)             111.0149         calculate D2E/DX2 analytically  !
 ! A25   A(6,8,20)             109.9224         calculate D2E/DX2 analytically  !
 ! A26   A(18,8,19)            107.9785         calculate D2E/DX2 analytically  !
 ! A27   A(18,8,20)            108.4005         calculate D2E/DX2 analytically  !
 ! A28   A(19,8,20)            107.5407         calculate D2E/DX2 analytically  !
 ! A29   A(2,9,10)             115.3953         calculate D2E/DX2 analytically  !
 ! A30   A(9,10,11)            112.0971         calculate D2E/DX2 analytically  !
 ! A31   A(9,10,21)            106.3085         calculate D2E/DX2 analytically  !
 ! A32   A(9,10,22)            110.3018         calculate D2E/DX2 analytically  !
 ! A33   A(11,10,21)           110.3049         calculate D2E/DX2 analytically  !
 ! A34   A(11,10,22)           109.0466         calculate D2E/DX2 analytically  !
 ! A35   A(21,10,22)           108.7095         calculate D2E/DX2 analytically  !
 ! A36   A(10,11,23)           108.4674         calculate D2E/DX2 analytically  !
 ! A37   A(10,11,24)           111.2978         calculate D2E/DX2 analytically  !
 ! A38   A(10,11,25)           110.2654         calculate D2E/DX2 analytically  !
 ! A39   A(23,11,24)           109.085          calculate D2E/DX2 analytically  !
 ! A40   A(23,11,25)           108.9571         calculate D2E/DX2 analytically  !
 ! A41   A(24,11,25)           108.7299         calculate D2E/DX2 analytically  !
 ! D1    D(1,2,3,4)             -0.4057         calculate D2E/DX2 analytically  !
 ! D2    D(1,2,3,12)           179.6083         calculate D2E/DX2 analytically  !
 ! D3    D(9,2,3,4)            179.5661         calculate D2E/DX2 analytically  !
 ! D4    D(9,2,3,12)            -0.4198         calculate D2E/DX2 analytically  !
 ! D5    D(1,2,9,10)             0.7153         calculate D2E/DX2 analytically  !
 ! D6    D(3,2,9,10)          -179.2606         calculate D2E/DX2 analytically  !
 ! D7    D(2,3,4,5)           -179.8449         calculate D2E/DX2 analytically  !
 ! D8    D(12,3,4,5)             0.1405         calculate D2E/DX2 analytically  !
 ! D9    D(3,4,5,6)            179.693          calculate D2E/DX2 analytically  !
 ! D10   D(3,4,5,13)             0.2038         calculate D2E/DX2 analytically  !
 ! D11   D(4,5,6,7)              4.9071         calculate D2E/DX2 analytically  !
 ! D12   D(4,5,6,8)            129.1915         calculate D2E/DX2 analytically  !
 ! D13   D(4,5,6,14)          -113.8721         calculate D2E/DX2 analytically  !
 ! D14   D(13,5,6,7)          -175.5772         calculate D2E/DX2 analytically  !
 ! D15   D(13,5,6,8)           -51.2928         calculate D2E/DX2 analytically  !
 ! D16   D(13,5,6,14)           65.6437         calculate D2E/DX2 analytically  !
 ! D17   D(5,6,7,15)           -55.3469         calculate D2E/DX2 analytically  !
 ! D18   D(5,6,7,16)          -177.5971         calculate D2E/DX2 analytically  !
 ! D19   D(5,6,7,17)            61.4625         calculate D2E/DX2 analytically  !
 ! D20   D(8,6,7,15)          -179.5033         calculate D2E/DX2 analytically  !
 ! D21   D(8,6,7,16)            58.2465         calculate D2E/DX2 analytically  !
 ! D22   D(8,6,7,17)           -62.6939         calculate D2E/DX2 analytically  !
 ! D23   D(14,6,7,15)           64.1117         calculate D2E/DX2 analytically  !
 ! D24   D(14,6,7,16)          -58.1384         calculate D2E/DX2 analytically  !
 ! D25   D(14,6,7,17)         -179.0788         calculate D2E/DX2 analytically  !
 ! D26   D(5,6,8,18)           174.8567         calculate D2E/DX2 analytically  !
 ! D27   D(5,6,8,19)            54.1788         calculate D2E/DX2 analytically  !
 ! D28   D(5,6,8,20)           -64.6793         calculate D2E/DX2 analytically  !
 ! D29   D(7,6,8,18)           -60.7586         calculate D2E/DX2 analytically  !
 ! D30   D(7,6,8,19)           178.5635         calculate D2E/DX2 analytically  !
 ! D31   D(7,6,8,20)            59.7053         calculate D2E/DX2 analytically  !
 ! D32   D(14,6,8,18)           56.4277         calculate D2E/DX2 analytically  !
 ! D33   D(14,6,8,19)          -64.2502         calculate D2E/DX2 analytically  !
 ! D34   D(14,6,8,20)          176.8917         calculate D2E/DX2 analytically  !
 ! D35   D(2,9,10,11)           80.01           calculate D2E/DX2 analytically  !
 ! D36   D(2,9,10,21)         -159.3918         calculate D2E/DX2 analytically  !
 ! D37   D(2,9,10,22)          -41.7077         calculate D2E/DX2 analytically  !
 ! D38   D(9,10,11,23)         -64.1181         calculate D2E/DX2 analytically  !
 ! D39   D(9,10,11,24)         175.8698         calculate D2E/DX2 analytically  !
 ! D40   D(9,10,11,25)          55.1177         calculate D2E/DX2 analytically  !
 ! D41   D(21,10,11,23)        177.6284         calculate D2E/DX2 analytically  !
 ! D42   D(21,10,11,24)         57.6162         calculate D2E/DX2 analytically  !
 ! D43   D(21,10,11,25)        -63.1359         calculate D2E/DX2 analytically  !
 ! D44   D(22,10,11,23)         58.3157         calculate D2E/DX2 analytically  !
 ! D45   D(22,10,11,24)        -61.6964         calculate D2E/DX2 analytically  !
 ! D46   D(22,10,11,25)        177.5515         calculate D2E/DX2 analytically  !
 --------------------------------------------------------------------------------
 Trust Radius=3.00D-01 FncErr=1.00D-07 GrdErr=1.00D-07 EigMax=2.50D+02 EigMin=1.00D-04
 Number of steps in this run=      2 maximum allowed number of steps=      2.
 GradGradGradGradGradGradGradGradGradGradGradGradGradGradGradGradGradGrad

                          Input orientation:                          
 ---------------------------------------------------------------------
 Center     Atomic      Atomic             Coordinates (Angstroms)
 Number     Number       Type             X           Y           Z
 ---------------------------------------------------------------------
      1          8           0        1.581841   -1.306730    0.070578
      2          6           0        1.431218   -0.092590    0.149589
      3          6           0        0.270578    0.706567    0.089020
      4          7           0       -0.945947    0.145060   -0.092226
      5          6           0       -2.042140    0.808622   -0.160012
      6          6           0       -3.382188    0.140646   -0.370605
      7          6           0       -3.251276   -1.377850   -0.364094
      8          6           0       -4.398850    0.612220    0.675249
      9          8           0        2.574755    0.714788    0.333370
     10          6           0        3.791699    0.027019    0.392113
     11          6           0        4.307145   -0.344943   -0.992335
     12          1           0        0.387253    1.795131    0.193249
     13          1           0       -2.057917    1.917433   -0.074598
     14          1           0       -3.784710    0.443105   -1.361256
     15          1           0       -2.515001   -1.703106   -1.109983
     16          1           0       -4.221839   -1.863135   -0.560231
     17          1           0       -2.869549   -1.714761    0.611190
     18          1           0       -5.405862    0.204744    0.481798
     19          1           0       -4.473155    1.711333    0.686487
     20          1           0       -4.080601    0.290600    1.679944
     21          1           0        4.504167    0.700680    0.897615
     22          1           0        3.684136   -0.889456    0.993887
     23          1           0        3.598496   -1.047344   -1.450093
     24          1           0        5.299683   -0.820234   -0.935514
     25          1           0        4.380665    0.552093   -1.625352
 ---------------------------------------------------------------------
                    Distance matrix (angstroms):
                    1          2          3          4          5
     1  O    0.000000
     2  C    1.225996   0.000000
     3  C    2.402731   1.410463   0.000000
     4  N    2.919574   2.401221   1.352062   0.000000
     5  C    4.202514   3.601701   2.328325   1.283179   0.000000
     6  C    5.189521   4.847048   3.724812   2.452098   1.512042
     7  C    4.853145   4.882777   4.117470   2.776276   2.506855
     8  C    6.310044   5.895995   4.707029   3.567884   2.508050
     9  O    2.267482   1.411847   2.317112   3.591805   4.644130
    10  C    2.601104   2.375920   3.598881   4.763801   5.911803
    11  C    3.079301   3.104614   4.309161   5.352128   6.506680
    12  H    3.326204   2.157605   1.099749   2.140479   2.645740
    13  H    4.864581   4.032929   2.629612   2.092390   1.112207
    14  H    5.823396   5.456695   4.314866   3.123755   2.147823
    15  H    4.281933   4.444426   3.873445   2.629349   2.726687
    16  H    5.864317   5.966215   5.216005   3.870833   3.471246
    17  H    4.502624   4.619644   3.999486   2.766581   2.765288
    18  H    7.161121   6.851601   5.712099   4.497101   3.477243
    19  H    6.793455   6.197097   4.885644   3.937106   2.727871
    20  H    6.099572   5.733146   4.651540   3.603863   2.794478
    21  H    3.640560   3.260650   4.310120   5.567067   6.632070
    22  H    2.333723   2.534458   3.875365   4.866984   6.083189
    23  H    2.539019   2.857907   4.064494   4.890561   6.076652
    24  H    3.882170   4.083128   5.354688   6.375799   7.560220
    25  H    3.763617   3.502181   4.455979   5.557783   6.592834
                    6          7          8          9         10
     6  C    0.000000
     7  C    1.524143   0.000000
     8  C    1.532903   2.521416   0.000000
     9  O    6.025810   6.229625   6.982733   0.000000
    10  C    7.215213   7.221426   8.216307   1.399082   0.000000
    11  C    7.729695   7.654496   8.915791   2.425222   1.523397
    12  H    4.154989   4.859766   4.953622   2.443755   3.841356
    13  H    2.235684   3.516646   2.783130   4.803587   6.165184
    14  H    1.111258   2.143539   2.133804   6.586985   7.787773
    15  H    2.167513   1.097380   3.478027   5.816794   6.709999
    16  H    2.180851   1.102708   2.772206   7.323790   8.288331
    17  H    2.160846   1.100183   2.785266   5.968277   6.888687
    18  H    2.196806   2.803994   1.103420   7.998277   9.199715
    19  H    2.185111   3.484216   1.101679   7.126768   8.439868
    20  H    2.171409   2.765790   1.101878   6.803452   7.981296
    21  H    8.007285   8.127674   8.906232   2.010274   1.103161
    22  H    7.270205   7.083966   8.227467   2.059274   1.101648
    23  H    7.162860   6.943198   8.439714   2.708117   2.141333
    24  H    8.753131   8.588152   9.935191   3.375144   2.180470
    25  H    7.874362   7.972577   9.076137   2.669153   2.166276
                   11         12         13         14         15
    11  C    0.000000
    12  H    4.620723   0.000000
    13  H    6.817228   2.462835   0.000000
    14  H    8.138504   4.652927   2.609779   0.000000
    15  H    6.957019   4.728546   3.793316   2.506296   0.000000
    16  H    8.673822   5.932484   4.383046   2.480215   1.800315
    17  H    7.480149   4.806326   3.784426   3.063404   1.757349
    18  H    9.839600   6.014381   3.801528   2.466130   3.811921
    19  H    9.172806   4.886089   2.540689   2.505117   4.326669
    20  H    8.826056   4.943237   3.133090   3.059363   3.769570
    21  H    2.168884   4.317747   6.744378   8.595017   7.686179
    22  H    2.151677   4.326369   6.480082   7.943934   6.596786
    23  H    1.097767   4.592638   6.532756   7.532667   6.157966
    24  H    1.101935   5.678574   7.897485   9.181692   7.866332
    25  H    1.100359   4.560679   6.761977   8.170372   7.273358
                   16         17         18         19         20
    16  H    0.000000
    17  H    1.795252   0.000000
    18  H    2.600742   3.183414   0.000000
    19  H    3.793981   3.783562   1.783719   0.000000
    20  H    3.110773   2.574948   1.788642   1.777509   0.000000
    21  H    9.210952   7.764540   9.931140   9.036498   8.630089
    22  H    8.115896   6.616523   9.169928   8.567379   7.883803
    23  H    7.912965   6.821286   9.293998   8.793567   8.399748
    24  H    9.585815   8.362345  10.847491  10.224875   9.801240
    25  H    8.998383   7.918734  10.016829   9.223804   9.087705
                   21         22         23         24         25
    21  H    0.000000
    22  H    1.791718   0.000000
    23  H    3.063913   2.450572   0.000000
    24  H    2.511253   2.517414   1.791761   0.000000
    25  H    2.530355   3.069794   1.789051   1.789902   0.000000
 Stoichiometry    C8H14NO2(1-)
 Framework group  C1[X(C8H14NO2)]
 Deg. of freedom    69
 Full point group                 C1      NOp   1
 Largest Abelian subgroup         C1      NOp   1
 Largest concise Abelian subgroup C1      NOp   1
                         Standard orientation:                         
 ---------------------------------------------------------------------
 Center     Atomic      Atomic             Coordinates (Angstroms)
 Number     Number       Type             X           Y           Z
 ---------------------------------------------------------------------
      1          8           0       -1.614825    1.157880    0.503781
      2          6           0       -1.433486   -0.021867    0.223818
      3          6           0       -0.256655   -0.732960   -0.090536
      4          7           0        0.940547   -0.105681   -0.126616
      5          6           0        2.049582   -0.686959   -0.407163
      6          6           0        3.366864    0.054494   -0.443024
      7          6           0        3.200567    1.501257    0.006679
      8          6           0        4.424370   -0.668009    0.399274
      9          8           0       -2.551903   -0.882840    0.189427
     10          6           0       -3.782436   -0.279520    0.470892
     11          6           0       -4.346605    0.461223   -0.734823
     12          1           0       -0.344642   -1.808141   -0.304292
     13          1           0        2.093881   -1.771965   -0.647588
     14          1           0        3.747338    0.064416   -1.487072
     15          1           0        2.435431    2.005604   -0.597012
     16          1           0        4.153336    2.052321   -0.060585
     17          1           0        2.839618    1.529387    1.045585
     18          1           0        5.415468   -0.191033    0.311229
     19          1           0        4.524766   -1.720452    0.089464
     20          1           0        4.128070   -0.661060    1.460543
     21          1           0       -4.463850   -1.092387    0.774021
     22          1           0       -3.678937    0.426337    1.310346
     23          1           0       -3.668291    1.287642   -0.983852
     24          1           0       -5.347955    0.868768   -0.521595
     25          1           0       -4.417453   -0.215939   -1.599244
 ---------------------------------------------------------------------
 Rotational constants (GHZ):           3.6078939           0.3681088           0.3495133
 Standard basis: def2SVP (5D, 7F)
 There are   235 symmetry adapted cartesian basis functions of A   symmetry.
 There are   224 symmetry adapted basis functions of A   symmetry.
   224 basis functions,   373 primitive gaussians,   235 cartesian basis functions
    43 alpha electrons       43 beta electrons
       nuclear repulsion energy       596.5237992240 Hartrees.
 NAtoms=   25 NActive=   25 NUniq=   25 SFac= 1.00D+00 NAtFMM=   60 NAOKFM=F Big=F
 Integral buffers will be    131072 words long.
 Raffenetti 2 integral format.
 Two-electron integral symmetry is turned on.
 Nuclear repulsion after empirical dispersion term =      596.5230015358 Hartrees.
 One-electron integrals computed using PRISM.
   1 Symmetry operations used in ECPInt.
 ECPInt:  NShTT=    5886 NPrTT=   20688 LenC2=    5341 LenP2D=   13995.
 LDataN:  DoStor=T MaxTD1= 4 Len=   56
 NBasis=   224 RedAO= T EigKep=  1.18D-03  NBF=   224
 NBsUse=   224 1.00D-06 EigRej= -1.00D+00 NBFU=   224
 Initial guess from the checkpoint file:  "A18_crest_conformers_censo-18.chk"
 B after Tr=    -0.000000    0.000000   -0.000000
         Rot=    1.000000    0.000000    0.000000    0.000000 Ang=   0.00 deg.
 Requested convergence on RMS density matrix=1.00D-08 within 128 cycles.
 Requested convergence on MAX density matrix=1.00D-06.
 Requested convergence on             energy=1.00D-06.
 No special actions if energy rises.
 SCF Done:  E(RM062X) =  -517.870604891     A.U. after    1 cycles
            NFock=  1  Conv=0.10D-08     -V/T= 2.0100
 DoSCS=F DFT=T ScalE2(SS,OS)=  1.000000  1.000000
 Range of M.O.s used for correlation:     1   224
 NBasis=   224 NAE=    43 NBE=    43 NFC=     0 NFV=     0
 NROrb=    224 NOA=    43 NOB=    43 NVA=   181 NVB=   181

 **** Warning!!: The largest alpha MO coefficient is  0.10053407D+02

   1 Symmetry operations used in ECPInt.
 ECPInt:  NShTT=    5886 NPrTT=   20688 LenC2=    5341 LenP2D=   13995.
 LDataN:  DoStor=T MaxTD1= 5 Len=  102
 Symmetrizing basis deriv contribution to polar:
 IMax=3 JMax=2 DiffMx= 0.00D+00
 G2DrvN: will do    26 centers at a time, making    1 passes.
 Calling FoFCou, ICntrl=  3107 FMM=F I1Cent=   0 AccDes= 0.00D+00.
 End of G2Drv F.D. properties file   721 does not exist.
 End of G2Drv F.D. properties file   722 does not exist.
 End of G2Drv F.D. properties file   788 does not exist.
          IDoAtm=1111111111111111111111111
          Differentiating once with respect to electric field.
                with respect to dipole field.
          Differentiating once with respect to nuclear coordinates.
 Keep R1 ints in memory in canonical form, NReq=351527241.
          There are    78 degrees of freedom in the 1st order CPHF.  IDoFFX=6 NUNeed=     3.
     75 vectors produced by pass  0 Test12= 9.98D-15 1.28D-09 XBig12= 1.25D+02 8.04D+00.
 AX will form    75 AO Fock derivatives at one time.
     75 vectors produced by pass  1 Test12= 9.98D-15 1.28D-09 XBig12= 1.04D+01 7.07D-01.
     75 vectors produced by pass  2 Test12= 9.98D-15 1.28D-09 XBig12= 2.28D-01 5.87D-02.
     75 vectors produced by pass  3 Test12= 9.98D-15 1.28D-09 XBig12= 2.69D-03 9.07D-03.
     75 vectors produced by pass  4 Test12= 9.98D-15 1.28D-09 XBig12= 1.73D-05 4.76D-04.
     75 vectors produced by pass  5 Test12= 9.98D-15 1.28D-09 XBig12= 5.80D-08 2.44D-05.
     39 vectors produced by pass  6 Test12= 9.98D-15 1.28D-09 XBig12= 1.66D-10 9.43D-07.
      4 vectors produced by pass  7 Test12= 9.98D-15 1.28D-09 XBig12= 3.84D-13 5.13D-08.
      1 vectors produced by pass  8 Test12= 9.98D-15 1.28D-09 XBig12= 9.05D-16 2.58D-09.
 InvSVY:  IOpt=1 It=  1 EMax= 3.55D-15
 Solved reduced A of dimension   494 with    78 vectors.
 Isotropic polarizability for W=    0.000000      126.21 Bohr**3.
 End of Minotr F.D. properties file   721 does not exist.
 End of Minotr F.D. properties file   722 does not exist.
 End of Minotr F.D. properties file   788 does not exist.

 **********************************************************************

            Population analysis using the SCF Density.

 **********************************************************************

 Orbital symmetries:
       Occupied  (A) (A) (A) (A) (A) (A) (A) (A) (A) (A) (A) (A)
                 (A) (A) (A) (A) (A) (A) (A) (A) (A) (A) (A) (A)
                 (A) (A) (A) (A) (A) (A) (A) (A) (A) (A) (A) (A)
                 (A) (A) (A) (A) (A) (A) (A)
       Virtual   (A) (A) (A) (A) (A) (A) (A) (A) (A) (A) (A) (A)
                 (A) (A) (A) (A) (A) (A) (A) (A) (A) (A) (A) (A)
                 (A) (A) (A) (A) (A) (A) (A) (A) (A) (A) (A) (A)
                 (A) (A) (A) (A) (A) (A) (A) (A) (A) (A) (A) (A)
                 (A) (A) (A) (A) (A) (A) (A) (A) (A) (A) (A) (A)
                 (A) (A) (A) (A) (A) (A) (A) (A) (A) (A) (A) (A)
                 (A) (A) (A) (A) (A) (A) (A) (A) (A) (A) (A) (A)
                 (A) (A) (A) (A) (A) (A) (A) (A) (A) (A) (A) (A)
                 (A) (A) (A) (A) (A) (A) (A) (A) (A) (A) (A) (A)
                 (A) (A) (A) (A) (A) (A) (A) (A) (A) (A) (A) (A)
                 (A) (A) (A) (A) (A) (A) (A) (A) (A) (A) (A) (A)
                 (A) (A) (A) (A) (A) (A) (A) (A) (A) (A) (A) (A)
                 (A) (A) (A) (A) (A) (A) (A) (A) (A) (A) (A) (A)
                 (A) (A) (A) (A) (A) (A) (A) (A) (A) (A) (A) (A)
                 (A) (A) (A) (A) (A) (A) (A) (A) (A) (A) (A) (A)
                 (A)
 The electronic state is 1-A.
 Alpha  occ. eigenvalues --  -19.47619 -19.40249 -14.57621 -10.46805 -10.45717
 Alpha  occ. eigenvalues --  -10.42339 -10.41543 -10.41505 -10.40566 -10.39137
 Alpha  occ. eigenvalues --  -10.35228  -1.01072  -0.90913  -0.83432  -0.74529
 Alpha  occ. eigenvalues --   -0.70641  -0.63617  -0.62390  -0.57453  -0.52977
 Alpha  occ. eigenvalues --   -0.47063  -0.43630  -0.41264  -0.39607  -0.38339
 Alpha  occ. eigenvalues --   -0.37514  -0.36152  -0.34818  -0.33369  -0.32510
 Alpha  occ. eigenvalues --   -0.31621  -0.31098  -0.29218  -0.28245  -0.26580
 Alpha  occ. eigenvalues --   -0.26176  -0.25458  -0.23881  -0.22322  -0.18276
 Alpha  occ. eigenvalues --   -0.14996  -0.13106  -0.03415
 Alpha virt. eigenvalues --    0.20350   0.22871   0.23490   0.26164   0.26490
 Alpha virt. eigenvalues --    0.27450   0.28145   0.28404   0.29119   0.29954
 Alpha virt. eigenvalues --    0.30103   0.32052   0.32986   0.33158   0.33974
 Alpha virt. eigenvalues --    0.35258   0.36579   0.38324   0.40027   0.40955
 Alpha virt. eigenvalues --    0.44815   0.46390   0.48417   0.52290   0.56249
 Alpha virt. eigenvalues --    0.57864   0.58878   0.60092   0.60875   0.61334
 Alpha virt. eigenvalues --    0.62864   0.64195   0.66072   0.68236   0.69645
 Alpha virt. eigenvalues --    0.71791   0.73137   0.75082   0.77797   0.77994
 Alpha virt. eigenvalues --    0.79016   0.80603   0.80880   0.81942   0.82831
 Alpha virt. eigenvalues --    0.83151   0.83785   0.84124   0.85496   0.85754
 Alpha virt. eigenvalues --    0.86076   0.86342   0.86649   0.86892   0.87482
 Alpha virt. eigenvalues --    0.88048   0.88798   0.89377   0.89723   0.91199
 Alpha virt. eigenvalues --    0.91666   0.93834   0.95772   1.00415   1.02069
 Alpha virt. eigenvalues --    1.02754   1.06150   1.09662   1.10293   1.12025
 Alpha virt. eigenvalues --    1.17224   1.19310   1.21895   1.25824   1.29392
 Alpha virt. eigenvalues --    1.31095   1.33236   1.33527   1.36397   1.39869
 Alpha virt. eigenvalues --    1.42083   1.43769   1.44836   1.48777   1.50203
 Alpha virt. eigenvalues --    1.53841   1.56519   1.59480   1.60132   1.64396
 Alpha virt. eigenvalues --    1.66494   1.70312   1.71040   1.71851   1.73278
 Alpha virt. eigenvalues --    1.74071   1.74802   1.77708   1.80223   1.88443
 Alpha virt. eigenvalues --    1.90731   1.91332   1.91434   1.92830   1.94677
 Alpha virt. eigenvalues --    1.94855   1.94910   1.96903   1.98207   1.98341
 Alpha virt. eigenvalues --    1.98904   1.99719   2.01373   2.01741   2.02948
 Alpha virt. eigenvalues --    2.04636   2.06029   2.06377   2.06726   2.09612
 Alpha virt. eigenvalues --    2.10785   2.11156   2.12041   2.13599   2.15879
 Alpha virt. eigenvalues --    2.16303   2.19232   2.20633   2.22823   2.26543
 Alpha virt. eigenvalues --    2.28692   2.30994   2.32513   2.36338   2.38244
 Alpha virt. eigenvalues --    2.41795   2.42588   2.46028   2.47655   2.52425
 Alpha virt. eigenvalues --    2.52884   2.53860   2.55584   2.58861   2.65228
 Alpha virt. eigenvalues --    2.65848   2.69143   2.69457   2.72507   2.75106
 Alpha virt. eigenvalues --    2.76704   2.82018   2.83109   2.85729   2.90329
 Alpha virt. eigenvalues --    2.91810   2.93186   2.95520   2.96171   2.99229
 Alpha virt. eigenvalues --    3.00616   3.02542   3.03348   3.04984   3.05829
 Alpha virt. eigenvalues --    3.07738   3.08602   3.14022   3.15298   3.16639
 Alpha virt. eigenvalues --    3.20561   3.21584   3.24947   3.28673   3.39199
 Alpha virt. eigenvalues --    3.44826   3.55025   3.57147   3.68789   3.84031
 Alpha virt. eigenvalues --    3.94653
          Condensed to atoms (all electrons):
               1          2          3          4          5          6
     1  O    7.868284   0.674793  -0.102723   0.001223   0.000266   0.000024
     2  C    0.674793   4.594324   0.331317  -0.060616   0.011974   0.000257
     3  C   -0.102723   0.331317   5.382903   0.427915  -0.115383   0.018837
     4  N    0.001223  -0.060616   0.427915   6.245144   0.652910  -0.133965
     5  C    0.000266   0.011974  -0.115383   0.652910   5.115653   0.185958
     6  C    0.000024   0.000257   0.018837  -0.133965   0.185958   5.252738
     7  C   -0.000084  -0.000249  -0.000367   0.018703  -0.038032   0.354025
     8  C   -0.000000   0.000008  -0.000084   0.002488  -0.080516   0.384899
     9  O   -0.098425   0.283832  -0.113644   0.001970  -0.000098  -0.000000
    10  C    0.007353  -0.041204   0.010805  -0.000181   0.000011  -0.000000
    11  C   -0.019527  -0.006053  -0.001309   0.000013  -0.000002  -0.000000
    12  H    0.003672  -0.060646   0.373077  -0.045639  -0.014531  -0.002482
    13  H   -0.000019  -0.001428  -0.018170  -0.040592   0.414020  -0.147177
    14  H   -0.000001   0.000014   0.000065   0.000202  -0.024491   0.338323
    15  H    0.000202  -0.000076  -0.000644   0.015671  -0.010708  -0.011763
    16  H    0.000000  -0.000007   0.000006   0.001228   0.010510  -0.034759
    17  H    0.000074  -0.000092  -0.000596   0.008129  -0.007163  -0.020842
    18  H    0.000000  -0.000000   0.000002  -0.000165   0.010017  -0.016322
    19  H   -0.000000  -0.000002  -0.000040   0.000087  -0.004979  -0.024802
    20  H    0.000000  -0.000009  -0.000318   0.000872   0.005684  -0.028968
    21  H    0.000830   0.006845   0.000064   0.000003  -0.000000   0.000000
    22  H    0.027187  -0.009836   0.002333  -0.000005   0.000001  -0.000000
    23  H    0.022540   0.002293  -0.000400  -0.000004   0.000004   0.000000
    24  H    0.000092   0.000130  -0.000004  -0.000000   0.000000   0.000000
    25  H    0.000551  -0.000252  -0.000151   0.000001   0.000000  -0.000000
               7          8          9         10         11         12
     1  O   -0.000084  -0.000000  -0.098425   0.007353  -0.019527   0.003672
     2  C   -0.000249   0.000008   0.283832  -0.041204  -0.006053  -0.060646
     3  C   -0.000367  -0.000084  -0.113644   0.010805  -0.001309   0.373077
     4  N    0.018703   0.002488   0.001970  -0.000181   0.000013  -0.045639
     5  C   -0.038032  -0.080516  -0.000098   0.000011  -0.000002  -0.014531
     6  C    0.354025   0.384899  -0.000000  -0.000000  -0.000000  -0.002482
     7  C    4.584550  -0.046909  -0.000000   0.000000  -0.000000   0.000215
     8  C   -0.046909   4.751743  -0.000000   0.000000  -0.000000   0.000028
     9  O   -0.000000  -0.000000   8.165377   0.290098  -0.052248   0.010427
    10  C    0.000000   0.000000   0.290098   4.423300   0.421241  -0.000209
    11  C   -0.000000  -0.000000  -0.052248   0.421241   4.764230   0.000096
    12  H    0.000215   0.000028   0.010427  -0.000209   0.000096   0.783216
    13  H    0.013068   0.000527   0.000000   0.000003  -0.000000   0.018615
    14  H   -0.026738  -0.061407  -0.000000  -0.000000   0.000000   0.000029
    15  H    0.383485   0.009964   0.000002  -0.000000  -0.000000   0.000128
    16  H    0.372451  -0.006944   0.000000  -0.000000   0.000000   0.000007
    17  H    0.389114  -0.012704   0.000001  -0.000000   0.000000   0.000059
    18  H   -0.008048   0.352939   0.000000  -0.000000   0.000000  -0.000000
    19  H    0.009408   0.378995   0.000000   0.000000   0.000000   0.000028
    20  H   -0.008092   0.372561   0.000000  -0.000000   0.000000   0.000004
    21  H    0.000000   0.000000  -0.031842   0.380526  -0.045594  -0.000200
    22  H    0.000000  -0.000000  -0.034197   0.379973  -0.042317  -0.000044
    23  H    0.000000   0.000000  -0.006600  -0.009215   0.375986  -0.000131
    24  H    0.000000   0.000000   0.005097  -0.013286   0.342993  -0.000002
    25  H    0.000000   0.000000   0.004015  -0.019344   0.366779   0.000063
              13         14         15         16         17         18
     1  O   -0.000019  -0.000001   0.000202   0.000000   0.000074   0.000000
     2  C   -0.001428   0.000014  -0.000076  -0.000007  -0.000092  -0.000000
     3  C   -0.018170   0.000065  -0.000644   0.000006  -0.000596   0.000002
     4  N   -0.040592   0.000202   0.015671   0.001228   0.008129  -0.000165
     5  C    0.414020  -0.024491  -0.010708   0.010510  -0.007163   0.010017
     6  C   -0.147177   0.338323  -0.011763  -0.034759  -0.020842  -0.016322
     7  C    0.013068  -0.026738   0.383485   0.372451   0.389114  -0.008048
     8  C    0.000527  -0.061407   0.009964  -0.006944  -0.012704   0.352939
     9  O    0.000000  -0.000000   0.000002   0.000000   0.000001   0.000000
    10  C    0.000003  -0.000000  -0.000000  -0.000000  -0.000000  -0.000000
    11  C   -0.000000   0.000000  -0.000000   0.000000   0.000000   0.000000
    12  H    0.018615   0.000029   0.000128   0.000007   0.000059  -0.000000
    13  H    0.816869   0.001356   0.001035  -0.000272   0.000672  -0.000292
    14  H    0.001356   0.781118  -0.008521  -0.006329   0.010238  -0.004420
    15  H    0.001035  -0.008521   0.624821  -0.026720  -0.018762  -0.000339
    16  H   -0.000272  -0.006329  -0.026720   0.731885  -0.029441   0.005518
    17  H    0.000672   0.010238  -0.018762  -0.029441   0.647725  -0.000507
    18  H   -0.000292  -0.004420  -0.000339   0.005518  -0.000507   0.716851
    19  H    0.007282  -0.005486  -0.000432  -0.000011   0.000109  -0.028045
    20  H   -0.000408   0.011651  -0.000195  -0.000931   0.008800  -0.023958
    21  H    0.000000  -0.000000   0.000000  -0.000000  -0.000000  -0.000000
    22  H   -0.000000   0.000000  -0.000000  -0.000000  -0.000000   0.000000
    23  H    0.000000  -0.000000   0.000000  -0.000000  -0.000000  -0.000000
    24  H    0.000000  -0.000000   0.000000  -0.000000  -0.000000  -0.000000
    25  H   -0.000000  -0.000000  -0.000000  -0.000000  -0.000000  -0.000000
              19         20         21         22         23         24
     1  O   -0.000000   0.000000   0.000830   0.027187   0.022540   0.000092
     2  C   -0.000002  -0.000009   0.006845  -0.009836   0.002293   0.000130
     3  C   -0.000040  -0.000318   0.000064   0.002333  -0.000400  -0.000004
     4  N    0.000087   0.000872   0.000003  -0.000005  -0.000004  -0.000000
     5  C   -0.004979   0.005684  -0.000000   0.000001   0.000004   0.000000
     6  C   -0.024802  -0.028968   0.000000  -0.000000   0.000000   0.000000
     7  C    0.009408  -0.008092   0.000000   0.000000   0.000000   0.000000
     8  C    0.378995   0.372561   0.000000  -0.000000   0.000000   0.000000
     9  O    0.000000   0.000000  -0.031842  -0.034197  -0.006600   0.005097
    10  C    0.000000  -0.000000   0.380526   0.379973  -0.009215  -0.013286
    11  C    0.000000   0.000000  -0.045594  -0.042317   0.375986   0.342993
    12  H    0.000028   0.000004  -0.000200  -0.000044  -0.000131  -0.000002
    13  H    0.007282  -0.000408   0.000000  -0.000000   0.000000   0.000000
    14  H   -0.005486   0.011651  -0.000000   0.000000  -0.000000  -0.000000
    15  H   -0.000432  -0.000195   0.000000  -0.000000   0.000000   0.000000
    16  H   -0.000011  -0.000931  -0.000000  -0.000000  -0.000000  -0.000000
    17  H    0.000109   0.008800  -0.000000  -0.000000  -0.000000  -0.000000
    18  H   -0.028045  -0.023958  -0.000000   0.000000  -0.000000  -0.000000
    19  H    0.679245  -0.024415  -0.000000   0.000000  -0.000000  -0.000000
    20  H   -0.024415   0.666687  -0.000000   0.000000  -0.000000  -0.000000
    21  H   -0.000000  -0.000000   0.741166  -0.037080   0.008485  -0.001687
    22  H    0.000000   0.000000  -0.037080   0.701817  -0.012735   0.000439
    23  H   -0.000000  -0.000000   0.008485  -0.012735   0.601960  -0.018881
    24  H   -0.000000  -0.000000  -0.001687   0.000439  -0.018881   0.712153
    25  H    0.000000  -0.000000  -0.010494   0.010161  -0.023906  -0.023098
              25
     1  O    0.000551
     2  C   -0.000252
     3  C   -0.000151
     4  N    0.000001
     5  C    0.000000
     6  C   -0.000000
     7  C    0.000000
     8  C    0.000000
     9  O    0.004015
    10  C   -0.019344
    11  C    0.366779
    12  H    0.000063
    13  H   -0.000000
    14  H   -0.000000
    15  H   -0.000000
    16  H   -0.000000
    17  H   -0.000000
    18  H   -0.000000
    19  H    0.000000
    20  H   -0.000000
    21  H   -0.010494
    22  H    0.010161
    23  H   -0.023906
    24  H   -0.023098
    25  H    0.676249
 Mulliken charges:
               1
     1  O   -0.386311
     2  C    0.274684
     3  C   -0.193490
     4  N   -0.095392
     5  C   -0.111104
     6  C   -0.113981
     7  C    0.003498
     8  C   -0.045588
     9  O   -0.423761
    10  C    0.170130
    11  C   -0.104288
    12  H   -0.065779
    13  H   -0.065091
    14  H   -0.005603
    15  H    0.042854
    16  H   -0.016192
    17  H    0.025188
    18  H   -0.003231
    19  H    0.013057
    20  H    0.021035
    21  H   -0.011022
    22  H    0.014304
    23  H    0.060602
    24  H   -0.003946
    25  H    0.019427
 Sum of Mulliken charges =  -1.00000
 Mulliken charges with hydrogens summed into heavy atoms:
               1
     1  O   -0.386311
     2  C    0.274684
     3  C   -0.259269
     4  N   -0.095392
     5  C   -0.176194
     6  C   -0.119584
     7  C    0.055347
     8  C   -0.014726
     9  O   -0.423761
    10  C    0.173412
    11  C   -0.028205
 APT charges:
               1
     1  O   -1.015146
     2  C    1.774084
     3  C   -0.894943
     4  N    0.401644
     5  C   -0.264412
     6  C    0.229133
     7  C    0.018955
     8  C    0.051431
     9  O   -1.168615
    10  C    0.681416
    11  C   -0.044480
    12  H   -0.045558
    13  H   -0.111087
    14  H   -0.188259
    15  H    0.011040
    16  H   -0.070921
    17  H   -0.004023
    18  H   -0.105460
    19  H   -0.031506
    20  H   -0.013633
    21  H   -0.115283
    22  H   -0.044968
    23  H    0.047899
    24  H   -0.068811
    25  H   -0.028495
 Sum of APT charges =  -1.00000
 APT charges with hydrogens summed into heavy atoms:
               1
     1  O   -1.015146
     2  C    1.774084
     3  C   -0.940501
     4  N    0.401644
     5  C   -0.375499
     6  C    0.040874
     7  C   -0.044949
     8  C   -0.099168
     9  O   -1.168615
    10  C    0.521164
    11  C   -0.093888
 Electronic spatial extent (au):  <R**2>=           3265.1974
 Charge=             -1.0000 electrons
 Dipole moment (field-independent basis, Debye):
    X=              0.6901    Y=             -0.8621    Z=             -0.4825  Tot=              1.2051
 Quadrupole moment (field-independent basis, Debye-Ang):
   XX=            -93.7684   YY=            -78.8193   ZZ=            -73.1293
   XY=              1.1604   XZ=              0.1621   YZ=             -1.1549
 Traceless Quadrupole moment (field-independent basis, Debye-Ang):
   XX=            -11.8627   YY=              3.0864   ZZ=              8.7764
   XY=              1.1604   XZ=              0.1621   YZ=             -1.1549
 Octapole moment (field-independent basis, Debye-Ang**2):
  XXX=            -46.9201  YYY=             -1.1786  ZZZ=              5.4346  XYY=             -2.1891
  XXY=              0.2034  XXZ=              3.4343  XZZ=             -7.1149  YZZ=              1.5726
  YYZ=             -2.3276  XYZ=              1.7041
 Hexadecapole moment (field-independent basis, Debye-Ang**3):
 XXXX=          -4363.6822 YYYY=           -410.9074 ZZZZ=           -188.7350 XXXY=             23.1945
 XXXZ=            -53.9454 YYYX=             -0.7666 YYYZ=             -1.4712 ZZZX=             -4.9760
 ZZZY=              1.1981 XXYY=           -776.4879 XXZZ=           -718.3638 YYZZ=           -100.1209
 XXYZ=              6.6555 YYXZ=             -0.8752 ZZXY=              5.5208
 N-N= 5.965230015358D+02 E-N=-2.412442941955D+03  KE= 5.127248610439D+02
  Exact polarizability:     200.487      -9.395      98.643      -9.371       3.981      79.491
 Approx polarizability:     188.209     -14.721     122.094     -14.247       7.852      97.959
   1 Symmetry operations used in ECPInt.
 ECPInt:  NShTT=    5886 NPrTT=   20688 LenC2=    5341 LenP2D=   13995.
 LDataN:  DoStor=T MaxTD1= 6 Len=  172
 Calling FoFJK, ICntrl=    100127 FMM=F ISym2X=0 I1Cent= 0 IOpClX= 0 NMat=1 NMatS=1 NMatT=0.
 Full mass-weighted force constant matrix:
 Low frequencies ---   -9.4401   -2.4014   -0.0009   -0.0006    0.0004    2.4954
 Low frequencies ---   32.5905   50.3653   69.9628
 Diagonal vibrational polarizability:
       63.1246288      24.4258731      69.1491403
 Harmonic frequencies (cm**-1), IR intensities (KM/Mole), Raman scattering
 activities (A**4/AMU), depolarization ratios for plane and unpolarized
 incident light, reduced masses (AMU), force constants (mDyne/A),
 and normal coordinates:
                      1                      2                      3
                      A                      A                      A
 Frequencies --     32.5770                50.3585                69.9616
 Red. masses --      2.7885                 4.3582                 3.7167
 Frc consts  --      0.0017                 0.0065                 0.0107
 IR Inten    --      0.4458                 5.1481                 2.7454
  Atom  AN      X      Y      Z        X      Y      Z        X      Y      Z
     1   8     0.03  -0.05   0.06     0.03  -0.08   0.25     0.07  -0.05  -0.15
     2   6     0.02  -0.03  -0.03     0.00  -0.06   0.15     0.01  -0.08  -0.07
     3   6     0.01  -0.01  -0.09    -0.01  -0.06   0.10    -0.00  -0.15   0.04
     4   7     0.01  -0.02  -0.05    -0.01  -0.05   0.09    -0.01  -0.14   0.02
     5   6     0.01  -0.01  -0.07    -0.02  -0.02  -0.01     0.04  -0.09   0.11
     6   6     0.02  -0.03   0.02    -0.04   0.01  -0.07    -0.04   0.04   0.03
     7   6    -0.02   0.02  -0.16    -0.08   0.03  -0.15    -0.16   0.02   0.06
     8   6    -0.08   0.06   0.23    -0.01   0.09  -0.04     0.11   0.15  -0.07
     9   8     0.01  -0.01  -0.09    -0.02  -0.02   0.04    -0.04  -0.00  -0.06
    10   6     0.03  -0.03   0.03    -0.04   0.04  -0.13     0.01   0.07   0.02
    11   6    -0.03   0.10   0.13     0.20   0.11  -0.20     0.00   0.18   0.09
    12   1     0.00  -0.00  -0.15    -0.03  -0.04  -0.00    -0.01  -0.16   0.13
    13   1     0.01  -0.01  -0.10    -0.02  -0.01  -0.08     0.13  -0.11   0.20
    14   1     0.15  -0.14   0.06    -0.06  -0.04  -0.07    -0.11   0.10  -0.00
    15   1     0.09  -0.02  -0.33    -0.08  -0.02  -0.18    -0.29  -0.07   0.14
    16   1    -0.00  -0.00  -0.06    -0.08   0.04  -0.17    -0.24   0.13  -0.04
    17   1    -0.19   0.13  -0.22    -0.09   0.08  -0.15    -0.06  -0.04   0.10
    18   1    -0.07   0.04   0.29    -0.02   0.10  -0.09     0.05   0.27  -0.14
    19   1    -0.06   0.02   0.36     0.01   0.07   0.02     0.21   0.16  -0.09
    20   1    -0.22   0.19   0.19     0.01   0.15  -0.04     0.19   0.09  -0.04
    21   1     0.03  -0.06  -0.03    -0.13   0.07  -0.26    -0.03   0.10   0.00
    22   1     0.07  -0.12   0.10    -0.13   0.01  -0.09     0.09   0.01   0.06
    23   1    -0.03   0.12   0.19     0.28   0.08  -0.06     0.05   0.15   0.11
    24   1    -0.01   0.08   0.22     0.18   0.15  -0.35     0.04   0.24   0.17
    25   1    -0.07   0.20   0.06     0.30   0.14  -0.23    -0.09   0.24   0.05
                      4                      5                      6
                      A                      A                      A
 Frequencies --     85.2806               139.6259               189.6527
 Red. masses --      3.4502                 3.2994                 3.5889
 Frc consts  --      0.0148                 0.0379                 0.0761
 IR Inten    --      1.5379                 3.3706                 0.2301
  Atom  AN      X      Y      Z        X      Y      Z        X      Y      Z
     1   8     0.10  -0.00  -0.03    -0.11  -0.01  -0.17     0.02   0.02  -0.12
     2   6     0.03  -0.02  -0.00    -0.04  -0.03  -0.02     0.04  -0.02   0.05
     3   6    -0.02  -0.05  -0.12    -0.01   0.01   0.01     0.07  -0.07   0.30
     4   7    -0.01  -0.06  -0.12    -0.03   0.07  -0.05     0.05  -0.03   0.17
     5   6    -0.00  -0.00  -0.18    -0.03   0.06  -0.00    -0.00   0.05  -0.18
     6   6    -0.02   0.05   0.01    -0.01   0.01  -0.00    -0.00   0.05  -0.08
     7   6    -0.14  -0.00   0.12     0.05   0.02   0.01    -0.03   0.02   0.01
     8   6    -0.09   0.02   0.07    -0.06  -0.05   0.01    -0.12  -0.05  -0.01
     9   8     0.01   0.01   0.18     0.02  -0.11   0.14     0.02   0.01  -0.08
    10   6     0.04   0.11   0.08    -0.01  -0.10   0.01     0.03  -0.00  -0.03
    11   6     0.10  -0.06  -0.06     0.22   0.14   0.06    -0.05   0.01   0.01
    12   1    -0.05  -0.05  -0.13     0.06  -0.02   0.14     0.07  -0.05   0.23
    13   1     0.04   0.02  -0.26    -0.04   0.04   0.08    -0.03   0.11  -0.42
    14   1     0.09   0.15   0.05     0.00   0.00   0.00     0.08   0.09  -0.04
    15   1    -0.08   0.03   0.07     0.06   0.05   0.02     0.19   0.14  -0.16
    16   1    -0.15   0.04   0.30     0.07  -0.02  -0.01     0.03  -0.04   0.33
    17   1    -0.27  -0.12   0.08     0.07   0.03   0.01    -0.33  -0.06  -0.10
    18   1    -0.11   0.07   0.24    -0.04  -0.10   0.04    -0.09  -0.07   0.17
    19   1    -0.01   0.05  -0.01    -0.11  -0.05  -0.00    -0.11  -0.02  -0.09
    20   1    -0.23  -0.09   0.03    -0.09  -0.05   0.00    -0.27  -0.14  -0.05
    21   1    -0.01   0.20   0.20    -0.08  -0.14  -0.25     0.05  -0.01  -0.01
    22   1     0.06   0.25  -0.04    -0.14  -0.26   0.17     0.06  -0.01  -0.03
    23   1     0.15  -0.14  -0.19     0.25   0.20   0.36    -0.06   0.02  -0.02
    24   1     0.12   0.04  -0.15     0.17   0.08  -0.05    -0.03   0.01   0.09
    25   1     0.07  -0.20   0.06     0.39   0.31  -0.09    -0.11   0.03   0.01
                      7                      8                      9
                      A                      A                      A
 Frequencies --    209.8052               229.8822               258.1985
 Red. masses --      2.0486                 1.0913                 1.3833
 Frc consts  --      0.0531                 0.0340                 0.0543
 IR Inten    --      5.4602                 0.2203                 1.8537
  Atom  AN      X      Y      Z        X      Y      Z        X      Y      Z
     1   8     0.02  -0.10  -0.01     0.01   0.01   0.01    -0.06   0.03   0.01
     2   6    -0.02  -0.11  -0.01     0.01   0.01   0.01    -0.00   0.04   0.00
     3   6    -0.00  -0.07  -0.01     0.01  -0.00   0.03     0.01   0.06   0.01
     4   7    -0.04   0.03   0.01     0.00  -0.00  -0.01     0.02   0.04  -0.01
     5   6    -0.01   0.09   0.02    -0.00   0.00  -0.03    -0.01  -0.02   0.02
     6   6     0.01   0.06   0.01    -0.00   0.00  -0.01    -0.01  -0.03  -0.00
     7   6     0.15   0.08  -0.01    -0.00   0.00  -0.02    -0.08  -0.04  -0.01
     8   6    -0.04  -0.02   0.01    -0.05  -0.01   0.03     0.01  -0.01  -0.01
     9   8    -0.07  -0.05  -0.00     0.01   0.01  -0.01     0.04  -0.02  -0.03
    10   6    -0.01   0.08   0.02     0.01  -0.01  -0.01     0.04  -0.05  -0.01
    11   6    -0.01   0.03  -0.01    -0.01  -0.00   0.00     0.06  -0.00   0.01
    12   1     0.07  -0.07  -0.03     0.00  -0.01   0.05     0.00   0.06   0.03
    13   1     0.02   0.09   0.01     0.01  -0.01   0.00    -0.05  -0.03   0.07
    14   1    -0.00   0.01   0.01     0.02   0.00  -0.00    -0.01  -0.02  -0.00
    15   1     0.10   0.10   0.07    -0.33  -0.14   0.28    -0.07  -0.07  -0.05
    16   1     0.17   0.02  -0.17    -0.10   0.12  -0.45    -0.09  -0.00   0.04
    17   1     0.31   0.14   0.04     0.45   0.03   0.14    -0.14  -0.05  -0.03
    18   1     0.01  -0.13  -0.03    -0.10   0.14   0.31    -0.04   0.11   0.11
    19   1    -0.16  -0.04   0.03     0.16   0.06  -0.16     0.15   0.04  -0.11
    20   1    -0.02   0.04   0.01    -0.25  -0.26  -0.03    -0.06  -0.15  -0.02
    21   1    -0.07   0.18   0.14     0.02  -0.02  -0.01     0.03  -0.05  -0.02
    22   1     0.12   0.15  -0.06    -0.00  -0.01  -0.00     0.04  -0.06   0.00
    23   1     0.19  -0.22  -0.28    -0.04   0.04   0.03     0.34  -0.31  -0.24
    24   1     0.16   0.39   0.11    -0.03  -0.06  -0.01     0.29   0.46   0.20
    25   1    -0.40  -0.10   0.11     0.05   0.01  -0.02    -0.44  -0.08   0.11
                     10                     11                     12
                      A                      A                      A
 Frequencies --    271.1807               291.9213               318.7024
 Red. masses --      1.3582                 2.1144                 2.8916
 Frc consts  --      0.0589                 0.1062                 0.1730
 IR Inten    --      1.4060                 1.7792                 3.7647
  Atom  AN      X      Y      Z        X      Y      Z        X      Y      Z
     1   8    -0.04  -0.02   0.00     0.09  -0.03   0.04     0.03  -0.01  -0.05
     2   6    -0.03  -0.02   0.01     0.04  -0.03  -0.00    -0.00  -0.01  -0.08
     3   6    -0.01  -0.01  -0.01     0.02  -0.03   0.03    -0.03   0.03  -0.15
     4   7     0.01  -0.02  -0.01    -0.05   0.08  -0.11    -0.01   0.01   0.27
     5   6     0.02  -0.01  -0.00    -0.02   0.02   0.15    -0.06   0.03   0.08
     6   6     0.04  -0.01   0.01    -0.05   0.03   0.01    -0.06  -0.01   0.06
     7   6     0.08   0.00  -0.02    -0.04   0.05  -0.03    -0.05   0.03  -0.07
     8   6     0.08   0.03   0.00    -0.09  -0.08  -0.05    -0.01  -0.05  -0.04
     9   8    -0.05  -0.01   0.04     0.03   0.00  -0.06     0.02  -0.01  -0.02
    10   6    -0.05   0.02   0.00     0.05   0.02   0.01     0.06   0.03   0.06
    11   6    -0.04   0.02  -0.01     0.02  -0.02   0.00     0.08  -0.03   0.02
    12   1    -0.02  -0.01  -0.01     0.10  -0.07   0.23    -0.02   0.10  -0.51
    13   1     0.03  -0.00  -0.02     0.03  -0.06   0.55    -0.16   0.13  -0.38
    14   1     0.05  -0.02   0.01    -0.09   0.02  -0.00    -0.14  -0.06   0.03
    15   1     0.26   0.09  -0.18     0.12   0.08  -0.21    -0.03  -0.04  -0.15
    16   1     0.15  -0.09   0.18     0.00  -0.01   0.16    -0.04   0.02  -0.13
    17   1    -0.14   0.03  -0.10    -0.28   0.09  -0.11    -0.07   0.17  -0.08
    18   1    -0.05   0.36   0.34    -0.09  -0.06   0.13    -0.04   0.03   0.05
    19   1     0.47   0.16  -0.30    -0.06  -0.01  -0.27     0.06   0.01  -0.24
    20   1    -0.13  -0.38  -0.05    -0.19  -0.32  -0.07    -0.01  -0.27  -0.04
    21   1    -0.07   0.03  -0.01     0.06   0.04   0.06     0.06   0.06   0.14
    22   1    -0.06   0.03  -0.00     0.11   0.04  -0.02     0.15   0.06   0.01
    23   1    -0.06   0.04   0.01    -0.07   0.06   0.04     0.04   0.01   0.06
    24   1    -0.05  -0.01  -0.03    -0.05  -0.15  -0.05     0.02  -0.12  -0.09
    25   1     0.00   0.03  -0.02     0.15  -0.02  -0.01     0.23  -0.07   0.04
                     13                     14                     15
                      A                      A                      A
 Frequencies --    365.8045               380.7846               412.4638
 Red. masses --      2.7960                 2.6454                 3.7323
 Frc consts  --      0.2204                 0.2260                 0.3741
 IR Inten    --     11.8275                 0.7551                 3.3019
  Atom  AN      X      Y      Z        X      Y      Z        X      Y      Z
     1   8     0.17   0.08  -0.02     0.08   0.06   0.00     0.17  -0.06  -0.04
     2   6     0.04   0.05   0.01     0.00   0.04  -0.02     0.05  -0.09   0.01
     3   6    -0.03  -0.04  -0.06    -0.07  -0.04   0.01     0.08   0.04  -0.03
     4   7    -0.01  -0.09   0.03    -0.09  -0.04   0.01    -0.02   0.23   0.05
     5   6     0.03  -0.01   0.05    -0.10  -0.05   0.01    -0.10   0.08   0.01
     6   6    -0.01   0.06   0.05    -0.12  -0.03  -0.06    -0.04  -0.11  -0.05
     7   6     0.02   0.09  -0.03     0.14  -0.05   0.06    -0.04  -0.15   0.01
     8   6    -0.04  -0.05  -0.02    -0.07   0.15  -0.01     0.02   0.07   0.01
     9   8     0.02   0.05   0.11     0.02   0.05  -0.08     0.02  -0.06   0.11
    10   6    -0.11  -0.15  -0.08     0.02  -0.06   0.04    -0.01  -0.01  -0.09
    11   6    -0.08   0.01  -0.01     0.09  -0.06   0.03    -0.12   0.06  -0.04
    12   1    -0.11  -0.03  -0.10    -0.11  -0.03   0.01     0.29   0.03  -0.07
    13   1     0.12   0.00  -0.02    -0.10  -0.05   0.02    -0.33   0.08   0.00
    14   1    -0.04   0.05   0.04    -0.16  -0.05  -0.07    -0.07  -0.14  -0.06
    15   1     0.06   0.07  -0.10     0.28   0.26   0.15    -0.07  -0.10   0.11
    16   1     0.04   0.06  -0.05     0.30  -0.30   0.12    -0.04  -0.15   0.06
    17   1    -0.01   0.20  -0.04     0.21  -0.10   0.08    -0.01  -0.28   0.03
    18   1     0.01  -0.14   0.01    -0.16   0.34   0.00    -0.08   0.25  -0.01
    19   1    -0.14  -0.03  -0.14     0.15   0.13   0.12     0.23   0.05   0.14
    20   1    -0.02  -0.15  -0.02    -0.13   0.23  -0.02    -0.01   0.16   0.01
    21   1    -0.04  -0.30  -0.35     0.06  -0.10   0.01    -0.04  -0.01  -0.14
    22   1    -0.40  -0.27   0.07     0.02  -0.09   0.07    -0.10  -0.01  -0.08
    23   1     0.05  -0.10  -0.02     0.18  -0.12   0.05    -0.21   0.13  -0.05
    24   1     0.04   0.20   0.16     0.11   0.03  -0.07    -0.10  -0.02   0.18
    25   1    -0.34   0.11  -0.07     0.12  -0.09   0.05    -0.25   0.16  -0.11
                     16                     17                     18
                      A                      A                      A
 Frequencies --    459.5168               505.6912               642.0225
 Red. masses --      3.2720                 2.7884                 3.2537
 Frc consts  --      0.4071                 0.4201                 0.7902
 IR Inten    --      3.3647                 0.8514                 2.2095
  Atom  AN      X      Y      Z        X      Y      Z        X      Y      Z
     1   8     0.14   0.01  -0.02    -0.03   0.02   0.01     0.01  -0.04  -0.01
     2   6    -0.04  -0.01  -0.01     0.02   0.01   0.05     0.04  -0.03  -0.01
     3   6    -0.02  -0.03   0.08    -0.06  -0.05   0.05     0.15   0.12   0.01
     4   7    -0.06   0.10  -0.05    -0.11  -0.02  -0.07     0.18   0.05  -0.03
     5   6    -0.06   0.11  -0.10    -0.12   0.01  -0.11     0.03  -0.19  -0.07
     6   6     0.06  -0.04   0.09    -0.09  -0.03   0.17    -0.17  -0.03   0.13
     7   6    -0.04  -0.01  -0.02     0.01   0.05  -0.01    -0.01   0.05   0.03
     8   6     0.15  -0.06   0.04     0.08  -0.03   0.02    -0.09   0.03  -0.03
     9   8    -0.12   0.06  -0.10     0.11  -0.04   0.02    -0.06  -0.01  -0.01
    10   6    -0.14  -0.06   0.10     0.15   0.01  -0.08    -0.09   0.01   0.04
    11   6     0.07  -0.06   0.03    -0.02   0.02  -0.01    -0.02   0.01  -0.00
    12   1     0.07  -0.05   0.16    -0.10  -0.06   0.16     0.25   0.09   0.12
    13   1    -0.12   0.11  -0.14    -0.12   0.03  -0.23    -0.07  -0.16  -0.15
    14   1     0.13  -0.04   0.12    -0.02  -0.02   0.20    -0.11   0.08   0.15
    15   1    -0.10  -0.20  -0.10     0.08   0.00  -0.13     0.14   0.18  -0.06
    16   1    -0.12   0.11  -0.08     0.07  -0.07  -0.17     0.17  -0.28  -0.20
    17   1    -0.08   0.08  -0.04     0.04   0.36  -0.00     0.12   0.42   0.06
    18   1     0.11  -0.00  -0.09     0.00   0.09  -0.22    -0.14   0.11  -0.24
    19   1     0.18  -0.04  -0.02     0.14   0.02  -0.11    -0.06   0.07  -0.14
    20   1     0.32  -0.12   0.09     0.39  -0.15   0.11     0.16  -0.06   0.04
    21   1    -0.10  -0.12   0.03     0.13   0.05  -0.02    -0.09   0.00   0.03
    22   1    -0.14  -0.12   0.16     0.17   0.06  -0.12    -0.09  -0.01   0.05
    23   1     0.29  -0.21   0.13    -0.18   0.14  -0.08     0.07  -0.06   0.04
    24   1     0.08   0.12  -0.28    -0.02  -0.12   0.25    -0.03   0.09  -0.17
    25   1     0.23  -0.14   0.08    -0.15   0.10  -0.06     0.07  -0.04   0.02
                     19                     20                     21
                      A                      A                      A
 Frequencies --    702.5694               710.3484               767.3135
 Red. masses --      2.9689                 1.2001                10.3242
 Frc consts  --      0.8634                 0.3568                 3.5814
 IR Inten    --     28.9454                12.9668                15.3410
  Atom  AN      X      Y      Z        X      Y      Z        X      Y      Z
     1   8    -0.13  -0.11   0.00     0.02   0.01   0.02    -0.05   0.05  -0.23
     2   6     0.06  -0.06  -0.04    -0.01   0.01   0.00     0.12  -0.17   0.78
     3   6     0.07  -0.12  -0.06    -0.03   0.03  -0.10    -0.02   0.03  -0.24
     4   7    -0.02   0.02   0.01     0.00  -0.01   0.03    -0.01   0.01  -0.04
     5   6    -0.01   0.05   0.01     0.01   0.00   0.03     0.02   0.01   0.06
     6   6    -0.03  -0.02   0.02     0.01   0.00  -0.01     0.00   0.00   0.00
     7   6    -0.00  -0.03  -0.01     0.00  -0.00  -0.00     0.00  -0.01  -0.00
     8   6    -0.01   0.00  -0.00    -0.00   0.00  -0.00    -0.01   0.01  -0.01
     9   8     0.09   0.24   0.03    -0.01  -0.03  -0.01    -0.01   0.07  -0.16
    10   6     0.01   0.06   0.03     0.00  -0.01  -0.01    -0.02  -0.01  -0.00
    11   6    -0.00  -0.00   0.01    -0.00  -0.00  -0.00    -0.02  -0.00   0.01
    12   1     0.21  -0.19   0.20     0.10  -0.18   0.90    -0.03   0.04  -0.32
    13   1    -0.04   0.08  -0.10    -0.03   0.08  -0.33     0.01   0.03  -0.05
    14   1    -0.03  -0.03   0.01    -0.03  -0.02  -0.03    -0.05  -0.02  -0.02
    15   1     0.00  -0.03  -0.01    -0.01  -0.01   0.01    -0.00  -0.02  -0.00
    16   1     0.00  -0.05  -0.02    -0.01   0.02   0.02    -0.00  -0.00   0.01
    17   1     0.00  -0.01  -0.00    -0.01  -0.04  -0.00    -0.00  -0.03  -0.01
    18   1    -0.04   0.05  -0.05     0.01  -0.02   0.04    -0.00  -0.00   0.02
    19   1     0.02   0.01  -0.01    -0.02  -0.00   0.01    -0.02   0.00  -0.00
    20   1     0.02  -0.00   0.01    -0.05   0.01  -0.02    -0.04   0.01  -0.01
    21   1     0.16  -0.24  -0.44    -0.01   0.03   0.05     0.03  -0.01   0.10
    22   1    -0.37  -0.22   0.32     0.04   0.03  -0.04     0.07   0.02  -0.04
    23   1    -0.03  -0.05  -0.21     0.00   0.01   0.03     0.11  -0.08   0.11
    24   1    -0.03  -0.02  -0.08     0.00   0.00   0.01    -0.01   0.07  -0.11
    25   1     0.01  -0.22   0.18    -0.00   0.03  -0.03     0.08   0.01  -0.00
                     22                     23                     24
                      A                      A                      A
 Frequencies --    805.7518               840.4405               862.6516
 Red. masses --      1.3142                 2.6513                 1.6057
 Frc consts  --      0.5027                 1.1034                 0.7040
 IR Inten    --      4.1782                11.7214                23.0580
  Atom  AN      X      Y      Z        X      Y      Z        X      Y      Z
     1   8    -0.04  -0.01   0.01    -0.00  -0.05  -0.01     0.00  -0.00  -0.00
     2   6     0.03   0.00  -0.03    -0.01  -0.04  -0.01    -0.00  -0.00   0.01
     3   6     0.03  -0.06  -0.01    -0.00   0.03  -0.01    -0.02   0.02  -0.09
     4   7    -0.00  -0.00  -0.00    -0.01   0.04   0.03     0.01  -0.02   0.12
     5   6     0.01   0.04   0.01    -0.11  -0.16  -0.03    -0.02   0.03  -0.16
     6   6    -0.01  -0.00   0.02    -0.00  -0.02  -0.13     0.00  -0.00   0.00
     7   6     0.00  -0.03  -0.01    -0.03   0.21   0.03     0.00  -0.01   0.00
     8   6    -0.02   0.01  -0.01     0.14  -0.09   0.05    -0.02  -0.00   0.01
     9   8     0.03   0.07   0.02     0.03   0.07   0.01    -0.00   0.00  -0.00
    10   6    -0.04  -0.05  -0.01    -0.00  -0.01  -0.01     0.00   0.00  -0.00
    11   6    -0.03  -0.04  -0.02    -0.00  -0.02  -0.00     0.00  -0.00   0.00
    12   1     0.05  -0.05  -0.03     0.09   0.01   0.03     0.03  -0.05   0.21
    13   1     0.03   0.04  -0.01    -0.33  -0.20   0.11     0.11  -0.19   0.87
    14   1    -0.00  -0.02   0.02    -0.06   0.04  -0.15     0.19   0.08   0.07
    15   1     0.00  -0.05  -0.02    -0.01   0.41   0.17     0.01  -0.03  -0.03
    16   1     0.00  -0.04  -0.02    -0.00   0.18   0.12     0.01  -0.03  -0.03
    17   1    -0.00  -0.01  -0.01     0.04   0.07   0.06     0.00   0.04   0.00
    18   1    -0.04   0.04  -0.06     0.21  -0.17   0.30    -0.06   0.06  -0.12
    19   1    -0.01   0.02  -0.03     0.16  -0.16   0.27     0.04   0.02  -0.05
    20   1     0.03  -0.01   0.01    -0.13   0.05  -0.03     0.13  -0.03   0.05
    21   1     0.12  -0.01   0.45     0.10  -0.05   0.09     0.00  -0.00  -0.00
    22   1     0.06   0.29  -0.30    -0.03   0.08  -0.08    -0.00   0.00  -0.00
    23   1     0.21  -0.09   0.46     0.07  -0.03   0.15    -0.00   0.00   0.00
    24   1     0.07   0.20  -0.01     0.03   0.05   0.03     0.00  -0.01   0.01
    25   1    -0.01   0.36  -0.33    -0.01   0.11  -0.11    -0.00   0.00  -0.00
                     25                     26                     27
                      A                      A                      A
 Frequencies --    905.8962               914.7716               955.8987
 Red. masses --      2.2624                 1.1691                 1.8046
 Frc consts  --      1.0939                 0.5764                 0.9715
 IR Inten    --     58.4601                 1.0880               110.3513
  Atom  AN      X      Y      Z        X      Y      Z        X      Y      Z
     1   8     0.03  -0.05  -0.02    -0.00   0.01   0.00    -0.03   0.05   0.01
     2   6    -0.12  -0.07   0.01     0.01   0.01  -0.00     0.07   0.05   0.00
     3   6    -0.04   0.07   0.02    -0.00  -0.01  -0.00     0.05  -0.08  -0.02
     4   7     0.02   0.01  -0.01    -0.01   0.00   0.00     0.03  -0.01  -0.01
     5   6     0.02  -0.03  -0.00    -0.00   0.01  -0.01     0.04   0.06   0.01
     6   6     0.03   0.01   0.03     0.02  -0.01   0.01    -0.05  -0.06  -0.03
     7   6     0.01  -0.04   0.02     0.01  -0.02   0.07     0.01   0.09   0.01
     8   6    -0.02   0.03  -0.03     0.01  -0.03  -0.07    -0.05  -0.11  -0.00
     9   8    -0.07   0.11   0.01     0.01  -0.01  -0.00    -0.07  -0.02  -0.01
    10   6     0.02   0.03  -0.11    -0.00  -0.00   0.01    -0.03   0.01  -0.04
    11   6     0.14  -0.11   0.07    -0.02   0.02  -0.01     0.06  -0.04   0.04
    12   1     0.01   0.07   0.00    -0.00  -0.01   0.00     0.06  -0.07  -0.03
    13   1     0.03  -0.02  -0.04    -0.02   0.00   0.03     0.10   0.07  -0.02
    14   1     0.04   0.15   0.03    -0.15   0.36  -0.05    -0.09  -0.22  -0.04
    15   1     0.03  -0.17  -0.11     0.07  -0.33  -0.26    -0.07   0.07   0.08
    16   1    -0.00  -0.03  -0.08    -0.03   0.02  -0.20    -0.07   0.24   0.11
    17   1    -0.03   0.13  -0.00    -0.11   0.44   0.01    -0.05  -0.04  -0.01
    18   1     0.01  -0.02   0.03    -0.03   0.09   0.16    -0.30   0.36  -0.23
    19   1    -0.09   0.03  -0.03     0.17  -0.13   0.31     0.45  -0.14   0.26
    20   1    -0.09   0.04  -0.05    -0.31   0.29  -0.16     0.13   0.15   0.05
    21   1    -0.02   0.06  -0.12     0.01  -0.01   0.02    -0.16   0.11  -0.05
    22   1    -0.13   0.14  -0.18     0.02  -0.02   0.02    -0.06   0.06  -0.07
    23   1    -0.09   0.09   0.14     0.01  -0.01  -0.02    -0.05   0.04   0.01
    24   1     0.19  -0.33   0.68    -0.03   0.05  -0.09     0.06  -0.15   0.25
    25   1    -0.17   0.10  -0.07     0.02  -0.01   0.01    -0.05  -0.02   0.03
                     28                     29                     30
                      A                      A                      A
 Frequencies --    963.5329              1003.0202              1085.2403
 Red. masses --      1.7863                 2.4110                 1.5564
 Frc consts  --      0.9771                 1.4291                 1.0800
 IR Inten    --     55.9069                84.5952                 8.9652
  Atom  AN      X      Y      Z        X      Y      Z        X      Y      Z
     1   8     0.03  -0.05  -0.02     0.05  -0.07  -0.02    -0.00   0.02   0.00
     2   6    -0.06  -0.05  -0.00    -0.13  -0.07   0.00    -0.03   0.00   0.01
     3   6    -0.04   0.09   0.03    -0.06   0.14   0.04    -0.02  -0.05  -0.01
     4   7    -0.01  -0.01  -0.01     0.02  -0.06  -0.01    -0.01   0.03   0.01
     5   6    -0.03  -0.07   0.00     0.10   0.11   0.02     0.02  -0.04   0.07
     6   6     0.07  -0.03   0.03    -0.08   0.01  -0.03     0.10  -0.01  -0.11
     7   6     0.11   0.06   0.02    -0.08  -0.01  -0.02    -0.06   0.01   0.04
     8   6    -0.10   0.01  -0.04     0.02  -0.11   0.03    -0.07  -0.02   0.03
     9   8     0.05   0.03   0.01     0.05   0.04   0.01    -0.01   0.01   0.00
    10   6     0.03  -0.01   0.03     0.05  -0.01   0.03     0.02  -0.03   0.03
    11   6    -0.04   0.02  -0.03    -0.04   0.02  -0.03     0.00   0.01  -0.03
    12   1    -0.06   0.09   0.02    -0.19   0.15   0.05     0.04  -0.06  -0.03
    13   1    -0.04  -0.06  -0.06     0.43   0.13  -0.03    -0.24  -0.01  -0.11
    14   1     0.14  -0.19   0.05    -0.12   0.02  -0.05     0.61   0.28   0.08
    15   1    -0.13  -0.34  -0.02     0.05   0.28   0.06     0.11   0.13  -0.08
    16   1    -0.18   0.58   0.18     0.10  -0.33  -0.07     0.06  -0.21  -0.15
    17   1    -0.19  -0.12  -0.07     0.11   0.02   0.04     0.08   0.28   0.08
    18   1    -0.23   0.23  -0.25    -0.13   0.18  -0.07    -0.16   0.13  -0.27
    19   1     0.09   0.03  -0.04     0.35  -0.14   0.24     0.10   0.04  -0.10
    20   1     0.09   0.06   0.01     0.10   0.09   0.05     0.23  -0.05   0.11
    21   1     0.14  -0.10   0.02     0.19  -0.13   0.01     0.03  -0.03   0.04
    22   1     0.03  -0.04   0.05     0.05  -0.05   0.06     0.06  -0.03   0.03
    23   1     0.04  -0.03   0.01     0.03  -0.02   0.00    -0.05   0.05  -0.07
    24   1    -0.04   0.10  -0.16    -0.03   0.09  -0.13    -0.00  -0.01   0.01
    25   1     0.03   0.02  -0.03     0.01   0.03  -0.05    -0.04   0.03  -0.04
                     31                     32                     33
                      A                      A                      A
 Frequencies --   1103.9131              1143.1062              1161.2358
 Red. masses --      2.2199                 2.2257                 1.9326
 Frc consts  --      1.5938                 1.7135                 1.5355
 IR Inten    --     11.7189                 4.3071                98.2086
  Atom  AN      X      Y      Z        X      Y      Z        X      Y      Z
     1   8    -0.00   0.02   0.00    -0.01  -0.04  -0.01     0.00   0.08   0.02
     2   6    -0.03   0.00   0.01     0.09   0.02  -0.01    -0.16  -0.03   0.01
     3   6     0.01  -0.04  -0.01     0.03   0.06   0.00     0.02  -0.08  -0.02
     4   7     0.02   0.01   0.00    -0.03  -0.03  -0.00     0.03   0.03   0.00
     5   6     0.01   0.00  -0.02    -0.05  -0.04   0.03     0.01  -0.05  -0.01
     6   6    -0.02  -0.02   0.04    -0.11   0.16  -0.11    -0.07   0.06  -0.01
     7   6     0.01   0.01  -0.01     0.09  -0.07  -0.01     0.05  -0.02  -0.02
     8   6     0.01   0.01  -0.02     0.01  -0.05   0.12     0.01  -0.02   0.03
     9   8    -0.07   0.04  -0.02     0.01  -0.02  -0.02    -0.02   0.04   0.03
    10   6     0.06  -0.11   0.20    -0.05   0.02   0.06     0.05  -0.07  -0.08
    11   6     0.06   0.04  -0.18     0.02  -0.01  -0.03    -0.01   0.05   0.04
    12   1     0.14  -0.04  -0.03    -0.10   0.07   0.02     0.68  -0.12  -0.12
    13   1     0.05  -0.01   0.03     0.03  -0.01  -0.06     0.13  -0.04  -0.03
    14   1    -0.16  -0.12  -0.01    -0.09   0.53  -0.10    -0.14   0.20  -0.04
    15   1    -0.03   0.00   0.04    -0.03  -0.36  -0.11    -0.05  -0.14  -0.00
    16   1    -0.01   0.05   0.05    -0.05   0.14  -0.07    -0.02   0.08   0.02
    17   1    -0.01  -0.06  -0.01    -0.14  -0.13  -0.09    -0.07  -0.14  -0.06
    18   1     0.04  -0.03   0.07     0.00  -0.04  -0.07     0.01  -0.02   0.01
    19   1    -0.04  -0.01   0.02     0.17  -0.00  -0.01     0.07  -0.02   0.03
    20   1    -0.09   0.03  -0.05     0.38  -0.18   0.22     0.11  -0.05   0.06
    21   1     0.04  -0.11   0.20    -0.09   0.03   0.01     0.08  -0.03   0.10
    22   1     0.04  -0.10   0.21    -0.16   0.04   0.05     0.34  -0.06  -0.13
    23   1    -0.32   0.32  -0.30    -0.07   0.07  -0.00     0.04  -0.05  -0.11
    24   1     0.06  -0.15   0.24     0.04  -0.05   0.12    -0.07   0.00  -0.16
    25   1    -0.35   0.27  -0.34    -0.10   0.08  -0.09     0.11  -0.15   0.18
                     34                     35                     36
                      A                      A                      A
 Frequencies --   1187.0335              1193.5410              1197.1376
 Red. masses --      1.8706                 1.7603                 3.1513
 Frc consts  --      1.5529                 1.4775                 2.6609
 IR Inten    --      9.4347                70.9772               662.1229
  Atom  AN      X      Y      Z        X      Y      Z        X      Y      Z
     1   8     0.01   0.07   0.01    -0.00  -0.00  -0.00     0.01   0.04   0.01
     2   6    -0.07  -0.01   0.01     0.00  -0.00  -0.00    -0.11  -0.04   0.00
     3   6    -0.00  -0.04  -0.01     0.01   0.01   0.00     0.04   0.04   0.00
     4   7     0.00   0.00  -0.00    -0.03  -0.00   0.00    -0.06  -0.08  -0.01
     5   6     0.00  -0.01  -0.00    -0.03  -0.05   0.01     0.00   0.05   0.00
     6   6    -0.00   0.01   0.02     0.04   0.08   0.14    -0.01  -0.08  -0.06
     7   6     0.00  -0.00  -0.02    -0.01  -0.01  -0.12    -0.01   0.02   0.06
     8   6    -0.00  -0.01  -0.01    -0.01  -0.05  -0.08     0.01   0.03   0.01
     9   8     0.01  -0.09  -0.03     0.06  -0.01  -0.02     0.22  -0.05  -0.06
    10   6     0.06   0.17   0.05    -0.08  -0.00   0.02    -0.24   0.05   0.06
    11   6    -0.05  -0.11  -0.04     0.03   0.02  -0.00     0.07   0.02  -0.01
    12   1     0.36  -0.06  -0.07     0.08   0.00  -0.01     0.56  -0.00  -0.08
    13   1     0.03  -0.02  -0.01    -0.12  -0.04  -0.02     0.13   0.04   0.01
    14   1     0.01   0.06   0.02     0.29   0.44   0.23     0.03  -0.29  -0.05
    15   1    -0.02   0.01   0.02    -0.10   0.17   0.15     0.06  -0.02  -0.06
    16   1     0.01  -0.01   0.02     0.08  -0.13   0.17    -0.03   0.05  -0.07
    17   1     0.01  -0.06  -0.01     0.14  -0.43  -0.05    -0.04   0.25   0.05
    18   1    -0.01   0.02   0.01    -0.11   0.17   0.05     0.06  -0.08  -0.01
    19   1     0.02  -0.02   0.03     0.13  -0.11   0.19    -0.09   0.05  -0.08
    20   1    -0.01   0.02  -0.01    -0.15   0.24  -0.11    -0.02  -0.08   0.00
    21   1     0.20  -0.11  -0.38    -0.10   0.04   0.07    -0.23   0.08   0.13
    22   1    -0.31  -0.08   0.30    -0.03   0.07  -0.05    -0.11   0.19  -0.10
    23   1     0.10  -0.09   0.40    -0.05   0.05  -0.07    -0.11   0.14  -0.10
    24   1     0.10   0.20   0.09    -0.00  -0.08   0.05     0.01  -0.20   0.18
    25   1     0.00   0.24  -0.30    -0.05  -0.04   0.05    -0.16  -0.08   0.09
                     37                     38                     39
                      A                      A                      A
 Frequencies --   1268.0026              1306.4037              1330.8982
 Red. masses --      2.9289                 1.2937                 1.2545
 Frc consts  --      2.7746                 1.3009                 1.3092
 IR Inten    --     42.4947                51.6299                75.1324
  Atom  AN      X      Y      Z        X      Y      Z        X      Y      Z
     1   8    -0.01  -0.03  -0.01    -0.00  -0.01  -0.00     0.00  -0.00  -0.00
     2   6     0.09   0.04  -0.00     0.02   0.01  -0.00    -0.03  -0.01  -0.00
     3   6     0.13   0.17   0.02    -0.00  -0.01  -0.00     0.03  -0.00  -0.00
     4   7    -0.13  -0.21  -0.03    -0.03   0.06   0.02     0.01  -0.02  -0.00
     5   6    -0.07   0.08   0.04    -0.01  -0.04   0.01     0.03   0.04   0.01
     6   6     0.02  -0.01  -0.01    -0.11  -0.01  -0.02    -0.05  -0.08  -0.00
     7   6    -0.02  -0.01   0.00     0.02  -0.00   0.01     0.02   0.00  -0.02
     8   6     0.01   0.00  -0.02     0.03   0.02  -0.05     0.02   0.01   0.02
     9   8    -0.12   0.02   0.02    -0.01   0.00   0.00     0.03   0.04   0.01
    10   6     0.09  -0.04  -0.02     0.01  -0.00  -0.00    -0.01  -0.00   0.01
    11   6    -0.02  -0.01   0.01    -0.00  -0.01   0.00    -0.02  -0.05  -0.02
    12   1     0.80   0.13  -0.08    -0.04   0.00   0.01    -0.14  -0.00   0.02
    13   1    -0.16   0.06   0.02     0.60   0.02  -0.10    -0.17   0.03   0.02
    14   1     0.30  -0.06   0.09     0.64  -0.15   0.24     0.07   0.29   0.04
    15   1     0.04   0.05  -0.02    -0.02  -0.05   0.02    -0.04   0.06   0.10
    16   1    -0.01  -0.01  -0.00    -0.03   0.08  -0.03    -0.05   0.14   0.08
    17   1     0.04   0.05   0.02    -0.08   0.03  -0.02    -0.04   0.03  -0.04
    18   1     0.01   0.02   0.02     0.11  -0.10   0.15     0.02   0.00  -0.05
    19   1    -0.03  -0.01   0.02     0.00  -0.05   0.15    -0.11   0.02  -0.04
    20   1    -0.09   0.04  -0.05    -0.08  -0.03  -0.07    -0.09  -0.05  -0.02
    21   1     0.00   0.03  -0.01    -0.03   0.03  -0.01    -0.46   0.29  -0.22
    22   1     0.04  -0.07   0.02     0.00  -0.01   0.01     0.52  -0.27   0.16
    23   1     0.00  -0.03  -0.02    -0.01  -0.00  -0.01     0.02  -0.04   0.14
    24   1     0.00   0.08  -0.07     0.00   0.02  -0.02     0.03   0.06   0.02
    25   1     0.06   0.05  -0.05     0.01   0.02  -0.02    -0.02   0.09  -0.12
                     40                     41                     42
                      A                      A                      A
 Frequencies --   1333.7373              1342.6511              1357.2959
 Red. masses --      1.4793                 1.3255                 1.2936
 Frc consts  --      1.5504                 1.4079                 1.4041
 IR Inten    --     53.9402                10.6673                19.3237
  Atom  AN      X      Y      Z        X      Y      Z        X      Y      Z
     1   8     0.00   0.01   0.00    -0.00  -0.02  -0.00    -0.00   0.00   0.00
     2   6    -0.03  -0.00   0.01     0.04   0.02  -0.00     0.03  -0.00  -0.00
     3   6     0.03  -0.01  -0.01    -0.03   0.01   0.01     0.01   0.01   0.00
     4   7     0.01  -0.03  -0.01    -0.05   0.04   0.02    -0.02   0.00   0.00
     5   6     0.05   0.06   0.01    -0.04  -0.04  -0.01    -0.02  -0.01  -0.00
     6   6    -0.09  -0.13  -0.01     0.08  -0.07   0.01     0.02   0.00   0.00
     7   6     0.04   0.00  -0.03    -0.02  -0.04  -0.04    -0.01  -0.02  -0.01
     8   6     0.04   0.02   0.02    -0.00  -0.00   0.05    -0.00  -0.00   0.01
     9   8    -0.02  -0.03  -0.01    -0.00   0.00  -0.00    -0.01   0.00   0.01
    10   6     0.00   0.01  -0.01     0.01  -0.01   0.00    -0.02   0.01  -0.00
    11   6     0.01   0.04   0.00     0.00  -0.01   0.03    -0.04   0.07  -0.13
    12   1    -0.14  -0.00   0.02     0.17   0.01  -0.02     0.01   0.01   0.00
    13   1    -0.20   0.05   0.03     0.60  -0.01  -0.08     0.16  -0.00  -0.02
    14   1     0.14   0.46   0.07    -0.27   0.33  -0.12    -0.03   0.01  -0.02
    15   1    -0.07   0.10   0.17     0.06   0.26   0.11     0.03   0.06   0.01
    16   1    -0.08   0.23   0.13    -0.11   0.18   0.16    -0.03   0.04   0.03
    17   1    -0.07   0.07  -0.07     0.12   0.20   0.01     0.04   0.06   0.01
    18   1     0.03  -0.00  -0.08    -0.07   0.07  -0.21    -0.02   0.02  -0.03
    19   1    -0.17   0.02  -0.05    -0.08   0.06  -0.19    -0.01   0.01  -0.04
    20   1    -0.15  -0.08  -0.03    -0.09   0.03   0.01    -0.02   0.03  -0.00
    21   1     0.43  -0.27   0.17    -0.10   0.07  -0.02     0.12  -0.07   0.11
    22   1    -0.31   0.16  -0.09    -0.08   0.04  -0.03     0.19  -0.18   0.13
    23   1     0.00   0.03  -0.07    -0.06   0.01  -0.08     0.33  -0.08   0.40
    24   1    -0.01  -0.05   0.03     0.00   0.05  -0.10    -0.01  -0.23   0.51
    25   1     0.02  -0.09   0.10    -0.01   0.08  -0.05     0.11  -0.39   0.24
                     43                     44                     45
                      A                      A                      A
 Frequencies --   1375.0133              1391.8931              1416.1919
 Red. masses --      1.3993                 1.4179                 1.4013
 Frc consts  --      1.5588                 1.6184                 1.6559
 IR Inten    --      4.7775                 6.8980                68.3310
  Atom  AN      X      Y      Z        X      Y      Z        X      Y      Z
     1   8    -0.00  -0.00  -0.00    -0.00  -0.01  -0.00    -0.00   0.01   0.00
     2   6     0.00   0.00   0.00     0.02   0.01  -0.00     0.02  -0.01  -0.00
     3   6     0.00   0.01   0.00    -0.01   0.01   0.00     0.05   0.01  -0.01
     4   7    -0.01  -0.01  -0.00    -0.03   0.01   0.01    -0.03   0.00   0.00
     5   6     0.00   0.02   0.00     0.01   0.00  -0.00    -0.03  -0.01   0.00
     6   6     0.04  -0.09   0.02     0.01  -0.09  -0.01     0.02   0.00   0.00
     7   6    -0.01   0.03  -0.02    -0.01   0.15   0.03    -0.01   0.01   0.00
     8   6    -0.11   0.09  -0.07     0.02   0.01   0.03    -0.00  -0.00   0.00
     9   8    -0.00   0.00   0.00    -0.00   0.00  -0.00    -0.02  -0.01   0.02
    10   6     0.00  -0.00  -0.00     0.01  -0.01   0.00    -0.11   0.08  -0.06
    11   6    -0.00   0.00  -0.00    -0.01   0.01  -0.01     0.06  -0.04   0.03
    12   1     0.03   0.01  -0.00     0.06   0.01  -0.01    -0.11   0.01   0.02
    13   1     0.08   0.02  -0.01     0.21   0.01  -0.03     0.11   0.00  -0.01
    14   1    -0.11   0.25  -0.03    -0.06   0.23  -0.04    -0.04  -0.00  -0.02
    15   1    -0.03   0.01  -0.00    -0.16  -0.41  -0.23     0.02  -0.02  -0.07
    16   1     0.02  -0.00   0.12     0.29  -0.40  -0.12     0.01  -0.02   0.01
    17   1     0.09  -0.02   0.02    -0.03  -0.49   0.03     0.06  -0.04   0.03
    18   1     0.17  -0.41   0.28    -0.01   0.01  -0.21    -0.00  -0.01  -0.03
    19   1     0.35  -0.02   0.37    -0.08   0.04  -0.09     0.02   0.01  -0.02
    20   1     0.44  -0.34   0.10    -0.18  -0.06  -0.02    -0.01   0.01   0.00
    21   1    -0.00   0.00   0.01    -0.03   0.03   0.01     0.47  -0.32   0.15
    22   1    -0.01  -0.00   0.00    -0.04   0.00   0.00     0.52  -0.33   0.20
    23   1     0.01  -0.00   0.01     0.03  -0.01   0.02    -0.19   0.13  -0.04
    24   1     0.00  -0.00   0.02     0.00  -0.00   0.04     0.04   0.02  -0.16
    25   1     0.01  -0.01   0.01     0.03  -0.03   0.02    -0.23   0.12  -0.07
                     46                     47                     48
                      A                      A                      A
 Frequencies --   1446.0814              1449.5870              1453.8930
 Red. masses --      1.0474                 1.0468                 1.0662
 Frc consts  --      1.2905                 1.2960                 1.3278
 IR Inten    --      1.7692                26.7168                 1.0194
  Atom  AN      X      Y      Z        X      Y      Z        X      Y      Z
     1   8    -0.00   0.00   0.00     0.00  -0.01  -0.00     0.00   0.01   0.00
     2   6    -0.00  -0.00  -0.00    -0.01   0.01   0.00    -0.02  -0.01   0.00
     3   6    -0.00  -0.00  -0.00     0.00  -0.00  -0.00     0.03  -0.00  -0.00
     4   7     0.00  -0.00  -0.00    -0.00   0.00   0.00     0.00   0.00   0.00
     5   6    -0.00  -0.00   0.00     0.00  -0.00  -0.00    -0.01  -0.00   0.00
     6   6    -0.01   0.03  -0.02     0.00   0.00   0.00    -0.02   0.02  -0.01
     7   6     0.00   0.00  -0.04     0.00  -0.00  -0.00    -0.04  -0.00  -0.00
     8   6    -0.00  -0.00   0.02    -0.00  -0.00   0.00     0.03   0.01  -0.00
     9   8    -0.00   0.00  -0.00     0.01   0.00   0.00    -0.00   0.00  -0.00
    10   6     0.00  -0.00   0.00    -0.03  -0.01  -0.02     0.00  -0.01   0.02
    11   6    -0.00   0.00  -0.00    -0.03  -0.03  -0.01    -0.01   0.00  -0.00
    12   1    -0.00  -0.00   0.00    -0.01  -0.00   0.00    -0.07  -0.00   0.01
    13   1    -0.03  -0.00   0.01    -0.01  -0.00   0.00    -0.02  -0.00   0.00
    14   1     0.05  -0.10   0.00    -0.01  -0.01  -0.00     0.01  -0.03  -0.00
    15   1    -0.35  -0.33   0.13    -0.01   0.00   0.01     0.22  -0.12  -0.41
    16   1     0.17  -0.22   0.58     0.00  -0.00  -0.00    -0.11   0.17   0.28
    17   1     0.18   0.40   0.02    -0.01   0.01  -0.00     0.53  -0.07   0.19
    18   1     0.07  -0.16  -0.12     0.00  -0.01   0.01    -0.07   0.17  -0.12
    19   1     0.19   0.05  -0.11     0.01   0.00  -0.01    -0.19  -0.09   0.27
    20   1    -0.12   0.09  -0.02     0.01   0.02   0.00    -0.08  -0.32  -0.03
    21   1    -0.00  -0.00  -0.01     0.03   0.01   0.17    -0.01  -0.05  -0.13
    22   1    -0.00   0.01  -0.00    -0.01  -0.09   0.05     0.04   0.11  -0.09
    23   1     0.00  -0.00   0.00    -0.32   0.15  -0.21    -0.01   0.01  -0.01
    24   1    -0.00  -0.00  -0.00     0.27   0.49   0.36     0.01   0.04   0.03
    25   1    -0.00  -0.00   0.00     0.58  -0.07  -0.02     0.05  -0.02   0.01
                     49                     50                     51
                      A                      A                      A
 Frequencies --   1460.5612              1465.0608              1474.4703
 Red. masses --      1.1154                 1.0574                 1.0959
 Frc consts  --      1.4019                 1.3372                 1.4038
 IR Inten    --      1.9628                 3.0540                24.9005
  Atom  AN      X      Y      Z        X      Y      Z        X      Y      Z
     1   8     0.00  -0.01  -0.00    -0.00  -0.00  -0.00     0.00   0.01   0.00
     2   6    -0.00   0.01   0.00     0.01   0.00  -0.00    -0.03  -0.01   0.00
     3   6    -0.04  -0.00   0.00    -0.00   0.00   0.00     0.05  -0.00  -0.01
     4   7     0.01   0.00  -0.00    -0.00   0.00   0.00    -0.00  -0.00  -0.00
     5   6     0.02   0.00  -0.00    -0.00   0.00   0.00    -0.00   0.01   0.00
     6   6    -0.01   0.00  -0.01     0.00  -0.03  -0.02    -0.04  -0.03   0.00
     7   6    -0.00  -0.00  -0.00     0.00   0.02  -0.01    -0.02   0.01   0.01
     8   6     0.01   0.00  -0.01     0.01  -0.03  -0.03    -0.02  -0.03   0.01
     9   8     0.02   0.00  -0.00    -0.00  -0.00   0.00     0.00   0.00  -0.00
    10   6     0.02   0.02  -0.07    -0.01  -0.00   0.01     0.01  -0.00  -0.01
    11   6     0.01  -0.00   0.01     0.00  -0.00  -0.00    -0.01   0.01   0.01
    12   1     0.08  -0.01  -0.01     0.01   0.00  -0.00    -0.11  -0.00   0.01
    13   1    -0.05  -0.01   0.01     0.06   0.01  -0.01     0.01   0.01  -0.00
    14   1    -0.00  -0.01  -0.00    -0.01   0.06  -0.03     0.05   0.05   0.03
    15   1    -0.00  -0.04  -0.04    -0.13  -0.13   0.03     0.21  -0.02  -0.30
    16   1    -0.00   0.01   0.09     0.08  -0.09   0.16    -0.10   0.17   0.05
    17   1     0.08   0.03   0.02     0.04   0.09   0.01     0.29  -0.17   0.12
    18   1    -0.05   0.12   0.03    -0.13   0.37   0.53     0.10  -0.22   0.20
    19   1    -0.15  -0.05   0.12    -0.45  -0.04  -0.10     0.23   0.14  -0.44
    20   1     0.03  -0.12   0.00     0.44   0.18   0.10     0.09   0.50   0.03
    21   1    -0.07   0.31   0.57     0.02  -0.05  -0.08    -0.04   0.07   0.08
    22   1    -0.33  -0.42   0.36     0.06   0.06  -0.05    -0.10  -0.05   0.05
    23   1     0.07  -0.07  -0.05    -0.02   0.02   0.02     0.06  -0.07  -0.06
    24   1    -0.05  -0.12  -0.06     0.01   0.02   0.00    -0.03  -0.05   0.01
    25   1    -0.07   0.09  -0.05     0.00  -0.02   0.01     0.03   0.05  -0.03
                     52                     53                     54
                      A                      A                      A
 Frequencies --   1488.6408              1514.2723              1673.1739
 Red. masses --      1.0729                 2.9376                 8.3833
 Frc consts  --      1.4009                 3.9687                13.8276
 IR Inten    --     12.9693               480.1738               540.3624
  Atom  AN      X      Y      Z        X      Y      Z        X      Y      Z
     1   8     0.00  -0.01  -0.00     0.01   0.08   0.02     0.02  -0.12  -0.03
     2   6     0.01   0.01   0.00    -0.15  -0.07   0.01    -0.02   0.21   0.05
     3   6    -0.03  -0.00   0.00     0.33  -0.01  -0.05     0.08   0.01  -0.01
     4   7     0.01   0.00  -0.00    -0.10  -0.01   0.01    -0.44   0.13   0.09
     5   6     0.01   0.00   0.00    -0.08  -0.03  -0.00     0.54  -0.18  -0.12
     6   6    -0.01  -0.01   0.00     0.07   0.03   0.00    -0.05   0.03   0.02
     7   6    -0.00   0.00   0.00     0.00   0.00  -0.00     0.01  -0.01  -0.00
     8   6    -0.00  -0.00   0.00    -0.01  -0.00  -0.00    -0.02  -0.01  -0.00
     9   8     0.00   0.00  -0.00    -0.01   0.00  -0.00    -0.01  -0.02  -0.00
    10   6     0.03  -0.02  -0.01     0.07  -0.03  -0.01     0.00   0.01   0.00
    11   6     0.03  -0.02  -0.03    -0.01   0.00  -0.01    -0.00   0.00  -0.00
    12   1     0.07  -0.00  -0.01    -0.61   0.01   0.09     0.12  -0.01  -0.02
    13   1    -0.03   0.00   0.00     0.21   0.00  -0.02    -0.40  -0.21   0.03
    14   1     0.02   0.01   0.01    -0.11  -0.06  -0.07    -0.25  -0.20  -0.08
    15   1     0.04  -0.00  -0.05    -0.11   0.01   0.15     0.02   0.00   0.00
    16   1    -0.02   0.04   0.02     0.08  -0.15  -0.06    -0.03   0.07   0.04
    17   1     0.05  -0.03   0.02    -0.16   0.07  -0.05     0.02   0.03   0.00
    18   1     0.02  -0.04   0.01    -0.06   0.11  -0.03    -0.01   0.01   0.02
    19   1     0.03   0.02  -0.05    -0.07  -0.04   0.10     0.03  -0.01   0.02
    20   1    -0.00   0.05   0.00     0.03  -0.11   0.01     0.06   0.00   0.02
    21   1    -0.07   0.08   0.05    -0.14   0.20   0.13     0.06  -0.05  -0.07
    22   1    -0.10  -0.01  -0.01    -0.30  -0.02   0.02     0.06   0.04  -0.02
    23   1    -0.31   0.41   0.48    -0.05   0.08   0.12     0.05  -0.02   0.05
    24   1     0.11   0.31  -0.23     0.01   0.08  -0.10    -0.01  -0.04  -0.00
    25   1    -0.31  -0.35   0.27    -0.06  -0.10   0.08    -0.03  -0.00   0.01
                     55                     56                     57
                      A                      A                      A
 Frequencies --   1804.6200              2949.8966              2966.2963
 Red. masses --     11.3436                 1.0821                 1.0814
 Frc consts  --     21.7658                 5.5480                 5.6060
 IR Inten    --    704.0126               114.9214               135.0454
  Atom  AN      X      Y      Z        X      Y      Z        X      Y      Z
     1   8     0.08  -0.38  -0.09     0.00  -0.00  -0.00     0.00   0.00   0.00
     2   6    -0.31   0.67   0.19    -0.00   0.00   0.00     0.00  -0.00  -0.00
     3   6     0.13  -0.15  -0.05     0.00  -0.00  -0.00    -0.00   0.00   0.00
     4   7     0.17  -0.03  -0.03    -0.00   0.00   0.00     0.00  -0.00  -0.00
     5   6    -0.22   0.05   0.04     0.00   0.03   0.01     0.00  -0.07  -0.02
     6   6     0.03   0.01   0.00     0.02  -0.00  -0.07     0.01  -0.00  -0.03
     7   6    -0.01   0.00   0.00    -0.00  -0.00   0.00    -0.00  -0.00   0.00
     8   6     0.00  -0.00   0.00    -0.00   0.00   0.00    -0.00   0.00   0.00
     9   8     0.04  -0.04  -0.01     0.00   0.00  -0.00     0.00   0.00  -0.00
    10   6    -0.01   0.04   0.01     0.00   0.00  -0.00     0.00   0.00  -0.00
    11   6     0.00  -0.00  -0.01     0.00  -0.00   0.00     0.00  -0.00   0.00
    12   1     0.01  -0.16  -0.04    -0.00   0.00   0.00     0.01  -0.03  -0.01
    13   1     0.13   0.08  -0.00     0.01  -0.32  -0.07    -0.03   0.92   0.20
    14   1     0.00  -0.00  -0.02    -0.31  -0.00   0.88    -0.11  -0.00   0.31
    15   1    -0.02   0.01   0.01    -0.02   0.01  -0.01    -0.01   0.01  -0.01
    16   1     0.02  -0.04  -0.02     0.03   0.01  -0.00     0.03   0.02  -0.00
    17   1    -0.02   0.01   0.00     0.01   0.00  -0.03    -0.00   0.00   0.01
    18   1    -0.00   0.02  -0.01     0.02   0.02  -0.00     0.03   0.02  -0.01
    19   1     0.00  -0.00   0.00    -0.00  -0.02  -0.01    -0.00  -0.04  -0.01
    20   1    -0.01   0.00   0.00     0.01  -0.00  -0.04    -0.00   0.00   0.00
    21   1     0.11  -0.09  -0.11    -0.00  -0.00   0.00    -0.00  -0.00   0.00
    22   1     0.11   0.06  -0.00     0.00   0.00   0.00     0.00   0.00   0.00
    23   1     0.08  -0.03   0.09     0.00   0.00  -0.00     0.00   0.00  -0.00
    24   1    -0.02  -0.06   0.01    -0.00   0.00   0.00    -0.00   0.00   0.00
    25   1    -0.05   0.00   0.01    -0.00  -0.00  -0.00    -0.00  -0.00  -0.00
                     58                     59                     60
                      A                      A                      A
 Frequencies --   3027.8813              3043.4854              3044.9188
 Red. masses --      1.0365                 1.0553                 1.0415
 Frc consts  --      5.5989                 5.7592                 5.6895
 IR Inten    --     84.9712                89.7404                67.9167
  Atom  AN      X      Y      Z        X      Y      Z        X      Y      Z
     1   8    -0.00   0.00   0.00     0.00  -0.00  -0.00    -0.00   0.00   0.00
     2   6     0.00  -0.00  -0.00     0.00   0.00   0.00     0.00  -0.00  -0.00
     3   6    -0.00  -0.00  -0.00    -0.00  -0.00   0.00    -0.00  -0.00  -0.00
     4   7     0.00   0.00  -0.00     0.00   0.00  -0.00     0.00   0.00   0.00
     5   6     0.00   0.00   0.00    -0.00   0.00   0.00     0.00   0.00   0.00
     6   6     0.00  -0.00   0.00    -0.00   0.00   0.00    -0.00   0.00   0.00
     7   6     0.00   0.01   0.00    -0.00  -0.01  -0.00    -0.02  -0.05  -0.02
     8   6    -0.04   0.01  -0.02    -0.00   0.00  -0.00    -0.00   0.00  -0.00
     9   8    -0.00  -0.00   0.00    -0.00   0.00   0.00     0.00  -0.00  -0.00
    10   6    -0.00  -0.00   0.00    -0.03  -0.02   0.04     0.00   0.00  -0.00
    11   6    -0.00   0.00  -0.00     0.02  -0.01   0.01    -0.00   0.00  -0.00
    12   1     0.00   0.01   0.00     0.00   0.00   0.00     0.00   0.01   0.00
    13   1     0.00  -0.04  -0.01    -0.00  -0.00  -0.00    -0.00  -0.03  -0.01
    14   1     0.00   0.00  -0.02     0.00  -0.00  -0.00     0.01  -0.00  -0.03
    15   1     0.03  -0.02   0.02    -0.03   0.02  -0.03    -0.26   0.16  -0.20
    16   1    -0.08  -0.05   0.01     0.09   0.05  -0.01     0.68   0.38  -0.05
    17   1     0.02   0.00  -0.05    -0.02   0.00   0.06    -0.16   0.00   0.44
    18   1     0.61   0.31  -0.06     0.00   0.00  -0.00     0.06   0.03  -0.01
    19   1     0.03  -0.48  -0.15     0.00  -0.00   0.00     0.01  -0.06  -0.02
    20   1    -0.15   0.01   0.49    -0.00  -0.00   0.00    -0.02   0.00   0.07
    21   1     0.01   0.01  -0.00     0.46   0.55  -0.19    -0.05  -0.06   0.02
    22   1    -0.00  -0.01  -0.01    -0.05  -0.30  -0.33     0.00   0.03   0.03
    23   1    -0.00  -0.00   0.00     0.10   0.11  -0.03    -0.03  -0.03   0.01
    24   1     0.00  -0.00  -0.00    -0.34   0.14   0.08     0.07  -0.03  -0.02
    25   1     0.00   0.00   0.00    -0.01  -0.15  -0.19     0.00   0.04   0.05
                     61                     62                     63
                      A                      A                      A
 Frequencies --   3050.6500              3101.3165              3102.6778
 Red. masses --      1.0432                 1.1035                 1.0870
 Frc consts  --      5.7200                 6.2536                 6.1653
 IR Inten    --     90.1269                 5.1005                87.0208
  Atom  AN      X      Y      Z        X      Y      Z        X      Y      Z
     1   8     0.00  -0.00  -0.00    -0.00   0.00   0.00    -0.00   0.00   0.00
     2   6     0.00   0.00  -0.00     0.00  -0.00  -0.00    -0.01  -0.00   0.00
     3   6    -0.00   0.00   0.00     0.00   0.02   0.00    -0.00  -0.08  -0.02
     4   7     0.00   0.00  -0.00     0.00   0.00   0.00    -0.00  -0.00  -0.00
     5   6    -0.00  -0.00  -0.00    -0.00   0.00   0.00     0.00  -0.00  -0.00
     6   6     0.00  -0.00  -0.00     0.00  -0.00   0.00    -0.00   0.00  -0.00
     7   6     0.00   0.00   0.00     0.00  -0.00  -0.00    -0.00   0.00   0.00
     8   6     0.00  -0.00   0.00    -0.00  -0.00  -0.00     0.00   0.00   0.00
     9   8    -0.00   0.00   0.00     0.00  -0.00  -0.00     0.00   0.00  -0.00
    10   6    -0.02  -0.01   0.03    -0.03  -0.07  -0.04    -0.01  -0.02  -0.01
    11   6    -0.03   0.02  -0.03    -0.00   0.02   0.01    -0.00   0.01   0.00
    12   1     0.00  -0.00  -0.00    -0.02  -0.28  -0.06     0.07   0.93   0.19
    13   1    -0.00   0.00   0.00     0.00  -0.01  -0.00    -0.01   0.03   0.01
    14   1    -0.00  -0.00   0.01     0.00   0.00  -0.00    -0.00  -0.00   0.00
    15   1     0.01  -0.01   0.01    -0.00   0.00  -0.00     0.01  -0.01   0.01
    16   1    -0.03  -0.02   0.00    -0.00  -0.00   0.00     0.01   0.01  -0.00
    17   1     0.01  -0.00  -0.02    -0.00   0.00   0.00     0.01  -0.00  -0.02
    18   1    -0.01  -0.00   0.00     0.00   0.00  -0.00    -0.02  -0.01   0.00
    19   1    -0.00   0.01   0.00    -0.00   0.00   0.00     0.00  -0.01  -0.00
    20   1     0.00  -0.00  -0.01    -0.00  -0.00  -0.00     0.00   0.00  -0.00
    21   1     0.23   0.28  -0.10     0.30   0.37  -0.14     0.09   0.11  -0.04
    22   1    -0.03  -0.18  -0.21     0.08   0.50   0.60     0.02   0.15   0.18
    23   1    -0.24  -0.29   0.08    -0.05  -0.06   0.02    -0.02  -0.02   0.01
    24   1     0.55  -0.22  -0.12     0.11  -0.04  -0.02     0.04  -0.01  -0.01
    25   1     0.03   0.32   0.40    -0.01  -0.09  -0.11    -0.00  -0.03  -0.04
                     64                     65                     66
                      A                      A                      A
 Frequencies --   3109.6789              3125.4682              3134.6249
 Red. masses --      1.1019                 1.1035                 1.0998
 Frc consts  --      6.2780                 6.3512                 6.3668
 IR Inten    --     69.7163                34.8502                59.4717
  Atom  AN      X      Y      Z        X      Y      Z        X      Y      Z
     1   8    -0.00   0.00   0.00     0.00   0.00   0.00     0.00   0.00   0.00
     2   6     0.00  -0.00  -0.00    -0.00   0.00   0.00    -0.00  -0.00  -0.00
     3   6    -0.00  -0.00  -0.00     0.00  -0.00  -0.00    -0.00  -0.00  -0.00
     4   7     0.00   0.00  -0.00    -0.00   0.00   0.00     0.00   0.00   0.00
     5   6    -0.00   0.00  -0.00    -0.00  -0.00   0.00     0.00  -0.00  -0.00
     6   6    -0.00  -0.00   0.00     0.00  -0.00  -0.00     0.00   0.00  -0.00
     7   6     0.00   0.00  -0.00    -0.01  -0.00   0.01     0.07   0.01  -0.05
     8   6    -0.06  -0.07   0.02     0.03  -0.05  -0.07     0.01  -0.00  -0.01
     9   8    -0.00  -0.00   0.00     0.00   0.00   0.00     0.00   0.00   0.00
    10   6     0.00   0.00  -0.00    -0.00  -0.00  -0.00    -0.00  -0.00  -0.00
    11   6    -0.00   0.00   0.00    -0.00   0.00   0.00     0.01  -0.01  -0.01
    12   1     0.00   0.02   0.00     0.00   0.00   0.00     0.00   0.02   0.00
    13   1     0.00   0.00   0.00     0.00   0.01   0.00    -0.00   0.00   0.00
    14   1     0.01   0.00  -0.02    -0.01  -0.00   0.05    -0.02   0.00   0.04
    15   1    -0.01   0.00  -0.01     0.01  -0.01   0.01    -0.13   0.10  -0.13
    16   1    -0.02  -0.01   0.00     0.05   0.03  -0.00    -0.47  -0.27   0.03
    17   1    -0.02  -0.00   0.05     0.03   0.00  -0.09    -0.25   0.02   0.74
    18   1     0.63   0.31  -0.06    -0.08  -0.05  -0.00    -0.05  -0.02   0.00
    19   1    -0.06   0.54   0.17    -0.05   0.61   0.18    -0.00   0.04   0.01
    20   1     0.10  -0.02  -0.38    -0.21   0.00   0.72    -0.02  -0.00   0.09
    21   1    -0.00  -0.00   0.00     0.00   0.00  -0.00     0.01   0.01  -0.00
    22   1     0.00   0.00   0.00     0.00   0.00   0.00     0.00   0.02   0.02
    23   1     0.00   0.00  -0.00    -0.00  -0.00   0.00    -0.02  -0.02   0.00
    24   1     0.00  -0.00  -0.00     0.00  -0.00  -0.00    -0.10   0.04   0.02
    25   1    -0.00  -0.00  -0.00    -0.00  -0.00  -0.00     0.01   0.07   0.09
                     67                     68                     69
                      A                      A                      A
 Frequencies --   3134.7604              3169.5544              3176.7735
 Red. masses --      1.1023                 1.1008                 1.1033
 Frc consts  --      6.3821                 6.5158                 6.5604
 IR Inten    --     45.7438                13.6277                13.1752
  Atom  AN      X      Y      Z        X      Y      Z        X      Y      Z
     1   8     0.00  -0.00  -0.00    -0.00  -0.00  -0.00    -0.00   0.00  -0.00
     2   6     0.00   0.00   0.00     0.00   0.00   0.00     0.00  -0.00  -0.00
     3   6    -0.00   0.00   0.00     0.00   0.00   0.00    -0.00  -0.00   0.00
     4   7     0.00   0.00   0.00    -0.00  -0.00   0.00     0.00   0.00   0.00
     5   6    -0.00  -0.00   0.00    -0.00   0.00   0.00    -0.00  -0.00  -0.00
     6   6     0.00   0.00  -0.00     0.00  -0.00  -0.00     0.00   0.00  -0.00
     7   6     0.01   0.00  -0.01    -0.05   0.03  -0.07     0.00  -0.00   0.00
     8   6     0.00   0.00  -0.00     0.00   0.00  -0.00     0.00   0.00  -0.00
     9   8    -0.00  -0.00  -0.00    -0.00  -0.00   0.00     0.00   0.00   0.00
    10   6     0.00   0.01   0.01     0.00  -0.00  -0.00    -0.01  -0.01  -0.00
    11   6    -0.05   0.05   0.06    -0.00  -0.00  -0.00    -0.06  -0.07  -0.00
    12   1     0.00  -0.00  -0.00    -0.00  -0.01  -0.00     0.00   0.00   0.00
    13   1    -0.00   0.00   0.00     0.00  -0.00  -0.00    -0.00   0.00   0.00
    14   1    -0.00  -0.00   0.01    -0.01   0.00   0.02    -0.00  -0.00   0.00
    15   1    -0.02   0.02  -0.02     0.63  -0.42   0.50    -0.00   0.00  -0.00
    16   1    -0.08  -0.05   0.00     0.16   0.09  -0.02    -0.00  -0.00   0.00
    17   1    -0.04   0.00   0.12    -0.13   0.01   0.34     0.00   0.00   0.00
    18   1    -0.01  -0.00   0.00    -0.00  -0.00   0.00    -0.00  -0.00   0.00
    19   1    -0.00   0.00   0.00    -0.00  -0.00  -0.00     0.00   0.00   0.00
    20   1    -0.00  -0.00   0.01    -0.00  -0.00   0.01    -0.00   0.00   0.00
    21   1    -0.03  -0.04   0.01    -0.00  -0.00   0.00     0.05   0.07  -0.03
    22   1    -0.02  -0.12  -0.14     0.00   0.00   0.00     0.01   0.04   0.05
    23   1     0.09   0.13  -0.02     0.00   0.00  -0.00     0.55   0.67  -0.21
    24   1     0.58  -0.23  -0.12    -0.00   0.00   0.00     0.19  -0.09  -0.04
    25   1    -0.05  -0.44  -0.55     0.00   0.00   0.00     0.02   0.23   0.29

 -------------------
 - Thermochemistry -
 -------------------
 Temperature   298.150 Kelvin.  Pressure   1.00000 Atm.
 Atom     1 has atomic number  8 and mass  15.99491
 Atom     2 has atomic number  6 and mass  12.00000
 Atom     3 has atomic number  6 and mass  12.00000
 Atom     4 has atomic number  7 and mass  14.00307
 Atom     5 has atomic number  6 and mass  12.00000
 Atom     6 has atomic number  6 and mass  12.00000
 Atom     7 has atomic number  6 and mass  12.00000
 Atom     8 has atomic number  6 and mass  12.00000
 Atom     9 has atomic number  8 and mass  15.99491
 Atom    10 has atomic number  6 and mass  12.00000
 Atom    11 has atomic number  6 and mass  12.00000
 Atom    12 has atomic number  1 and mass   1.00783
 Atom    13 has atomic number  1 and mass   1.00783
 Atom    14 has atomic number  1 and mass   1.00783
 Atom    15 has atomic number  1 and mass   1.00783
 Atom    16 has atomic number  1 and mass   1.00783
 Atom    17 has atomic number  1 and mass   1.00783
 Atom    18 has atomic number  1 and mass   1.00783
 Atom    19 has atomic number  1 and mass   1.00783
 Atom    20 has atomic number  1 and mass   1.00783
 Atom    21 has atomic number  1 and mass   1.00783
 Atom    22 has atomic number  1 and mass   1.00783
 Atom    23 has atomic number  1 and mass   1.00783
 Atom    24 has atomic number  1 and mass   1.00783
 Atom    25 has atomic number  1 and mass   1.00783
 Molecular mass:   156.10245 amu.
 Principal axes and moments of inertia in atomic units:
                           1         2         3
     Eigenvalues --   500.220154902.738905163.58337
           X            0.99998  -0.00130   0.00585
           Y            0.00137   0.99991  -0.01324
           Z           -0.00584   0.01325   0.99990
 This molecule is an asymmetric top.
 Rotational symmetry number  1.
 Warning -- assumption of classical behavior for rotation
           may cause significant error
 Rotational temperatures (Kelvin)      0.17315     0.01767     0.01677
 Rotational constants (GHZ):           3.60789     0.36811     0.34951
 Zero-point vibrational energy     555708.8 (Joules/Mol)
                                  132.81760 (Kcal/Mol)
 Warning -- explicit consideration of  17 degrees of freedom as
           vibrations may cause significant error
 Vibrational temperatures:     46.87    72.45   100.66   122.70   200.89
          (Kelvin)            272.87   301.86   330.75   371.49   390.17
                              420.01   458.54   526.31   547.86   593.44
                              661.14   727.58   923.73  1010.84  1022.03
                             1103.99  1159.30  1209.21  1241.16  1303.38
                             1316.15  1375.32  1386.31  1443.12  1561.42
                             1588.28  1644.67  1670.76  1707.88  1717.24
                             1722.41  1824.37  1879.62  1914.87  1918.95
                             1931.78  1952.85  1978.34  2002.62  2037.58
                             2080.59  2085.63  2091.83  2101.42  2107.90
                             2121.43  2141.82  2178.70  2407.32  2596.45
                             4244.24  4267.84  4356.45  4378.90  4380.96
                             4389.20  4462.10  4464.06  4474.13  4496.85
                             4510.03  4510.22  4560.28  4570.67
 
 Zero-point correction=                           0.211658 (Hartree/Particle)
 Thermal correction to Energy=                    0.224415
 Thermal correction to Enthalpy=                  0.225360
 Thermal correction to Gibbs Free Energy=         0.171747
 Sum of electronic and zero-point Energies=           -517.658947
 Sum of electronic and thermal Energies=              -517.646189
 Sum of electronic and thermal Enthalpies=            -517.645245
 Sum of electronic and thermal Free Energies=         -517.698858
 
                     E (Thermal)             CV                S
                      KCal/Mol        Cal/Mol-Kelvin    Cal/Mol-Kelvin
 Total                  140.823             45.935            112.837
 Electronic               0.000              0.000              0.000
 Translational            0.889              2.981             41.045
 Rotational               0.889              2.981             30.916
 Vibrational            139.045             39.974             40.875
 Vibration     1          0.594              1.983              5.666
 Vibration     2          0.595              1.977              4.803
 Vibration     3          0.598              1.968              4.154
 Vibration     4          0.601              1.959              3.766
 Vibration     5          0.615              1.914              2.809
 Vibration     6          0.633              1.854              2.231
 Vibration     7          0.642              1.826              2.045
 Vibration     8          0.652              1.795              1.880
 Vibration     9          0.667              1.749              1.674
 Vibration    10          0.675              1.726              1.589
 Vibration    11          0.687              1.689              1.463
 Vibration    12          0.705              1.638              1.317
 Vibration    13          0.739              1.543              1.097
 Vibration    14          0.751              1.511              1.036
 Vibration    15          0.776              1.443              0.918
 Vibration    16          0.817              1.340              0.768
 Vibration    17          0.861              1.237              0.644
                       Q            Log10(Q)             Ln(Q)
 Total Bot       0.100423D-78        -78.998169       -181.900005
 Total V=0       0.227936D+19         18.357814         42.270428
 Vib (Bot)       0.102835D-92        -92.987858       -214.112456
 Vib (Bot)    1  0.635452D+01          0.803083          1.849166
 Vib (Bot)    2  0.410488D+01          0.613300          1.412176
 Vib (Bot)    3  0.294796D+01          0.469521          1.081112
 Vib (Bot)    4  0.241285D+01          0.382531          0.880810
 Vib (Bot)    5  0.145643D+01          0.163291          0.375991
 Vib (Bot)    6  0.105543D+01          0.023430          0.053949
 Vib (Bot)    7  0.946742D+00         -0.023768         -0.054728
 Vib (Bot)    8  0.856823D+00         -0.067109         -0.154524
 Vib (Bot)    9  0.752921D+00         -0.123251         -0.283795
 Vib (Bot)   10  0.712236D+00         -0.147376         -0.339345
 Vib (Bot)   11  0.654396D+00         -0.184159         -0.424042
 Vib (Bot)   12  0.590293D+00         -0.228932         -0.527136
 Vib (Bot)   13  0.499114D+00         -0.301800         -0.694920
 Vib (Bot)   14  0.474563D+00         -0.323707         -0.745362
 Vib (Bot)   15  0.428147D+00         -0.368407         -0.848288
 Vib (Bot)   16  0.370293D+00         -0.431455         -0.993461
 Vib (Bot)   17  0.323361D+00         -0.490312         -1.128986
 Vib (V=0)       0.233413D+05          4.368124         10.057978
 Vib (V=0)    1  0.687416D+01          0.837220          1.927769
 Vib (V=0)    2  0.463522D+01          0.666070          1.533683
 Vib (V=0)    3  0.349006D+01          0.542833          1.249918
 Vib (V=0)    4  0.296411D+01          0.471895          1.086578
 Vib (V=0)    5  0.203987D+01          0.309603          0.712886
 Vib (V=0)    6  0.166788D+01          0.222164          0.511551
 Vib (V=0)    7  0.157066D+01          0.196083          0.451498
 Vib (V=0)    8  0.149204D+01          0.173781          0.400145
 Vib (V=0)    9  0.140382D+01          0.147311          0.339197
 Vib (V=0)   10  0.137022D+01          0.136790          0.314970
 Vib (V=0)   11  0.132355D+01          0.121740          0.280317
 Vib (V=0)   12  0.127359D+01          0.105031          0.241842
 Vib (V=0)   13  0.120648D+01          0.081520          0.187708
 Vib (V=0)   14  0.118935D+01          0.075311          0.173411
 Vib (V=0)   15  0.115826D+01          0.063807          0.146921
 Vib (V=0)   16  0.112219D+01          0.050065          0.115280
 Vib (V=0)   17  0.109545D+01          0.039593          0.091167
 Electronic      0.100000D+01          0.000000          0.000000
 Translational   0.766599D+08          7.884568         18.154890
 Rotational      0.127386D+07          6.105121         14.057561
 ***** Axes restored to original set *****
 -------------------------------------------------------------------
 Center     Atomic                   Forces (Hartrees/Bohr)
 Number     Number              X              Y              Z
 -------------------------------------------------------------------
      1        8           0.000006005   -0.000028628   -0.000010226
      2        6           0.000012452    0.000054627    0.000025093
      3        6          -0.000005070   -0.000027236   -0.000006328
      4        7          -0.000003592    0.000015086   -0.000001038
      5        6           0.000002692   -0.000014107    0.000002485
      6        6           0.000009152    0.000004335   -0.000002397
      7        6          -0.000000441   -0.000004635   -0.000001160
      8        6          -0.000006090    0.000003851    0.000010533
      9        8          -0.000026821   -0.000007734   -0.000012608
     10        6           0.000018638   -0.000013929    0.000013817
     11        6          -0.000003952    0.000002172   -0.000006705
     12        1           0.000002963    0.000007171    0.000000089
     13        1          -0.000000025    0.000003944    0.000000921
     14        1          -0.000003015    0.000000256   -0.000001474
     15        1           0.000001224   -0.000000342   -0.000000641
     16        1          -0.000003383    0.000000746   -0.000001033
     17        1           0.000003082    0.000000877    0.000001847
     18        1          -0.000001908   -0.000001751   -0.000002370
     19        1           0.000000725    0.000001874   -0.000002310
     20        1           0.000002302   -0.000002647    0.000000655
     21        1          -0.000000845    0.000003118   -0.000002751
     22        1          -0.000004117    0.000002268   -0.000007110
     23        1          -0.000002485   -0.000001376   -0.000000284
     24        1           0.000002436   -0.000000872    0.000003767
     25        1           0.000000073    0.000002933   -0.000000772
 -------------------------------------------------------------------
 Cartesian Forces:  Max     0.000054627 RMS     0.000010520
 FormGI is forming the generalized inverse of G from B-inverse, IUseBI=4.

 GradGradGradGradGradGradGradGradGradGradGradGradGradGradGradGradGradGrad
 Berny optimization.
 Internal  Forces:  Max     0.000029717 RMS     0.000004820
 Search for a local minimum.
 Step number   1 out of a maximum of    2
 All quantities printed in internal units (Hartrees-Bohrs-Radians)
 Second derivative matrix not updated -- analytic derivatives used.
 ITU=  0
     Eigenvalues ---    0.00122   0.00270   0.00308   0.00339   0.00607
     Eigenvalues ---    0.01538   0.01575   0.01763   0.02058   0.02871
     Eigenvalues ---    0.03813   0.03992   0.04251   0.04304   0.04360
     Eigenvalues ---    0.04411   0.04476   0.04510   0.04712   0.05172
     Eigenvalues ---    0.05192   0.06268   0.07639   0.10049   0.11368
     Eigenvalues ---    0.11596   0.11848   0.11862   0.12295   0.12341
     Eigenvalues ---    0.12357   0.13076   0.13538   0.13919   0.14771
     Eigenvalues ---    0.16304   0.16904   0.17917   0.18053   0.19070
     Eigenvalues ---    0.20232   0.21232   0.24965   0.26946   0.29227
     Eigenvalues ---    0.30224   0.30522   0.30972   0.31383   0.31891
     Eigenvalues ---    0.33155   0.33284   0.33499   0.33517   0.33901
     Eigenvalues ---    0.34111   0.34255   0.34409   0.34488   0.34574
     Eigenvalues ---    0.34824   0.35325   0.35740   0.39813   0.43337
     Eigenvalues ---    0.51776   0.55592   0.71766   0.81779
 Angle between quadratic step and forces=  66.20 degrees.
 Linear search not attempted -- first point.
 Iteration  1 RMS(Cart)=  0.00012274 RMS(Int)=  0.00000001
 Iteration  2 RMS(Cart)=  0.00000001 RMS(Int)=  0.00000000
 Variable       Old X    -DE/DX   Delta X   Delta X   Delta X     New X
                                 (Linear)    (Quad)   (Total)
    R1        2.31680   0.00003   0.00000   0.00006   0.00006   2.31685
    R2        2.66539  -0.00001   0.00000  -0.00001  -0.00001   2.66538
    R3        2.66800  -0.00002   0.00000  -0.00011  -0.00011   2.66789
    R4        2.55503  -0.00000   0.00000  -0.00002  -0.00002   2.55501
    R5        2.07822   0.00001   0.00000   0.00003   0.00003   2.07826
    R6        2.42486  -0.00001   0.00000  -0.00001  -0.00001   2.42485
    R7        2.85735  -0.00000   0.00000  -0.00002  -0.00002   2.85733
    R8        2.10177   0.00000   0.00000   0.00002   0.00002   2.10178
    R9        2.88021   0.00000   0.00000   0.00001   0.00001   2.88023
   R10        2.89677   0.00001   0.00000   0.00003   0.00003   2.89680
   R11        2.09997   0.00000   0.00000   0.00001   0.00001   2.09998
   R12        2.07375   0.00000   0.00000   0.00000   0.00000   2.07375
   R13        2.08382   0.00000   0.00000   0.00001   0.00001   2.08382
   R14        2.07904   0.00000   0.00000   0.00001   0.00001   2.07905
   R15        2.08516   0.00000   0.00000   0.00001   0.00001   2.08517
   R16        2.08187   0.00000   0.00000   0.00000   0.00000   2.08188
   R17        2.08225   0.00000   0.00000   0.00000   0.00000   2.08225
   R18        2.64388   0.00001   0.00000   0.00006   0.00006   2.64394
   R19        2.87880   0.00000   0.00000   0.00000   0.00000   2.87880
   R20        2.08467   0.00000   0.00000  -0.00000  -0.00000   2.08467
   R21        2.08181  -0.00001   0.00000  -0.00003  -0.00003   2.08179
   R22        2.07448   0.00000   0.00000   0.00001   0.00001   2.07448
   R23        2.08236   0.00000   0.00000   0.00001   0.00001   2.08237
   R24        2.07938   0.00000   0.00000   0.00000   0.00000   2.07938
    A1        2.29087  -0.00000   0.00000  -0.00004  -0.00004   2.29083
    A2        2.06600  -0.00001   0.00000  -0.00000  -0.00000   2.06599
    A3        1.92631   0.00001   0.00000   0.00004   0.00004   1.92636
    A4        2.10696   0.00001   0.00000   0.00008   0.00008   2.10704
    A5        2.05947  -0.00001   0.00000  -0.00006  -0.00006   2.05941
    A6        2.11675  -0.00000   0.00000  -0.00002  -0.00002   2.11673
    A7        2.16635   0.00000   0.00000   0.00001   0.00001   2.16636
    A8        2.13650   0.00000   0.00000   0.00002   0.00002   2.13653
    A9        2.12187  -0.00000   0.00000  -0.00001  -0.00001   2.12186
   A10        2.02478  -0.00000   0.00000  -0.00001  -0.00001   2.02477
   A11        1.94273  -0.00000   0.00000   0.00000   0.00000   1.94273
   A12        1.93570  -0.00000   0.00000  -0.00000  -0.00000   1.93570
   A13        1.90175   0.00000   0.00000   0.00003   0.00003   1.90177
   A14        1.93965   0.00000   0.00000  -0.00000  -0.00000   1.93965
   A15        1.88188  -0.00000   0.00000  -0.00001  -0.00001   1.88187
   A16        1.85903  -0.00000   0.00000  -0.00002  -0.00002   1.85901
   A17        1.92839   0.00000   0.00000   0.00000   0.00000   1.92839
   A18        1.94131  -0.00000   0.00000  -0.00001  -0.00001   1.94130
   A19        1.91632  -0.00000   0.00000  -0.00002  -0.00002   1.91630
   A20        1.91686   0.00000   0.00000   0.00001   0.00001   1.91687
   A21        1.85353  -0.00000   0.00000  -0.00001  -0.00001   1.85352
   A22        1.90529   0.00000   0.00000   0.00003   0.00003   1.90533
   A23        1.95202  -0.00000   0.00000  -0.00003  -0.00003   1.95199
   A24        1.93758  -0.00000   0.00000  -0.00003  -0.00003   1.93755
   A25        1.91851  -0.00000   0.00000  -0.00001  -0.00001   1.91849
   A26        1.88458   0.00000   0.00000   0.00001   0.00001   1.88459
   A27        1.89195   0.00000   0.00000   0.00003   0.00003   1.89197
   A28        1.87694   0.00000   0.00000   0.00004   0.00004   1.87698
   A29        2.01403  -0.00001   0.00000  -0.00000  -0.00000   2.01403
   A30        1.95646  -0.00000   0.00000  -0.00004  -0.00004   1.95643
   A31        1.85543   0.00000   0.00000  -0.00002  -0.00002   1.85542
   A32        1.92513  -0.00000   0.00000  -0.00004  -0.00004   1.92509
   A33        1.92518  -0.00000   0.00000   0.00001   0.00001   1.92520
   A34        1.90322  -0.00000   0.00000  -0.00001  -0.00001   1.90322
   A35        1.89734   0.00000   0.00000   0.00009   0.00009   1.89743
   A36        1.89311  -0.00000   0.00000  -0.00002  -0.00002   1.89309
   A37        1.94251  -0.00001   0.00000  -0.00005  -0.00005   1.94246
   A38        1.92449   0.00000   0.00000   0.00001   0.00001   1.92450
   A39        1.90389   0.00000   0.00000   0.00002   0.00002   1.90391
   A40        1.90166   0.00000   0.00000   0.00003   0.00003   1.90169
   A41        1.89769   0.00000   0.00000   0.00002   0.00002   1.89771
    D1       -0.00708   0.00000   0.00000   0.00007   0.00007  -0.00701
    D2        3.13476   0.00000   0.00000   0.00007   0.00007   3.13482
    D3        3.13402  -0.00000   0.00000  -0.00006  -0.00006   3.13396
    D4       -0.00733  -0.00000   0.00000  -0.00006  -0.00006  -0.00739
    D5        0.01248  -0.00001   0.00000  -0.00029  -0.00029   0.01219
    D6       -3.12869   0.00000   0.00000  -0.00019  -0.00019  -3.12887
    D7       -3.13889  -0.00000   0.00000  -0.00003  -0.00003  -3.13891
    D8        0.00245  -0.00000   0.00000  -0.00003  -0.00003   0.00242
    D9        3.13623   0.00000   0.00000  -0.00001  -0.00001   3.13622
   D10        0.00356   0.00000   0.00000   0.00001   0.00001   0.00357
   D11        0.08564   0.00000   0.00000   0.00011   0.00011   0.08576
   D12        2.25482   0.00000   0.00000   0.00011   0.00011   2.25493
   D13       -1.98744  -0.00000   0.00000   0.00010   0.00010  -1.98734
   D14       -3.06440   0.00000   0.00000   0.00009   0.00009  -3.06431
   D15       -0.89523   0.00000   0.00000   0.00008   0.00008  -0.89514
   D16        1.14570  -0.00000   0.00000   0.00008   0.00008   1.14577
   D17       -0.96599  -0.00000   0.00000  -0.00009  -0.00009  -0.96608
   D18       -3.09965  -0.00000   0.00000  -0.00010  -0.00010  -3.09975
   D19        1.07272  -0.00000   0.00000  -0.00011  -0.00011   1.07261
   D20       -3.13292  -0.00000   0.00000  -0.00009  -0.00009  -3.13302
   D21        1.01659  -0.00000   0.00000  -0.00009  -0.00009   1.01650
   D22       -1.09421  -0.00000   0.00000  -0.00011  -0.00011  -1.09433
   D23        1.11896   0.00000   0.00000  -0.00006  -0.00006   1.11890
   D24       -1.01471   0.00000   0.00000  -0.00007  -0.00007  -1.01477
   D25       -3.12551   0.00000   0.00000  -0.00008  -0.00008  -3.12560
   D26        3.05183  -0.00000   0.00000  -0.00002  -0.00002   3.05181
   D27        0.94560   0.00000   0.00000   0.00001   0.00001   0.94560
   D28       -1.12887  -0.00000   0.00000  -0.00002  -0.00002  -1.12888
   D29       -1.06044  -0.00000   0.00000  -0.00002  -0.00002  -1.06046
   D30        3.11652   0.00000   0.00000   0.00000   0.00000   3.11652
   D31        1.04205  -0.00000   0.00000  -0.00002  -0.00002   1.04204
   D32        0.98485  -0.00000   0.00000  -0.00004  -0.00004   0.98481
   D33       -1.12138   0.00000   0.00000  -0.00002  -0.00002  -1.12139
   D34        3.08734  -0.00000   0.00000  -0.00004  -0.00004   3.08730
   D35        1.39644   0.00000   0.00000   0.00018   0.00018   1.39662
   D36       -2.78191  -0.00000   0.00000   0.00017   0.00017  -2.78175
   D37       -0.72794   0.00000   0.00000   0.00024   0.00024  -0.72769
   D38       -1.11907   0.00000   0.00000   0.00004   0.00004  -1.11904
   D39        3.06951   0.00000   0.00000   0.00006   0.00006   3.06957
   D40        0.96199   0.00000   0.00000   0.00006   0.00006   0.96205
   D41        3.10020   0.00000   0.00000   0.00007   0.00007   3.10027
   D42        1.00559   0.00000   0.00000   0.00009   0.00009   1.00569
   D43       -1.10193   0.00000   0.00000   0.00010   0.00010  -1.10183
   D44        1.01780  -0.00000   0.00000  -0.00004  -0.00004   1.01776
   D45       -1.07681  -0.00000   0.00000  -0.00002  -0.00002  -1.07683
   D46        3.09886  -0.00000   0.00000  -0.00002  -0.00002   3.09884
         Item               Value     Threshold  Converged?
 Maximum Force            0.000030     0.000450     YES
 RMS     Force            0.000005     0.000300     YES
 Maximum Displacement     0.000526     0.001800     YES
 RMS     Displacement     0.000123     0.001200     YES
 Predicted change in Energy=-7.180956D-09
 Optimization completed.
    -- Stationary point found.
                           ----------------------------
                           !   Optimized Parameters   !
                           ! (Angstroms and Degrees)  !
 --------------------------                            --------------------------
 ! Name  Definition              Value          Derivative Info.                !
 --------------------------------------------------------------------------------
 ! R1    R(1,2)                  1.226          -DE/DX =    0.0                 !
 ! R2    R(2,3)                  1.4105         -DE/DX =    0.0                 !
 ! R3    R(2,9)                  1.4118         -DE/DX =    0.0                 !
 ! R4    R(3,4)                  1.3521         -DE/DX =    0.0                 !
 ! R5    R(3,12)                 1.0997         -DE/DX =    0.0                 !
 ! R6    R(4,5)                  1.2832         -DE/DX =    0.0                 !
 ! R7    R(5,6)                  1.512          -DE/DX =    0.0                 !
 ! R8    R(5,13)                 1.1122         -DE/DX =    0.0                 !
 ! R9    R(6,7)                  1.5241         -DE/DX =    0.0                 !
 ! R10   R(6,8)                  1.5329         -DE/DX =    0.0                 !
 ! R11   R(6,14)                 1.1113         -DE/DX =    0.0                 !
 ! R12   R(7,15)                 1.0974         -DE/DX =    0.0                 !
 ! R13   R(7,16)                 1.1027         -DE/DX =    0.0                 !
 ! R14   R(7,17)                 1.1002         -DE/DX =    0.0                 !
 ! R15   R(8,18)                 1.1034         -DE/DX =    0.0                 !
 ! R16   R(8,19)                 1.1017         -DE/DX =    0.0                 !
 ! R17   R(8,20)                 1.1019         -DE/DX =    0.0                 !
 ! R18   R(9,10)                 1.3991         -DE/DX =    0.0                 !
 ! R19   R(10,11)                1.5234         -DE/DX =    0.0                 !
 ! R20   R(10,21)                1.1032         -DE/DX =    0.0                 !
 ! R21   R(10,22)                1.1016         -DE/DX =    0.0                 !
 ! R22   R(11,23)                1.0978         -DE/DX =    0.0                 !
 ! R23   R(11,24)                1.1019         -DE/DX =    0.0                 !
 ! R24   R(11,25)                1.1004         -DE/DX =    0.0                 !
 ! A1    A(1,2,3)              131.2574         -DE/DX =    0.0                 !
 ! A2    A(1,2,9)              118.3729         -DE/DX =    0.0                 !
 ! A3    A(3,2,9)              110.3697         -DE/DX =    0.0                 !
 ! A4    A(2,3,4)              120.7199         -DE/DX =    0.0                 !
 ! A5    A(2,3,12)             117.9992         -DE/DX =    0.0                 !
 ! A6    A(4,3,12)             121.2809         -DE/DX =    0.0                 !
 ! A7    A(3,4,5)              124.1225         -DE/DX =    0.0                 !
 ! A8    A(4,5,6)              122.4126         -DE/DX =    0.0                 !
 ! A9    A(4,5,13)             121.5744         -DE/DX =    0.0                 !
 ! A10   A(6,5,13)             116.0111         -DE/DX =    0.0                 !
 ! A11   A(5,6,7)              111.3102         -DE/DX =    0.0                 !
 ! A12   A(5,6,8)              110.9072         -DE/DX =    0.0                 !
 ! A13   A(5,6,14)             108.962          -DE/DX =    0.0                 !
 ! A14   A(7,6,8)              111.1338         -DE/DX =    0.0                 !
 ! A15   A(7,6,14)             107.8237         -DE/DX =    0.0                 !
 ! A16   A(8,6,14)             106.5144         -DE/DX =    0.0                 !
 ! A17   A(6,7,15)             110.4885         -DE/DX =    0.0                 !
 ! A18   A(6,7,16)             111.2289         -DE/DX =    0.0                 !
 ! A19   A(6,7,17)             109.7968         -DE/DX =    0.0                 !
 ! A20   A(15,7,16)            109.8282         -DE/DX =    0.0                 !
 ! A21   A(15,7,17)            106.1992         -DE/DX =    0.0                 !
 ! A22   A(16,7,17)            109.1654         -DE/DX =    0.0                 !
 ! A23   A(6,8,18)             111.8427         -DE/DX =    0.0                 !
 ! A24   A(6,8,19)             111.0149         -DE/DX =    0.0                 !
 ! A25   A(6,8,20)             109.9224         -DE/DX =    0.0                 !
 ! A26   A(18,8,19)            107.9785         -DE/DX =    0.0                 !
 ! A27   A(18,8,20)            108.4005         -DE/DX =    0.0                 !
 ! A28   A(19,8,20)            107.5407         -DE/DX =    0.0                 !
 ! A29   A(2,9,10)             115.3953         -DE/DX =    0.0                 !
 ! A30   A(9,10,11)            112.0971         -DE/DX =    0.0                 !
 ! A31   A(9,10,21)            106.3085         -DE/DX =    0.0                 !
 ! A32   A(9,10,22)            110.3018         -DE/DX =    0.0                 !
 ! A33   A(11,10,21)           110.3049         -DE/DX =    0.0                 !
 ! A34   A(11,10,22)           109.0466         -DE/DX =    0.0                 !
 ! A35   A(21,10,22)           108.7095         -DE/DX =    0.0                 !
 ! A36   A(10,11,23)           108.4674         -DE/DX =    0.0                 !
 ! A37   A(10,11,24)           111.2978         -DE/DX =    0.0                 !
 ! A38   A(10,11,25)           110.2654         -DE/DX =    0.0                 !
 ! A39   A(23,11,24)           109.085          -DE/DX =    0.0                 !
 ! A40   A(23,11,25)           108.9571         -DE/DX =    0.0                 !
 ! A41   A(24,11,25)           108.7299         -DE/DX =    0.0                 !
 ! D1    D(1,2,3,4)             -0.4057         -DE/DX =    0.0                 !
 ! D2    D(1,2,3,12)           179.6083         -DE/DX =    0.0                 !
 ! D3    D(9,2,3,4)            179.5661         -DE/DX =    0.0                 !
 ! D4    D(9,2,3,12)            -0.4198         -DE/DX =    0.0                 !
 ! D5    D(1,2,9,10)             0.7153         -DE/DX =    0.0                 !
 ! D6    D(3,2,9,10)          -179.2606         -DE/DX =    0.0                 !
 ! D7    D(2,3,4,5)           -179.8449         -DE/DX =    0.0                 !
 ! D8    D(12,3,4,5)             0.1405         -DE/DX =    0.0                 !
 ! D9    D(3,4,5,6)            179.693          -DE/DX =    0.0                 !
 ! D10   D(3,4,5,13)             0.2038         -DE/DX =    0.0                 !
 ! D11   D(4,5,6,7)              4.9071         -DE/DX =    0.0                 !
 ! D12   D(4,5,6,8)            129.1915         -DE/DX =    0.0                 !
 ! D13   D(4,5,6,14)          -113.8721         -DE/DX =    0.0                 !
 ! D14   D(13,5,6,7)          -175.5772         -DE/DX =    0.0                 !
 ! D15   D(13,5,6,8)           -51.2928         -DE/DX =    0.0                 !
 ! D16   D(13,5,6,14)           65.6437         -DE/DX =    0.0                 !
 ! D17   D(5,6,7,15)           -55.3469         -DE/DX =    0.0                 !
 ! D18   D(5,6,7,16)          -177.5971         -DE/DX =    0.0                 !
 ! D19   D(5,6,7,17)            61.4625         -DE/DX =    0.0                 !
 ! D20   D(8,6,7,15)          -179.5033         -DE/DX =    0.0                 !
 ! D21   D(8,6,7,16)            58.2465         -DE/DX =    0.0                 !
 ! D22   D(8,6,7,17)           -62.6939         -DE/DX =    0.0                 !
 ! D23   D(14,6,7,15)           64.1117         -DE/DX =    0.0                 !
 ! D24   D(14,6,7,16)          -58.1384         -DE/DX =    0.0                 !
 ! D25   D(14,6,7,17)         -179.0788         -DE/DX =    0.0                 !
 ! D26   D(5,6,8,18)           174.8567         -DE/DX =    0.0                 !
 ! D27   D(5,6,8,19)            54.1788         -DE/DX =    0.0                 !
 ! D28   D(5,6,8,20)           -64.6793         -DE/DX =    0.0                 !
 ! D29   D(7,6,8,18)           -60.7586         -DE/DX =    0.0                 !
 ! D30   D(7,6,8,19)           178.5635         -DE/DX =    0.0                 !
 ! D31   D(7,6,8,20)            59.7053         -DE/DX =    0.0                 !
 ! D32   D(14,6,8,18)           56.4277         -DE/DX =    0.0                 !
 ! D33   D(14,6,8,19)          -64.2502         -DE/DX =    0.0                 !
 ! D34   D(14,6,8,20)          176.8917         -DE/DX =    0.0                 !
 ! D35   D(2,9,10,11)           80.01           -DE/DX =    0.0                 !
 ! D36   D(2,9,10,21)         -159.3918         -DE/DX =    0.0                 !
 ! D37   D(2,9,10,22)          -41.7077         -DE/DX =    0.0                 !
 ! D38   D(9,10,11,23)         -64.1181         -DE/DX =    0.0                 !
 ! D39   D(9,10,11,24)         175.8698         -DE/DX =    0.0                 !
 ! D40   D(9,10,11,25)          55.1177         -DE/DX =    0.0                 !
 ! D41   D(21,10,11,23)        177.6284         -DE/DX =    0.0                 !
 ! D42   D(21,10,11,24)         57.6162         -DE/DX =    0.0                 !
 ! D43   D(21,10,11,25)        -63.1359         -DE/DX =    0.0                 !
 ! D44   D(22,10,11,23)         58.3157         -DE/DX =    0.0                 !
 ! D45   D(22,10,11,24)        -61.6964         -DE/DX =    0.0                 !
 ! D46   D(22,10,11,25)        177.5515         -DE/DX =    0.0                 !
 --------------------------------------------------------------------------------
 GradGradGradGradGradGradGradGradGradGradGradGradGradGradGradGradGradGrad


 ----------------------------------------------------------------------

 Electric dipole moment (input orientation):
 (Debye = 10**-18 statcoulomb cm , SI units = C m)
                  (au)            (Debye)         (10**-30 SI)
   Tot        0.474107D+00      0.120506D+01      0.401965D+01
   x         -0.264831D+00     -0.673133D+00     -0.224533D+01
   y          0.385930D+00      0.980936D+00      0.327205D+01
   z         -0.754981D-01     -0.191897D+00     -0.640099D+00

 Dipole polarizability, Alpha (input orientation).
 (esu units = cm**3 , SI units = C**2 m**2 J**-1)
 Alpha(0;0):
               (au)            (10**-24 esu)      (10**-40 SI)
   iso        0.126207D+03      0.187019D+02      0.208087D+02
   aniso      0.115175D+03      0.170671D+02      0.189897D+02
   xx         0.200144D+03      0.296583D+02      0.329993D+02
   yx        -0.140150D+02     -0.207682D+01     -0.231077D+01
   yy         0.998468D+02      0.147958D+02      0.164625D+02
   zx         0.274917D+01      0.407385D+00      0.453277D+00
   zy         0.227344D+01      0.336889D+00      0.374839D+00
   zz         0.786298D+02      0.116517D+02      0.129643D+02

 ----------------------------------------------------------------------

 Dipole orientation:
     8          1.14158141         -0.22318369         -3.70109634
     6          1.75010371         -1.21600132         -1.69820881
     6          0.80344827         -0.90950511          0.77448140
     7         -1.10156108          0.72559074          1.24941682
     6         -2.05209816          1.10519158          3.44766960
     6         -4.17564375          2.96318445          3.89804695
     6         -5.12726071          4.08545279          1.42204976
     6         -6.33418265          1.72618833          5.38189754
     8          3.73387988         -2.99994780         -1.71864686
     6          4.84278675         -3.43554379         -4.07887789
     6          6.74035258         -1.38682991         -4.77853367
     1          1.66143294         -2.03758182          2.29445651
     1         -1.34217255          0.08784465          5.14426541
     1         -3.46166071          4.54056693          5.08631456
     1         -3.56414179          4.95039846          0.36897950
     1         -6.62035952          5.49943693          1.75908317
     1         -5.87927872          2.57501446          0.20736119
     1         -7.82278417          3.10006620          5.87628782
     1         -5.63397913          0.87417446          7.14767723
     1         -7.19358272          0.20517985          4.24888552
     1          5.79250308         -5.28661044         -3.94679355
     1          3.37969946         -3.53955890         -5.55620692
     1          5.72421085          0.41122909         -4.97322589
     1          7.69885867         -1.82514909         -6.57445893
     1          8.17499568         -1.19378467         -3.28577036

 Electric dipole moment (dipole orientation):
 (Debye = 10**-18 statcoulomb cm , SI units = C m)
                  (au)            (Debye)         (10**-30 SI)
   Tot        0.474107D+00      0.120506D+01      0.401965D+01
   x          0.000000D+00      0.000000D+00      0.000000D+00
   y          0.000000D+00      0.000000D+00      0.000000D+00
   z          0.474107D+00      0.120506D+01      0.401965D+01

 Dipole polarizability, Alpha (dipole orientation).
 (esu units = cm**3 , SI units = C**2 m**2 J**-1)
 Alpha(0;0):
               (au)            (10**-24 esu)      (10**-40 SI)
   iso        0.126207D+03      0.187019D+02      0.208087D+02
   aniso      0.115175D+03      0.170671D+02      0.189897D+02
   xx         0.135522D+03      0.200823D+02      0.223446D+02
   yx        -0.330698D+02     -0.490043D+01     -0.545247D+01
   yy         0.998500D+02      0.147962D+02      0.164630D+02
   zx        -0.487376D+02     -0.722216D+01     -0.803574D+01
   zy         0.204164D+02      0.302539D+01      0.336620D+01
   zz         0.143249D+03      0.212273D+02      0.236185D+02

 ----------------------------------------------------------------------
 Unable to Open any file for archive entry.
 1\1\GINC-NOTCH108\Freq\RM062X\def2SVP\C8H14N1O2(1-)\U6067110\18-Jul-20
 25\0\\#N Geom=AllCheck Guess=TCheck SCRF=Check GenChk RM062X/def2SVP F
 req\\A18_crest_conformers_censo-18\\-1,1\O,1.581841293,-1.306730071,0.
 0705776621\C,1.4312176584,-0.0925902905,0.1495885428\C,0.2705779454,0.
 7065665137,0.0890195186\N,-0.9459467196,0.1450600435,-0.0922260537\C,-
 2.0421398189,0.8086221456,-0.1600119137\C,-3.3821881836,0.1406459102,-
 0.3706050156\C,-3.2512758336,-1.3778502665,-0.3640937429\C,-4.39884959
 21,0.6122202857,0.6752486707\O,2.5747548243,0.7147882888,0.3333704211\
 C,3.7916986013,0.0270187383,0.3921132174\C,4.3071448798,-0.3449431932,
 -0.9923349115\H,0.3872525901,1.7951306024,0.1932489692\H,-2.0579173704
 ,1.9174327736,-0.0745984428\H,-3.7847102252,0.4431045456,-1.36125579\H
 ,-2.5150007495,-1.7031059521,-1.1099827704\H,-4.221839044,-1.863135199
 8,-0.560230726\H,-2.8695489187,-1.7147609249,0.611189597\H,-5.40586242
 79,0.2047436937,0.4817983289\H,-4.4731545017,1.7113333047,0.6864874183
 \H,-4.0806010397,0.290600096,1.6799438443\H,4.5041667066,0.7006804426,
 0.8976154295\H,3.6841359718,-0.8894561427,0.9938874048\H,3.5984960578,
 -1.0473443625,-1.4500929787\H,5.299682686,-0.8202339071,-0.9355144196\
 H,4.3806652104,0.5520929258,-1.6253522598\\Version=ES64L-G16RevC.01\St
 ate=1-A\HF=-517.8706049\RMSD=1.003e-09\RMSF=1.052e-05\ZeroPoint=0.2116
 583\Thermal=0.2244154\ETot=-517.6461895\HTot=-517.6452453\GTot=-517.69
 88577\Dipole=-0.264831,0.3859301,-0.0754981\DipoleDeriv=-1.1504914,0.2
 035911,0.0072519,1.1789923,-1.4908216,-0.0066727,0.0556355,-0.0596143,
 -0.4041256,3.4833875,-0.4603567,0.1163065,-1.1165075,1.5884715,0.02820
 22,0.2087784,0.0406542,0.2503928,-2.4492588,0.5743409,-0.0459087,0.033
 0677,0.1697954,0.0522866,-0.2200944,0.1151815,-0.4053649,2.0675192,-0.
 3000364,0.1162792,0.101359,-0.7357405,-0.0361689,0.2340623,-0.0901855,
 -0.1268467,-1.0145138,0.1064389,-0.0085166,0.6436467,0.5073883,0.06684
 25,0.1592855,0.0650104,-0.2861098,0.4038495,-0.0541935,0.020331,0.1355
 859,0.0117206,0.0055208,0.0387888,-0.014182,0.2718289,0.048871,0.06035
 91,0.0526178,0.0969437,-0.0112714,-0.0061819,0.0657907,-0.037333,0.019
 2652,0.0299188,0.047202,0.0592433,-0.0642923,0.0791964,-0.0353223,0.01
 54895,-0.0137718,0.0451788,-2.5255847,0.0547861,-0.0464854,-0.4639075,
 -0.5949433,-0.0797846,-0.1965671,-0.0314447,-0.3853159,1.2207653,-0.10
 60727,-0.0097916,-0.3748746,0.3866553,0.0620371,-0.032191,0.0870704,0.
 4368264,-0.0464766,-0.0513482,0.0094873,0.0061384,0.0423539,-0.0819678
 ,0.0912301,-0.1175967,-0.1293187,-0.0424446,0.015579,-0.0166657,-0.116
 1198,-0.2266228,-0.0394941,-0.0266008,-0.0254476,0.1323933,-0.0949215,
 -0.0468916,-0.019533,0.0201519,-0.3362994,-0.0262276,-0.0509229,-0.039
 1489,0.0979591,-0.2994296,0.0481116,-0.103958,-0.0440551,-0.0341464,0.
 0594259,-0.204263,0.0589519,-0.2312011,0.0348786,0.0754636,0.0769366,0
 .0502483,0.016788,-0.0290162,0.0704087,-0.0379416,-0.0185474,-0.210629
 9,-0.1547662,-0.0528362,-0.1307945,-0.0452827,-0.0174553,-0.0503064,-0
 .0195989,0.043151,0.0639354,0.0363802,-0.0444919,0.01522,0.0173152,0.0
 214285,-0.0316358,0.0722791,-0.0933188,-0.353333,-0.0555575,0.0016533,
 -0.1068237,0.0133728,-0.0153422,-0.0441203,-0.0279818,0.0235796,0.0678
 813,0.0115238,0.0161834,0.0613421,-0.1947278,-0.0348307,0.0005857,-0.0
 028608,0.0323283,0.0616183,0.0210857,-0.0662245,0.0131389,0.0304097,0.
 067784,0.0011566,0.0333378,-0.1329279,-0.2256353,-0.0721722,-0.079872,
 -0.1274217,-0.0579186,-0.1173552,-0.0743399,-0.086611,-0.0622964,0.015
 1861,-0.0152882,0.0356082,0.1444293,-0.0719781,0.0939711,0.0375059,0.0
 562556,-0.0781131,0.1080735,-0.0617542,-0.060741,-0.0397898,0.0113995,
 -0.051958,-0.1034414,-0.0119168,0.0242225,-0.2453198,0.1177304,0.02407
 66,0.1317818,0.0096138,-0.001733,0.0139186,0.0150774,0.0292719,0.05215
 45,0.0058448,0.0190496,-0.0474594,-0.0847278,0.1220117,0.0418468,0.071
 8171,-0.0529116\Polar=200.1442605,-14.0150483,99.8468257,2.7491716,2.2
 734367,78.6298037\Quadrupole=-8.7528381,2.1276182,6.6252199,1.10376,0.
 5733251,-0.4967707\PG=C01 [X(C8H14N1O2)]\NImag=0\\0.12636549,-0.067939
 69,0.77059942,0.00369040,0.04871941,0.04341275,-0.12660238,0.07855654,
 0.00202699,0.61324573,0.08215658,-0.64045872,-0.03249209,-0.19581367,0
 .93334023,0.00115836,-0.03535269,-0.08407103,0.02736157,0.03574740,0.2
 1576534,-0.00131595,0.04843935,0.00127502,-0.22510478,0.09007339,-0.01
 039966,0.70761090,0.03866375,-0.04942972,-0.00113545,0.14322615,-0.188
 13364,0.00476828,-0.03046638,0.67636219,0.00072963,-0.00009132,0.01937
 209,-0.00590962,-0.00135086,-0.05953061,0.06584622,0.04627331,0.093897
 63,0.01060479,-0.03191879,-0.00129515,-0.09317808,0.02911501,-0.006096
 94,-0.24922291,-0.12657139,-0.03275928,0.80686080,0.00252309,0.0001010
 6,0.00025806,0.00461681,0.01302109,0.00327392,-0.09530906,-0.14801768,
 -0.01860938,-0.10321805,0.39450833,0.00138826,-0.00319962,-0.00010286,
 -0.00793825,0.00554391,-0.01689161,-0.03046250,-0.02227658,-0.05825005
 ,0.07298793,0.01311925,0.10424745,-0.00325866,0.01517652,0.00094010,0.
 02628545,-0.02612503,-0.00003108,-0.11501404,0.02368843,-0.01237485,-0
 .41057857,0.19138031,-0.02465365,0.77173444,0.00159886,-0.00458123,-0.
 00007568,-0.01029580,0.00694452,-0.00140257,0.00712917,0.00273814,-0.0
 0033976,0.20593008,-0.22758693,0.00935029,-0.12262445,0.63066185,0.000
 33360,0.00004092,-0.00113677,-0.00108734,-0.00125220,0.00778095,-0.009
 81572,0.00201188,0.01197094,-0.02820703,0.00762074,-0.05550525,0.06361
 734,0.02679801,0.13738339,0.00102600,-0.00329624,-0.00016409,-0.005628
 75,0.00398203,-0.00037303,0.01192616,0.00074183,0.00082496,-0.05698798
 ,0.00083383,-0.00668527,-0.16503757,-0.05939618,-0.02326163,0.50013203
 ,0.00062289,-0.00287845,-0.00013986,-0.00407820,0.00458034,-0.00016912
 ,0.01088460,-0.00090788,0.00034357,0.00443558,0.01381481,0.00259664,-0
 .05305430,-0.12413984,-0.01315173,-0.01180177,0.52068090,0.00031387,-0
 .00060457,-0.00027649,-0.00136100,0.00058354,0.00226930,0.00050903,-0.
 00103665,0.01314582,-0.00359135,0.00219602,-0.01361335,-0.01778385,-0.
 00968060,-0.06654582,0.03241280,-0.02024203,0.53262906,-0.00027065,0.0
 0114604,0.00012772,0.00123508,-0.00125252,-0.00000683,-0.00161560,-0.0
 0050846,-0.00034211,0.00082507,-0.00308418,0.00036149,0.00218876,-0.03
 271991,-0.00022842,-0.08049658,0.01110984,-0.00005361,0.59101938,0.000
 11767,-0.00058682,-0.00003731,-0.00083291,0.00089412,-0.00000143,0.001
 95232,0.00005972,0.00007552,0.00075692,-0.00242940,-0.00006890,-0.0071
 6907,-0.02279382,-0.00132256,0.01325649,-0.21043255,0.00179335,0.00696
 080,0.48627360,-0.00002370,-0.00004311,-0.00019590,-0.00010831,0.00013
 400,-0.00006848,0.00038912,-0.00019595,-0.00012989,-0.00068534,-0.0012
 2985,-0.00237154,-0.00034480,-0.00574634,0.00103151,-0.00060452,0.0060
 6628,-0.07757930,-0.00603438,0.00580371,0.58014851,-0.00023533,0.00090
 883,0.00005708,0.00133154,-0.00124536,-0.00041532,-0.00248377,0.000131
 57,-0.00236141,-0.00012110,-0.00276098,0.00387439,-0.03117647,0.009331
 76,0.01922595,-0.12262361,0.02481683,0.05757377,-0.00337085,0.00396692
 ,0.00290674,0.52869261,-0.00037785,0.00155895,0.00014024,0.00207011,-0
 .00203303,-0.00023338,-0.00337039,0.00037455,-0.00127640,0.00154505,-0
 .00099199,0.00116932,-0.00766431,0.00714878,0.00916878,0.02060667,-0.0
 8887853,-0.02319730,0.02573825,-0.01543891,-0.02636060,0.01979112,0.56
 854659,-0.00023864,0.00068217,0.00000450,0.00091551,-0.00084155,-0.000
 07314,-0.00112153,0.00018606,-0.00073618,-0.00236799,0.00023051,-0.000
 23172,0.00262568,0.00391867,0.00568327,0.05402039,-0.02805018,-0.13658
 647,0.00122020,-0.00334124,-0.00138692,0.04862195,-0.02173643,0.522031
 96,0.00552582,-0.05394648,-0.00836888,-0.14517100,-0.01683432,-0.00856
 017,-0.07075704,-0.02828050,-0.01112648,0.01094655,0.00744607,0.001214
 97,-0.00952635,0.00140446,0.00009423,0.00201364,0.00227973,0.00062568,
 -0.00052011,0.00042704,0.00003982,-0.00067586,-0.00109836,-0.00060045,
 0.50257769,-0.05273144,-0.07026630,-0.01235663,0.00180009,-0.12955743,
 -0.00427099,-0.00169043,0.01422689,0.00024636,0.00938103,0.00180289,0.
 00053905,-0.00210190,0.00056358,0.00016426,0.00060694,0.00041891,0.000
 15593,-0.00004386,0.00010585,0.00001737,-0.00012180,-0.00024024,-0.000
 11870,-0.05014187,0.33972156,-0.00680215,-0.01193221,0.01972974,-0.010
 31954,-0.00939748,-0.05716576,-0.00881527,-0.00250352,0.01032740,0.001
 54389,0.00041600,0.00551976,-0.00114068,0.00029633,-0.00055148,0.00029
 664,0.00028964,-0.00061484,-0.00006030,0.00006250,0.00002853,0.0000454
 9,-0.00006314,-0.00004894,0.03625164,0.01632196,0.07793171,0.00066914,
 0.01476765,0.00012772,-0.07073146,-0.00255523,-0.00881594,0.00875291,-
 0.00282755,0.00094648,-0.00650304,0.00016023,-0.00079449,0.00329492,-0
 .00125306,-0.00011780,-0.00091237,-0.00072467,-0.00023368,0.00022422,-
 0.00014441,-0.00002212,0.00022630,0.00039496,0.00019556,-0.20836999,0.
 06072952,-0.01142893,0.55121098,-0.00056482,-0.01334646,-0.00186950,-0
 .00315044,0.03736663,0.00219905,-0.00487436,-0.00458397,-0.00119481,0.
 00013040,0.00089976,0.00001477,-0.00124832,0.00024783,-0.00002322,0.00
 027958,0.00032982,0.00012441,-0.00009875,0.00005608,-0.00000922,-0.000
 10614,-0.00016728,-0.00009871,0.08116815,-0.15013833,0.00555727,0.0615
 2810,0.60174320,-0.00210048,0.00161515,-0.00472860,-0.00991202,0.00076
 967,-0.00366479,-0.00004430,-0.00103872,0.00133596,-0.00103105,-0.0000
 6500,0.00238790,0.00017585,-0.00007185,-0.00021347,-0.00002592,-0.0000
 1331,-0.00032530,0.00000637,-0.00000443,0.00002371,0.00007622,0.000041
 86,0.00002855,-0.00804356,0.00079274,-0.06666811,0.03578087,-0.0180445
 0,0.53123041,-0.00060592,-0.00177832,0.00093986,0.00342093,0.00418170,
 0.00343856,-0.00175980,-0.00039766,-0.00069101,0.00101750,0.00016048,-
 0.00034150,-0.00057344,0.00018156,0.00004897,0.00013017,0.00012226,0.0
 0010243,-0.00003918,0.00002254,0.00000441,-0.00005101,-0.00006898,-0.0
 0003440,-0.03022585,0.01704118,0.03237317,-0.08404460,0.00303356,0.027
 41327,0.58085092,0.00040704,0.00141253,-0.00187781,-0.00274757,-0.0012
 8105,-0.00010113,0.00078803,0.00023811,0.00056430,-0.00039960,-0.00015
 170,0.00017719,0.00025645,-0.00003094,-0.00000902,-0.00005501,-0.00006
 129,-0.00005731,0.00001344,-0.00001140,0.00000641,0.00002625,0.0000337
 0,0.00001998,0.01963039,-0.00564060,-0.01656885,0.00215502,-0.08595501
 ,-0.02335623,0.01064583,0.58023741,0.00097903,-0.00162212,-0.00170096,
 0.00129911,0.00276510,0.00089015,0.00011669,-0.00033729,-0.00024453,-0
 .00020251,0.00003137,-0.00007335,0.00003656,-0.00003486,-0.00000228,-0
 .00002704,-0.00001469,0.00000550,0.00000864,-0.00000426,-0.00000407,0.
 00000240,0.00001248,0.00000473,0.00504220,-0.00396402,0.00745004,0.034
 34125,-0.02615098,-0.20290317,0.03224217,-0.02341940,0.50056447,-0.005
 31851,0.00312699,-0.00105218,0.00717565,0.02251884,0.00317506,-0.05342
 874,-0.02030999,-0.00528601,-0.01372371,-0.03078105,-0.00532751,0.0070
 9892,-0.00738747,0.00075241,-0.00052367,0.00056130,-0.00000847,0.00001
 206,-0.00000557,-0.00008546,-0.00008978,-0.00002446,-0.00006945,-0.001
 73983,0.00047128,-0.00005857,0.00011559,-0.00031165,0.00016288,0.00007
 672,0.00000007,0.00002569,0.05952306,0.00448990,-0.00040089,-0.0001564
 8,-0.01061035,-0.01685727,-0.00206760,-0.01225184,-0.30745556,-0.02543
 279,-0.01269917,-0.01650582,-0.00371324,0.00455226,0.00234255,0.001197
 56,-0.00048515,0.00030475,0.00003356,0.00019812,0.00009609,-0.00003439
 ,-0.00008788,-0.00015871,-0.00016002,0.00005505,0.00200062,0.00025862,
 0.00041908,0.00030539,0.00017591,-0.00007349,-0.00001240,-0.00001047,0
 .02929330,0.33479797,-0.00094523,-0.00025908,0.00668494,0.00039317,0.0
 0149934,-0.00548111,-0.00473832,-0.02636470,-0.02226528,-0.00360880,-0
 .00582270,0.00980069,0.00174915,-0.00010071,-0.00530951,-0.00016371,0.
 00011693,0.00029500,-0.00002529,-0.00002399,0.00012481,-0.00010157,-0.
 00002537,0.00004813,-0.00004481,0.00031431,-0.00098247,0.00014800,0.00
 009647,-0.00073904,0.00017028,-0.00017351,0.00004923,0.00722596,0.0299
 6519,0.01930296,-0.00049354,0.00001049,-0.00006047,0.00070808,-0.00048
 330,0.00002887,0.00527177,0.00549982,0.00202710,-0.00638553,0.03521819
 ,-0.00054183,-0.05546815,-0.00822026,-0.00314750,0.00074038,-0.0240366
 7,-0.00031415,-0.00484699,-0.00088076,-0.00086743,0.00155799,-0.001202
 86,-0.00091681,-0.00061533,-0.00014251,-0.00007894,0.00015195,-0.00009
 549,-0.00001465,-0.00001877,0.00001444,0.00000286,0.00069257,-0.002491
 74,-0.00000953,0.05845512,0.00041348,0.00076146,0.00010673,-0.00016720
 ,-0.00087199,-0.00016731,-0.00742126,0.00327831,0.00025923,0.01824297,
 -0.03008335,-0.00235381,-0.01148030,-0.27296706,-0.01941057,0.00378913
 ,-0.01305197,-0.00079302,-0.00295206,0.00077055,-0.00091730,0.00113922
 ,-0.00013329,-0.00040592,0.00082696,0.00014309,0.00007772,-0.00019380,
 0.00010003,-0.00000122,0.00002913,-0.00003563,0.00000915,0.00257757,0.
 00102621,0.00054767,-0.00318231,0.31091379,-0.00008722,0.00026938,0.00
 014849,0.00034932,-0.00044628,0.00024231,0.00050565,0.00162362,-0.0090
 8388,-0.00109565,-0.00053192,0.02355894,-0.00420853,-0.01916106,-0.036
 86084,0.00116172,-0.00481860,0.00129367,-0.00085583,0.00003653,0.00111
 101,-0.00077728,0.00026289,0.00031914,-0.00015917,-0.00002536,0.000032
 77,0.00007600,-0.00006093,0.00009320,-0.00003044,0.00001670,-0.0000027
 0,0.00043447,-0.00011403,-0.00135173,0.00404235,0.02259590,0.02058536,
 -0.00085831,0.00253099,0.00012945,0.00408360,-0.00337922,0.00064232,-0
 .00723615,-0.00016685,0.00175731,0.00574255,-0.00271983,-0.00408587,-0
 .01936676,0.00986750,-0.02253074,-0.07003250,0.02545061,-0.07852009,-0
 .00140691,0.00007045,-0.00173834,0.00553146,-0.00536955,0.02139532,-0.
 00204350,-0.00045478,-0.00037363,0.00076814,-0.00029383,-0.00006746,-0
 .00010031,0.00005345,0.00002690,-0.00006522,-0.00023249,0.00006031,0.0
 0037777,-0.00090286,0.00088278,0.08490882,-0.00021073,0.00111980,-0.00
 000708,0.00139723,-0.00152466,0.00036582,-0.00299685,-0.00001297,0.000
 47666,0.00317637,-0.00072455,-0.00116367,-0.00766989,0.00644164,-0.011
 26144,0.02184895,-0.06436864,0.05670820,0.01184681,-0.01122231,0.02974
 581,-0.00210340,0.00238761,-0.01063255,-0.00065343,-0.00014656,-0.0001
 4938,0.00024130,-0.00010220,-0.00001090,-0.00003280,0.00001747,0.00000
 728,0.00002853,-0.00001584,-0.00009521,0.00065811,-0.00017194,0.000704
 34,-0.02610337,0.07204808,-0.00045772,0.00111163,0.00007988,0.00202178
 ,-0.00144319,0.00012723,-0.00297224,0.00004682,-0.00024582,0.00271400,
 -0.00104903,-0.00092124,-0.00614538,0.00036729,0.00101959,-0.07172319,
 0.06067638,-0.23480359,0.00002305,-0.00055114,0.00014997,-0.00641838,0
 .00630547,-0.02399815,-0.00099050,-0.00021575,-0.00010478,0.00038503,-
 0.00014057,-0.00002082,-0.00005235,0.00002956,0.00001342,-0.00001811,-
 0.00012771,0.00009755,-0.00049444,-0.00064375,-0.00004026,0.07995050,-
 0.06322856,0.25805199,0.00028028,0.00004157,0.00011508,-0.00032088,-0.
 00012977,-0.00005229,-0.00015203,-0.00009104,-0.00001433,-0.00090499,-
 0.00169294,-0.00054060,-0.00014180,-0.00038115,-0.00035060,-0.00174067
 ,0.00159217,0.00127551,-0.17093123,0.05536805,0.13240671,0.00013988,0.
 00085062,-0.00070103,0.00030751,0.00008908,0.00003240,-0.00011966,0.00
 005792,0.00000186,0.00001527,-0.00001192,-0.00000680,0.00002004,0.0001
 2574,0.00002278,0.00003762,0.00031897,-0.00011412,-0.00009392,0.000052
 07,-0.00012013,0.18091692,0.00013774,-0.00027123,0.00003919,-0.0003621
 9,0.00019833,-0.00004848,-0.00039387,0.00008167,0.00001455,-0.00045752
 ,-0.00010032,0.00059496,0.00124383,0.00060874,0.00019640,0.02118348,-0
 .00750352,-0.02377227,0.05317377,-0.06748046,-0.05426430,-0.00066643,-
 0.00680441,0.00100259,0.00023838,0.00000477,0.00003187,-0.00009516,0.0
 0004659,-0.00000755,0.00001380,-0.00000764,-0.00000323,0.00014949,0.00
 013367,-0.00002173,0.00005097,0.00011256,-0.00006536,0.00015262,0.0011
 8947,0.00034189,-0.06024657,0.07507107,0.00020479,0.00044498,0.0000750
 5,0.00010627,-0.00063297,-0.00003005,-0.00114118,0.00011516,-0.0001013
 9,0.00160982,0.00139636,0.00058807,0.00079921,-0.00033676,0.00004467,-
 0.00206280,0.00130711,0.00052534,0.12955115,-0.05656667,-0.17834840,-0
 .00028620,-0.00045058,0.00081195,0.00015063,0.00007716,0.00002099,-0.0
 0005420,0.00002382,0.00000158,0.00000382,-0.00000682,-0.00000267,0.000
 16363,0.00021995,0.00001703,-0.00025220,0.00019126,-0.00009973,-0.0004
 2077,-0.00050291,0.00058373,-0.14122552,0.05947300,0.18795850,-0.00035
 831,0.00032280,0.00000359,0.00086062,-0.00024949,0.00001511,-0.0000029
 5,-0.00009821,0.00000094,-0.00027854,-0.00185638,-0.00028185,-0.000465
 38,0.00162228,0.00031584,0.00259120,0.00375930,0.00122201,-0.25337354,
 -0.09985227,-0.04170837,0.00069454,0.00047391,-0.00003455,-0.00062378,
 -0.00012018,-0.00005972,0.00025106,-0.00010746,0.00000023,-0.00003121,
 0.00002015,0.00001242,-0.00019959,-0.00018401,0.00001156,0.00018595,-0
 .00005833,-0.00000806,0.00042281,-0.00068010,0.00036323,-0.01476816,-0
 .00868621,-0.00622777,0.27241765,-0.00019780,0.00072615,0.00003821,0.0
 0093440,-0.00084936,0.00001439,-0.00136124,0.00003613,-0.00016282,0.00
 201904,0.00108421,0.00018600,0.00322832,-0.00581043,0.00026571,-0.0304
 5432,-0.01303739,-0.00682976,-0.09879522,-0.09341344,-0.02032909,-0.00
 152025,0.00132002,0.00047045,-0.00048376,-0.00007084,-0.00005288,0.000
 19218,-0.00008302,0.00000479,-0.00002832,0.00001340,0.00000820,0.00004
 922,0.00006198,0.00002216,-0.00176184,-0.00093149,-0.00019260,0.000217
 04,0.00105457,0.00058458,0.00787590,0.00334920,0.00340652,0.10988043,0
 .10286220,-0.00005291,0.00006416,0.00008284,0.00017024,-0.00007072,-0.
 00009950,-0.00016761,0.00001843,0.00010104,0.00023630,-0.00004386,0.00
 036958,-0.00006310,0.00009690,0.00104953,0.00117037,0.00101284,-0.0018
 3756,-0.04159007,-0.02057889,-0.05691040,-0.00069849,-0.00006050,-0.00
 008460,-0.00009570,-0.00002408,-0.00000362,0.00004187,-0.00001213,-0.0
 0000459,-0.00000566,0.00000056,0.00000210,-0.00000335,-0.00001306,0.00
 005736,-0.00000679,-0.00002115,0.00034413,0.00045166,-0.00014325,0.000
 13098,0.01712421,0.01095266,0.00554290,0.04636299,0.02227222,0.0535457
 8,0.00024742,0.00005934,-0.00007604,-0.00027286,-0.00013583,-0.0000122
 6,-0.00020774,0.00001064,-0.00009386,0.00011829,0.00017452,-0.00001650
 ,0.00050778,-0.00109831,0.00068782,-0.00177300,0.00213352,-0.00288962,
 -0.07674078,0.02798984,-0.08598121,-0.00006212,-0.00046793,-0.00082062
 ,0.00027599,0.00007946,0.00002831,-0.00011066,0.00004308,0.00000552,0.
 00001408,-0.00000717,-0.00000568,0.00007049,0.00013530,0.00002491,-0.0
 0006332,0.00030944,0.00009721,0.00031009,0.00068025,0.00024547,0.00706
 711,-0.00675850,0.01862204,-0.00790470,0.00889049,-0.02312168,0.078434
 82,0.00008556,-0.00014390,-0.00003672,-0.00021715,0.00009224,0.0000417
 9,-0.00017781,0.00006750,-0.00004700,-0.00038176,0.00043467,-0.0003861
 7,0.00161306,0.00083506,-0.00007985,0.01136884,-0.01079590,0.03029951,
 0.02735689,-0.06743668,0.07093438,-0.00060850,0.00159178,0.00159074,0.
 00012369,0.00000402,-0.00000111,-0.00005431,0.00002376,0.00000364,0.00
 000742,-0.00000404,-0.00000240,0.00008282,0.00004875,0.00002604,-0.000
 01261,0.00008881,-0.00017272,0.00046393,-0.00671669,-0.00003789,-0.003
 50985,0.00216890,-0.00849619,-0.00376301,0.00340915,-0.01341633,-0.032
 22076,0.07604970,-0.00005354,-0.00051941,0.00003377,-0.00036825,0.0006
 8735,-0.00000811,0.00113988,-0.00004673,0.00015017,-0.00163291,-0.0013
 2640,0.00075295,-0.00057221,-0.00028248,-0.00001308,0.00034393,0.00052
 550,-0.00122574,-0.08410014,0.07274142,-0.26412834,0.00045708,-0.00068
 863,0.00141227,0.00006280,-0.00002676,0.00001816,-0.00002185,0.0000179
 0,-0.00001376,0.00000475,-0.00000199,0.00000161,-0.00008133,-0.0001002
 6,-0.00007467,0.00028229,0.00007375,-0.00012414,0.00015707,0.00033361,
 0.00132226,-0.00829249,0.00670673,-0.01822506,0.00034449,0.00028022,-0
 .00227237,0.09273874,-0.07884919,0.28189102,-0.00055274,0.00152935,0.0
 0007717,0.00245732,-0.00191241,-0.00009282,-0.00336819,0.00019811,-0.0
 0096690,0.00276092,-0.00086771,0.00184856,-0.00357111,0.00448290,0.004
 30281,-0.01720093,-0.00870683,-0.00680599,0.00046621,-0.00118651,-0.00
 095358,-0.26130638,-0.09001925,-0.04588611,-0.00129470,-0.00026249,-0.
 00010575,0.00049876,-0.00020347,0.00003806,-0.00007712,0.00004043,0.00
 001717,-0.00001019,-0.00013052,-0.00003939,0.00015356,-0.00036404,-0.0
 0041911,0.00076517,-0.00022326,0.00027259,0.00028124,0.00006148,0.0001
 4274,0.00036202,0.00100674,0.00027564,-0.00006411,-0.00003234,0.000069
 17,0.28416409,-0.00004606,0.00003893,0.00000384,0.00011315,-0.00001935
 ,-0.00001599,-0.00001937,0.00000372,0.00031416,0.00071988,0.00031314,-
 0.00019619,-0.00011382,-0.00047657,-0.00130451,0.00965909,0.00272188,0
 .00237384,0.00074289,0.00118072,0.00052150,-0.09006208,-0.08378017,-0.
 01810676,-0.00007024,-0.00000514,-0.00000956,0.00003655,-0.00001399,-0
 .00000614,-0.00000268,0.00000170,0.00000254,0.00001232,0.00002142,0.00
 005921,0.00038742,0.00046066,-0.00006045,-0.00060225,0.00009571,0.0003
 7787,-0.00014948,0.00011821,0.00012200,-0.00024049,-0.00002481,-0.0002
 0826,0.00002667,-0.00004000,0.00007359,0.09818315,0.08567582,0.0000211
 6,-0.00009711,0.00000214,-0.00006128,0.00013304,0.00007815,0.00005221,
 -0.00014396,0.00036741,0.00198905,0.00027106,-0.00033488,0.00096150,-0
 .00307414,-0.00173344,0.02097487,0.00975233,0.00491273,-0.00035783,0.0
 0112711,0.00054145,-0.04650119,-0.01836816,-0.05645325,0.00010062,0.00
 001330,-0.00000859,-0.00001758,0.00001727,-0.00001876,0.00000774,-0.00
 000446,0.00000025,0.00003226,0.00006283,0.00004820,-0.00005183,0.00026
 545,-0.00003540,-0.00074967,0.00067994,0.00070950,-0.00008734,0.000233
 17,-0.00009575,-0.00033966,-0.00023942,0.00009506,-0.00006781,-0.00011
 538,-0.00002789,0.04741356,0.02126034,0.05657977,0.00011352,-0.0004218
 3,-0.00002399,-0.00053714,0.00048962,-0.00000211,0.00060666,0.00008691
 ,0.00009967,-0.00069588,-0.00094686,-0.00014360,0.00136772,0.00228404,
 -0.00051201,-0.00142645,0.02080510,-0.00240527,-0.00317690,0.00034212,
 0.00346351,-0.04602424,0.01443682,-0.00055138,0.00026324,0.00002837,0.
 00002165,-0.00010919,0.00004813,-0.00000217,0.00001668,-0.00000729,-0.
 00000492,-0.00001984,-0.00000428,0.00000182,-0.00034723,-0.00091756,0.
 00009253,0.00072600,-0.00058033,-0.00022970,0.00011328,0.00143943,0.00
 037317,0.00032756,0.00026072,0.00011429,0.00011917,-0.00038143,0.00004
 570,0.00275001,-0.02823870,0.00086810,0.04737219,0.00006454,0.00007953
 ,0.00001133,-0.00010680,-0.00009221,-0.00004101,-0.00005151,-0.0000941
 0,0.00010660,0.00051795,0.00045330,0.00007655,-0.00200924,0.00015501,0
 .00009535,0.00017246,-0.00902446,0.00128605,0.00218782,0.00064572,-0.0
 0294904,0.01561974,-0.31416652,0.00132103,0.00013320,0.00006763,0.0000
 2027,-0.00004145,0.00000789,-0.00000480,0.00000435,-0.00000550,0.00000
 017,0.00003815,0.00009262,0.00003871,0.00068957,0.00060938,0.00002201,
 -0.00002768,0.00052444,-0.00049302,-0.00010408,-0.00094569,0.00001409,
 -0.00012882,0.00029922,0.00015665,-0.00021233,0.00026935,0.00008645,0.
 00144813,-0.00955564,0.00042044,-0.01813655,0.33834916,-0.00003283,0.0
 0017558,0.00002070,0.00022540,-0.00023104,-0.00001244,-0.00034091,0.00
 001843,-0.00010491,0.00045993,0.00023540,0.00023454,-0.00153120,-0.000
 32722,0.00009874,0.00059535,-0.02308260,0.00062982,0.00337127,-0.00038
 183,-0.00313128,-0.00079033,0.00139310,-0.04514116,-0.00009823,-0.0000
 1749,-0.00001052,0.00003711,-0.00001395,0.00000507,-0.00000757,0.00000
 145,0.00000121,0.00001341,-0.00000596,-0.00001030,0.00015672,0.0004652
 6,0.00008757,-0.00089847,0.00008039,0.00060874,0.00040991,-0.00143412,
 0.00024404,-0.00003473,0.00031854,-0.00005483,0.00022929,-0.00023287,0
 .00023975,0.00087565,-0.00614651,-0.00126005,-0.00205390,0.00087673,0.
 04642942,0.00015261,-0.00040828,-0.00003205,-0.00066746,0.00051018,-0.
 00000881,0.00089764,0.00004445,0.00010382,-0.00122694,0.00036460,-0.00
 029116,0.00270441,-0.00070974,-0.00012798,0.00560806,-0.00639782,0.019
 92251,0.00087396,-0.00120168,-0.00005912,-0.06989539,0.02385758,-0.075
 59601,0.00034929,0.00007465,0.00004146,-0.00013754,0.00005359,0.000000
 86,0.00001898,-0.00000987,-0.00000497,0.00002240,0.00003743,-0.0000193
 0,-0.00004256,-0.00009505,0.00010686,-0.00221505,0.00139194,0.00375085
 ,-0.00003271,-0.00020325,-0.00007000,-0.00004532,0.00009758,-0.0001319
 3,0.00000719,0.00024496,-0.00053046,-0.00708648,0.00967369,-0.02419242
 ,-0.00146679,-0.00006924,-0.00057610,0.07214488,-0.00000130,-0.0001015
 2,-0.00000932,-0.00006648,0.00012403,-0.00000928,0.00018009,0.00002924
 ,-0.00011215,-0.00047872,0.00001128,0.00024054,-0.00006027,-0.00025591
 ,0.00023609,-0.00279823,0.00228361,-0.00935326,-0.00104803,0.00117411,
 -0.00115384,0.02353820,-0.07019097,0.07405079,0.00001149,-0.00001398,-
 0.00000394,-0.00001199,0.00000657,0.00000906,0.00000041,-0.00000060,-0
 .00000150,-0.00001612,-0.00003880,-0.00000567,-0.00001227,-0.00002636,
 0.00011039,0.00139791,0.00010777,-0.00192821,-0.00005012,0.00003730,0.
 00020121,-0.00006673,-0.00001181,0.00001580,0.00037265,0.00005668,0.00
 032301,-0.00306888,0.00328116,-0.01219108,0.00942373,-0.00767413,0.028
 30582,-0.02724761,0.07120402,0.00003851,-0.00015667,0.00002782,-0.0001
 5750,0.00018654,-0.00002441,0.00020696,-0.00002436,-0.00017458,0.00075
 783,-0.00035303,0.00062596,-0.00196359,-0.00025503,0.00178812,-0.00675
 526,0.00696885,-0.02229610,-0.00100803,0.00123645,0.00110187,-0.074485
 43,0.07397992,-0.26559041,0.00011053,0.00001621,0.00003459,-0.00003283
 ,0.00001978,-0.00000909,0.00000432,-0.00000230,0.00000012,0.00001537,0
 .00004434,-0.00005846,0.00021792,0.00012026,-0.00018870,0.00395776,-0.
 00189360,-0.00275147,0.00011188,0.00002162,0.00048720,0.00005561,-0.00
 005607,-0.00005322,0.00040268,-0.00102360,0.00028416,-0.00004188,0.000
 94696,-0.00336843,0.00084481,-0.00104794,0.00112785,0.07770863,-0.0787
 2214,0.28902998,0.00036419,-0.00117261,-0.00006841,0.00275021,0.007390
 31,-0.00201726,-0.00224501,-0.00163455,-0.00026836,0.00062353,0.000501
 49,0.00039041,-0.00072966,0.00014123,-0.00001514,0.00016990,0.00017820
 ,0.00001854,-0.00003959,0.00003273,0.00000495,-0.00004631,-0.00008200,
 -0.00004689,-0.04070273,-0.01478980,-0.01220155,-0.14211728,-0.1016831
 0,-0.07025917,0.00852975,0.00710074,0.00545874,-0.00003168,0.00015412,
 -0.00004303,-0.00005131,0.00008851,-0.00001827,-0.00017181,-0.00005275
 ,-0.00008146,0.00002642,0.00002220,0.00001701,-0.00005551,-0.00003899,
 -0.00000818,0.00002537,0.00001009,0.00000237,-0.00010426,-0.00000694,0
 .00000652,0.00002025,0.00001434,-0.00000790,0.00002898,-0.00000072,0.0
 0001006,0.17390013,-0.00316402,0.00298892,-0.00040149,0.00181744,-0.00
 627818,0.00026154,-0.00010050,0.00083965,-0.00009711,0.00053818,0.0000
 0013,-0.00007777,-0.00013484,0.00006789,0.00004261,0.00004701,0.000023
 86,0.00002973,-0.00000446,0.00000753,-0.00000094,-0.00001321,-0.000017
 86,-0.00001086,0.02017041,0.01299578,0.00925423,-0.10861710,-0.1570365
 2,-0.07373416,-0.00447222,-0.00388862,-0.00163050,-0.00003404,0.000017
 44,0.00000486,-0.00001037,0.00001727,-0.00001195,-0.00003025,-0.000008
 20,-0.00001674,0.00000642,0.00000472,0.00000699,-0.00001505,-0.0000081
 2,-0.00000227,0.00000734,0.00000118,-0.00000084,-0.00002689,-0.0000020
 9,0.00000148,0.00000366,0.00000645,-0.00000157,0.00000684,-0.00000190,
 0.00000325,0.10661379,0.16139356,0.00127229,-0.00073898,0.00064309,0.0
 0235637,0.00278274,0.00024425,-0.00043318,-0.00022065,0.00003464,0.000
 16183,0.00007241,0.00009326,-0.00011303,0.00001229,-0.00001007,0.00002
 395,0.00002548,-0.00000128,-0.00000123,0.00000442,-0.00000268,-0.00000
 486,-0.00001015,-0.00000633,-0.00496988,0.00095871,0.00208518,-0.07216
 691,-0.07177041,-0.10273864,-0.01875981,-0.02106124,-0.01462791,-0.000
 00855,-0.00000481,-0.00000880,-0.00000354,0.00001510,-0.00000517,-0.00
 002210,-0.00000871,-0.00000980,0.00000267,0.00000361,0.00000246,-0.000
 00711,-0.00000439,-0.00000038,0.00000180,0.00000084,0.00000235,-0.0000
 1419,-0.00000084,0.00000069,0.00000154,0.00000451,-0.00000060,0.000003
 72,-0.00000080,0.00000246,0.07916291,0.08118408,0.10842704,-0.00232890
 ,-0.00441174,0.00020876,0.00383534,0.00794432,0.00014598,-0.00076737,-
 0.00080643,0.00021081,0.00014466,-0.00017030,0.00014833,-0.00015376,0.
 00007523,0.00002430,0.00003106,0.00003038,-0.00003504,-0.00001206,0.00
 000637,-0.00000152,-0.00000290,-0.00000899,-0.00000539,-0.01037517,0.0
 3286177,-0.02012396,-0.05141011,-0.03430023,0.02301190,0.00003992,-0.0
 0882281,0.00601742,0.00034536,-0.00021903,-0.00017963,0.00000471,-0.00
 000829,0.00002507,-0.00002961,-0.00001142,-0.00001177,-0.00000256,0.00
 000209,-0.00000583,-0.00000030,-0.00000641,0.00000005,-0.00000284,0.00
 000071,0.00000682,-0.00000953,-0.00000145,-0.00000098,0.00000445,-0.00
 000316,-0.00000121,0.00000397,0.00000198,0.00000279,-0.00097874,-0.014
 25700,0.01067537,0.06149079,-0.00390018,0.00224051,-0.00155013,-0.0064
 5739,-0.00528131,-0.00147235,0.00121651,0.00004643,0.00027289,-0.00064
 026,0.00003227,-0.00024963,0.00042437,-0.00012879,-0.00001376,-0.00011
 457,-0.00009958,-0.00002865,0.00003273,-0.00002078,0.00000542,0.000031
 43,0.00004991,0.00003435,0.01689510,-0.01821577,0.00970665,-0.02569518
 ,-0.22748882,0.11978867,0.00029923,0.00824859,-0.00602957,0.00002447,0
 .00010657,0.00016546,0.00001520,-0.00003137,0.00002617,0.00010095,0.00
 003405,0.00004708,-0.00001715,-0.00001509,-0.00001015,0.00003553,0.000
 02722,0.00000439,-0.00001538,-0.00000610,-0.00000575,0.00006681,0.0000
 0489,-0.00000466,-0.00001477,-0.00000532,0.00000463,-0.00001796,0.0000
 0028,-0.00000930,-0.00283756,-0.01268391,0.00924864,0.02064504,0.25189
 305,0.00171239,-0.00305437,-0.00003418,0.00153857,0.00517141,0.0014068
 5,0.00042673,-0.00072502,-0.00002594,-0.00040179,-0.00010914,-0.000061
 83,0.00017070,-0.00004274,0.00001322,-0.00003683,-0.00002867,-0.000008
 33,0.00000645,-0.00000683,-0.00000238,0.00000802,0.00001364,0.00000683
 ,-0.00610346,0.00189910,0.00214253,0.01763577,0.11472267,-0.12750291,0
 .00507290,0.02490313,-0.01829445,0.00010151,-0.00013136,-0.00006631,0.
 00001381,-0.00001903,-0.00000518,0.00003661,0.00000770,0.00001919,-0.0
 0000734,-0.00000034,-0.00000758,0.00000971,0.00000544,0.00000171,-0.00
 000675,-0.00000118,0.00000503,0.00001848,0.00000137,-0.00000052,-0.000
 00282,-0.00000383,0.00000080,-0.00000520,0.00000009,0.00000085,-0.0011
 4541,-0.01292329,0.00950932,-0.02115299,-0.12824601,0.13661506,-0.0014
 3737,-0.00240719,0.00018698,-0.00136396,0.00361832,0.00099937,0.000903
 99,-0.00029686,-0.00000856,-0.00075620,-0.00016723,-0.00013652,0.00037
 232,-0.00011721,-0.00001243,-0.00010712,-0.00008617,-0.00002690,0.0000
 2098,-0.00001618,0.00000073,0.00002486,0.00004485,0.00002337,0.0006838
 7,-0.00079723,-0.00152040,0.00753737,0.00734394,0.00523277,-0.16575553
 ,-0.11775399,-0.07947461,0.00005652,-0.00006302,0.00006672,0.00002504,
 -0.00002889,0.00001534,0.00008981,0.00002822,0.00004524,-0.00001620,-0
 .00001235,-0.00000696,0.00003185,0.00002154,0.00000366,-0.00001240,-0.
 00000676,-0.00000333,0.00005795,0.00000398,-0.00000245,-0.00001158,-0.
 00000596,0.00000377,-0.00001538,-0.00000099,-0.00000413,0.00019622,0.0
 0082499,0.00284105,0.00015209,-0.00017313,-0.00056771,0.17376295,-0.00
 099325,-0.00060285,0.00158096,0.00064687,-0.00048572,-0.00091843,-0.00
 009154,-0.00009680,0.00000129,0.00016975,0.00004650,0.00000270,-0.0000
 7294,0.00002363,0.00000714,0.00002345,0.00001848,0.00000541,-0.0000016
 9,0.00000058,-0.00000227,-0.00000558,-0.00000980,-0.00000498,-0.000040
 99,0.00020578,0.00087720,-0.00521125,-0.00495149,-0.00412579,-0.116614
 23,-0.16513460,-0.07389464,-0.00001406,0.00001654,0.00002215,-0.000007
 74,0.00000809,-0.00001006,-0.00001234,-0.00000700,-0.00000596,0.000004
 12,0.00000842,-0.00000005,-0.00000902,-0.00000494,-0.00000013,0.000002
 23,0.00000188,0.00000473,-0.00001422,-0.00000073,0.00000086,0.00000231
 ,0.00000183,-0.00000116,0.00000284,-0.00000048,0.00000357,0.00060992,0
 .00080034,-0.00132937,0.00049615,0.00045867,0.00050198,0.12582854,0.17
 273448,-0.00117758,0.00398659,0.00108274,0.00054860,-0.00622542,-0.000
 71563,-0.00094056,0.00069817,-0.00010162,0.00093669,0.00017965,0.00007
 674,-0.00043666,0.00014659,0.00001717,0.00011453,0.00008937,0.00004189
 ,-0.00002635,0.00001932,0.00000508,-0.00002900,-0.00004799,-0.00002507
 ,0.00147071,0.00267301,0.00313952,-0.02238808,-0.02055090,-0.01528877,
 -0.07551790,-0.07237673,-0.09087357,-0.00010439,0.00013351,-0.00008028
 ,-0.00002540,0.00003302,-0.00001513,-0.00009647,-0.00002650,-0.0000489
 5,0.00001589,0.00000804,0.00001042,-0.00002963,-0.00002147,-0.00000583
 ,0.00001602,0.00000587,-0.00000261,-0.00005952,-0.00000355,0.00000316,
 0.00001173,0.00000667,-0.00000467,0.00001615,-0.00000003,0.00000244,0.
 00275923,-0.00150191,-0.00569088,-0.00058538,0.00008086,0.00098924,0.0
 8195275,0.08122187,0.10111135,-0.00092665,-0.00009437,0.00084988,0.002
 88532,-0.00001592,-0.00006219,-0.00125149,-0.00005511,-0.00023651,0.00
 091791,0.00014877,0.00003406,-0.00049638,0.00016982,0.00002115,0.00013
 068,0.00010805,0.00005006,-0.00002671,0.00001927,0.00000057,-0.0000352
 6,-0.00005760,-0.00002909,-0.00191004,0.00063912,0.00369484,-0.0077732
 0,0.00207659,-0.00622324,-0.26338350,0.10376895,-0.01406913,-0.0000078
 9,0.00002183,0.00001915,-0.00002930,0.00003260,-0.00002081,-0.00010729
 ,-0.00003386,-0.00005617,0.00002019,0.00001749,0.00000846,-0.00004198,
 -0.00002852,-0.00000563,0.00001676,0.00000863,0.00000480,-0.00007725,-
 0.00000604,0.00000288,0.00001604,0.00000661,-0.00000515,0.00002017,0.0
 0000160,0.00000573,0.00043824,0.00029551,0.00048757,0.00007228,-0.0004
 4179,0.00039744,-0.01472172,0.01059574,0.00041530,0.28287767,-0.000401
 72,0.00071083,0.00073375,-0.00131656,-0.00195086,-0.00072386,0.0004387
 6,0.00019161,0.00000214,-0.00023920,-0.00002438,0.00004102,0.00015115,
 -0.00005276,-0.00001211,-0.00004129,-0.00003417,-0.00001522,0.00001033
 ,-0.00000723,-0.00000168,0.00001169,0.00001903,0.00000968,0.00308660,0
 .00099619,-0.00273010,0.00512851,-0.00436495,0.00384996,0.10318994,-0.
 09555025,0.00664832,-0.00001595,0.00003384,-0.00000629,0.00000749,-0.0
 0000717,0.00000280,0.00003424,0.00001003,0.00001785,-0.00000535,-0.000
 00512,-0.00000298,0.00001324,0.00001005,0.00000237,-0.00000548,-0.0000
 0239,-0.00000084,0.00002556,0.00000240,-0.00000117,-0.00000569,-0.0000
 0221,0.00000195,-0.00000667,-0.00000033,-0.00000198,-0.00036028,-0.000
 13660,0.00016359,-0.00008824,0.00025274,-0.00023460,-0.01731123,0.0109
 7185,0.00001201,-0.11500506,0.09810526,-0.00004766,0.00107539,0.000414
 39,-0.00203002,-0.00240236,-0.00105246,0.00066948,0.00027087,0.0002715
 4,-0.00026868,-0.00007743,0.00013705,0.00020171,-0.00004726,-0.0000064
 8,-0.00003950,-0.00004152,-0.00003318,0.00001312,-0.00000813,-0.000002
 17,0.00001742,0.00002211,0.00001038,0.00601453,-0.00212679,-0.00619739
 ,0.02508841,-0.01141152,0.00901248,-0.01589470,0.00785624,-0.04891823,
 -0.00002199,0.00002458,-0.00007942,0.00000743,-0.00001418,0.00000177,0
 .00003638,0.00000999,0.00001982,-0.00000422,-0.00000217,-0.00000189,0.
 00000901,0.00000867,0.00000222,-0.00000501,-0.00000268,-0.00000010,0.0
 0002422,0.00000087,-0.00000198,-0.00000541,-0.00000120,0.00000198,-0.0
 0000654,-0.00000092,-0.00000027,-0.00104166,-0.00022951,0.00097518,-0.
 00047412,0.00111387,0.00078502,-0.01034950,0.00751040,-0.00146876,0.01
 467371,-0.00699971,0.04728705,-0.00078603,0.00117910,0.00038547,-0.000
 69612,-0.00184822,-0.00001849,-0.00003647,0.00021930,-0.00010764,0.000
 00088,0.00004618,-0.00000729,0.00000335,-0.00001534,-0.00001008,-0.000
 00808,-0.00000393,0.00000283,0.00000194,-0.00000015,0.00000165,0.00000
 118,0.00000260,0.00000237,0.00160770,-0.00040420,-0.00124009,-0.001362
 23,-0.00872500,0.00581737,-0.04746466,-0.01510544,0.00816640,-0.000050
 73,0.00005084,0.00002480,-0.00000052,0.00000396,0.00000519,0.00000113,
 0.00000240,-0.00000020,-0.00000095,-0.00000472,0.00000068,0.00000404,0
 .00000307,-0.00000017,-0.00000004,-0.00000031,-0.00000338,0.00000572,0
 .00000082,-0.00000043,-0.00000154,-0.00000003,0.00000073,-0.00000090,0
 .00000041,-0.00000273,0.00020069,0.00054837,-0.00048668,-0.00005078,0.
 00053794,0.00228123,0.00028164,-0.01529305,0.01315931,0.00339337,0.022
 70520,-0.01656642,0.04495742,-0.00075225,0.00072999,0.00051381,0.00104
 393,-0.00088673,0.00032342,-0.00052580,0.00015847,-0.00023616,0.000326
 24,0.00009268,0.00003335,-0.00018602,0.00004507,-0.00000447,0.00004296
 ,0.00003679,0.00002110,-0.00000860,0.00000913,0.00000306,-0.00001194,-
 0.00001919,-0.00000910,-0.00234676,0.00103764,0.00024192,0.00167205,0.
 00709848,-0.00656686,-0.01546466,-0.23243160,0.12763533,-0.00003398,0.
 00003890,0.00002048,-0.00001097,0.00002140,0.00000058,-0.00004441,-0.0
 0000909,-0.00002491,0.00000679,-0.00000015,0.00000647,-0.00001187,-0.0
 0000784,-0.00000237,0.00000692,0.00000228,-0.00000497,-0.00002381,-0.0
 0000188,0.00000090,0.00000433,0.00000427,-0.00000094,0.00000683,0.0000
 0074,-0.00000175,-0.00019837,0.00089732,0.00067394,0.00105146,0.000581
 67,-0.00170013,0.00153003,-0.01400265,0.01145995,-0.00217233,-0.009165
 42,0.00547240,0.01610022,0.24576973,0.00017736,-0.00051410,0.00043187,
 -0.00005978,0.00078211,0.00008460,0.00025598,0.00001852,0.00002004,-0.
 00015280,-0.00008301,-0.00003520,0.00008481,-0.00000729,0.00000739,-0.
 00001670,-0.00001859,-0.00000078,0.00000099,-0.00000273,-0.00000470,0.
 00000295,0.00000882,0.00000064,-0.00201707,-0.00104287,0.00389560,0.00
 129033,0.02855794,-0.01927904,0.00950869,0.12544128,-0.13133493,0.0000
 2274,-0.00004389,-0.00001851,0.00000617,-0.00001325,-0.00000551,0.0000
 1924,0.00000401,0.00001103,-0.00000210,-0.00000073,-0.00000143,0.00000
 472,0.00000239,0.00000167,-0.00000279,-0.00000154,0.00000234,0.0000094
 2,0.00000067,0.00000044,-0.00000120,-0.00000279,0.00000054,-0.00000282
 ,-0.00000065,0.00000168,-0.00060806,-0.00014784,0.00108261,0.00210024,
 -0.00287912,-0.00548606,0.00074175,-0.01144740,0.00784202,0.00004234,-
 0.00075491,-0.00115656,-0.01140440,-0.13785504,0.14394025\\-0.00000601
 ,0.00002863,0.00001023,-0.00001245,-0.00005463,-0.00002509,0.00000507,
 0.00002724,0.00000633,0.00000359,-0.00001509,0.00000104,-0.00000269,0.
 00001411,-0.00000248,-0.00000915,-0.00000433,0.00000240,0.00000044,0.0
 0000464,0.00000116,0.00000609,-0.00000385,-0.00001053,0.00002682,0.000
 00773,0.00001261,-0.00001864,0.00001393,-0.00001382,0.00000395,-0.0000
 0217,0.00000671,-0.00000296,-0.00000717,-0.00000009,0.00000002,-0.0000
 0394,-0.00000092,0.00000301,-0.00000026,0.00000147,-0.00000122,0.00000
 034,0.00000064,0.00000338,-0.00000075,0.00000103,-0.00000308,-0.000000
 88,-0.00000185,0.00000191,0.00000175,0.00000237,-0.00000072,-0.0000018
 7,0.00000231,-0.00000230,0.00000265,-0.00000065,0.00000085,-0.00000312
 ,0.00000275,0.00000412,-0.00000227,0.00000711,0.00000248,0.00000138,0.
 00000028,-0.00000244,0.00000087,-0.00000377,-0.00000007,-0.00000293,0.
 00000077\\\@
 The archive entry for this job was punched.


 THERE ARE PEOPLE SO ADDICTED TO EXAGERATING THEY
 CAN'T TELL THE TRUTH WITHOUT LYING. -- FORTUNE COOKIE
 Job cpu time:       0 days  2 hours 21 minutes 10.3 seconds.
 Elapsed time:       0 days  0 hours  8 minutes 55.6 seconds.
 File lengths (MBytes):  RWF=    161 Int=      0 D2E=      0 Chk=      6 Scr=      2
 Normal termination of Gaussian 16 at Fri Jul 18 12:00:04 2025.
 Initial command:
 /uufs/chpc.utah.edu/sys/installdir/gaussian16/C01/AVX/g16/l1.exe "/scratch/general/vast/u6067110/5269608-notchpeak.peaks/Gau-1425730.inp" -scrdir="/scratch/general/vast/u6067110/5269608-notchpeak.peaks/"
 Entering Link 1 = /uufs/chpc.utah.edu/sys/installdir/gaussian16/C01/AVX/g16/l1.exe PID=   1431661.
  
 Copyright (c) 1988-2019, Gaussian, Inc.  All Rights Reserved.
  
 This is part of the Gaussian(R) 16 program.  It is based on
 the Gaussian(R) 09 system (copyright 2009, Gaussian, Inc.),
 the Gaussian(R) 03 system (copyright 2003, Gaussian, Inc.),
 the Gaussian(R) 98 system (copyright 1998, Gaussian, Inc.),
 the Gaussian(R) 94 system (copyright 1995, Gaussian, Inc.),
 the Gaussian 92(TM) system (copyright 1992, Gaussian, Inc.),
 the Gaussian 90(TM) system (copyright 1990, Gaussian, Inc.),
 the Gaussian 88(TM) system (copyright 1988, Gaussian, Inc.),
 the Gaussian 86(TM) system (copyright 1986, Carnegie Mellon
 University), and the Gaussian 82(TM) system (copyright 1983,
 Carnegie Mellon University). Gaussian is a federally registered
 trademark of Gaussian, Inc.
  
 This software contains proprietary and confidential information,
 including trade secrets, belonging to Gaussian, Inc.
  
 This software is provided under written license and may be
 used, copied, transmitted, or stored only in accord with that
 written license.
  
 The following legend is applicable only to US Government
 contracts under FAR:
  
                    RESTRICTED RIGHTS LEGEND
  
 Use, reproduction and disclosure by the US Government is
 subject to restrictions as set forth in subparagraphs (a)
 and (c) of the Commercial Computer Software - Restricted
 Rights clause in FAR 52.227-19.
  
 Gaussian, Inc.
 340 Quinnipiac St., Bldg. 40, Wallingford CT 06492
  
  
 ---------------------------------------------------------------
 Warning -- This program may not be used in any manner that
 competes with the business of Gaussian, Inc. or will provide
 assistance to any competitor of Gaussian, Inc.  The licensee
 of this program is prohibited from giving any competitor of
 Gaussian, Inc. access to this program.  By using this program,
 the user acknowledges that Gaussian, Inc. is engaged in the
 business of creating and licensing software in the field of
 computational chemistry and represents and warrants to the
 licensee that it is not a competitor of Gaussian, Inc. and that
 it will not use this program in any manner prohibited above.
 ---------------------------------------------------------------
  

 Cite this work as:
 Gaussian 16, Revision C.01,
 M. J. Frisch, G. W. Trucks, H. B. Schlegel, G. E. Scuseria, 
 M. A. Robb, J. R. Cheeseman, G. Scalmani, V. Barone, 
 G. A. Petersson, H. Nakatsuji, X. Li, M. Caricato, A. V. Marenich, 
 J. Bloino, B. G. Janesko, R. Gomperts, B. Mennucci, H. P. Hratchian, 
 J. V. Ortiz, A. F. Izmaylov, J. L. Sonnenberg, D. Williams-Young, 
 F. Ding, F. Lipparini, F. Egidi, J. Goings, B. Peng, A. Petrone, 
 T. Henderson, D. Ranasinghe, V. G. Zakrzewski, J. Gao, N. Rega, 
 G. Zheng, W. Liang, M. Hada, M. Ehara, K. Toyota, R. Fukuda, 
 J. Hasegawa, M. Ishida, T. Nakajima, Y. Honda, O. Kitao, H. Nakai, 
 T. Vreven, K. Throssell, J. A. Montgomery, Jr., J. E. Peralta, 
 F. Ogliaro, M. J. Bearpark, J. J. Heyd, E. N. Brothers, K. N. Kudin, 
 V. N. Staroverov, T. A. Keith, R. Kobayashi, J. Normand, 
 K. Raghavachari, A. P. Rendell, J. C. Burant, S. S. Iyengar, 
 J. Tomasi, M. Cossi, J. M. Millam, M. Klene, C. Adamo, R. Cammi, 
 J. W. Ochterski, R. L. Martin, K. Morokuma, O. Farkas, 
 J. B. Foresman, and D. J. Fox, Gaussian, Inc., Wallingford CT, 2019.
 
 ******************************************
 Gaussian 16:  ES64L-G16RevC.01  3-Jul-2019
                18-Jul-2025 
 ******************************************
 %NProcShared=32
 Will use up to   32 processors via shared memory.
 %Mem=48GB
 %chk=A18_crest_conformers_censo-18.chk
 ----------------------------------------------------------------------
 #N Guess=Read Geom=Check Integral(Ultrafine) Density Pop=NBO7 Pop=Hirs
 hfeld Pop=(ChelpG,ReadRadii) Polar Prop=(Potential,EFG) Volume M062X E
 mpiricalDispersion=GD3 def2TZVPP SCRF(IEFPCM,solvent=thf)
 ----------------------------------------------------------------------
 1/29=2,38=1,172=1/1;
 2/12=2,40=1/2;
 3/5=44,7=202,11=2,14=-4,25=1,30=1,70=2201,72=20,74=-55,75=-5,116=-2,124=31/1,2,3;
 4/5=1/1;
 5/5=2,38=6,53=20,98=1/2;
 8/6=4,10=90,11=11/1;
 10/6=1,13=10/2;
 6/7=2,8=2,9=2,10=2,14=4,15=8,20=103,22=-1,28=1,40=1,44=1,79=1,113=1,114=1,124=3103/1,2,4,12;
 99/5=1,9=1/99;
 -----------------------------
 A18_crest_conformers_censo-18
 -----------------------------
 Structure from the checkpoint file:  "A18_crest_conformers_censo-18.chk"
 Charge = -1 Multiplicity = 1
 Redundant internal coordinates found in file.  (old form).
 O,0,1.581841293,-1.306730071,0.0705776621
 C,0,1.4312176584,-0.0925902905,0.1495885428
 C,0,0.2705779454,0.7065665137,0.0890195186
 N,0,-0.9459467196,0.1450600435,-0.0922260537
 C,0,-2.0421398189,0.8086221456,-0.1600119137
 C,0,-3.3821881836,0.1406459102,-0.3706050156
 C,0,-3.2512758336,-1.3778502665,-0.3640937429
 C,0,-4.3988495921,0.6122202857,0.6752486707
 O,0,2.5747548243,0.7147882888,0.3333704211
 C,0,3.7916986013,0.0270187383,0.3921132174
 C,0,4.3071448798,-0.3449431932,-0.9923349115
 H,0,0.3872525901,1.7951306024,0.1932489692
 H,0,-2.0579173704,1.9174327736,-0.0745984428
 H,0,-3.7847102252,0.4431045456,-1.36125579
 H,0,-2.5150007495,-1.7031059521,-1.1099827704
 H,0,-4.221839044,-1.8631351998,-0.560230726
 H,0,-2.8695489187,-1.7147609249,0.611189597
 H,0,-5.4058624279,0.2047436937,0.4817983289
 H,0,-4.4731545017,1.7113333047,0.6864874183
 H,0,-4.0806010397,0.290600096,1.6799438443
 H,0,4.5041667066,0.7006804426,0.8976154295
 H,0,3.6841359718,-0.8894561427,0.9938874048
 H,0,3.5984960578,-1.0473443625,-1.4500929787
 H,0,5.299682686,-0.8202339071,-0.9355144196
 H,0,4.3806652104,0.5520929258,-1.6253522598
 Recover connectivity data from disk.
                           ----------------------------
                           !    Current Parameters    !
                           ! (Angstroms and Degrees)  !
 --------------------------                            --------------------------
 ! Name  Definition              Value                                          !
 --------------------------------------------------------------------------------
 ! R1    R(1,2)                  1.226                                          !
 ! R2    R(2,3)                  1.4105                                         !
 ! R3    R(2,9)                  1.4118                                         !
 ! R4    R(3,4)                  1.3521                                         !
 ! R5    R(3,12)                 1.0997                                         !
 ! R6    R(4,5)                  1.2832                                         !
 ! R7    R(5,6)                  1.512                                          !
 ! R8    R(5,13)                 1.1122                                         !
 ! R9    R(6,7)                  1.5241                                         !
 ! R10   R(6,8)                  1.5329                                         !
 ! R11   R(6,14)                 1.1113                                         !
 ! R12   R(7,15)                 1.0974                                         !
 ! R13   R(7,16)                 1.1027                                         !
 ! R14   R(7,17)                 1.1002                                         !
 ! R15   R(8,18)                 1.1034                                         !
 ! R16   R(8,19)                 1.1017                                         !
 ! R17   R(8,20)                 1.1019                                         !
 ! R18   R(9,10)                 1.3991                                         !
 ! R19   R(10,11)                1.5234                                         !
 ! R20   R(10,21)                1.1032                                         !
 ! R21   R(10,22)                1.1016                                         !
 ! R22   R(11,23)                1.0978                                         !
 ! R23   R(11,24)                1.1019                                         !
 ! R24   R(11,25)                1.1004                                         !
 ! A1    A(1,2,3)              131.2574                                         !
 ! A2    A(1,2,9)              118.3729                                         !
 ! A3    A(3,2,9)              110.3697                                         !
 ! A4    A(2,3,4)              120.7199                                         !
 ! A5    A(2,3,12)             117.9992                                         !
 ! A6    A(4,3,12)             121.2809                                         !
 ! A7    A(3,4,5)              124.1225                                         !
 ! A8    A(4,5,6)              122.4126                                         !
 ! A9    A(4,5,13)             121.5744                                         !
 ! A10   A(6,5,13)             116.0111                                         !
 ! A11   A(5,6,7)              111.3102                                         !
 ! A12   A(5,6,8)              110.9072                                         !
 ! A13   A(5,6,14)             108.962                                          !
 ! A14   A(7,6,8)              111.1338                                         !
 ! A15   A(7,6,14)             107.8237                                         !
 ! A16   A(8,6,14)             106.5144                                         !
 ! A17   A(6,7,15)             110.4885                                         !
 ! A18   A(6,7,16)             111.2289                                         !
 ! A19   A(6,7,17)             109.7968                                         !
 ! A20   A(15,7,16)            109.8282                                         !
 ! A21   A(15,7,17)            106.1992                                         !
 ! A22   A(16,7,17)            109.1654                                         !
 ! A23   A(6,8,18)             111.8427                                         !
 ! A24   A(6,8,19)             111.0149                                         !
 ! A25   A(6,8,20)             109.9224                                         !
 ! A26   A(18,8,19)            107.9785                                         !
 ! A27   A(18,8,20)            108.4005                                         !
 ! A28   A(19,8,20)            107.5407                                         !
 ! A29   A(2,9,10)             115.3953                                         !
 ! A30   A(9,10,11)            112.0971                                         !
 ! A31   A(9,10,21)            106.3085                                         !
 ! A32   A(9,10,22)            110.3018                                         !
 ! A33   A(11,10,21)           110.3049                                         !
 ! A34   A(11,10,22)           109.0466                                         !
 ! A35   A(21,10,22)           108.7095                                         !
 ! A36   A(10,11,23)           108.4674                                         !
 ! A37   A(10,11,24)           111.2978                                         !
 ! A38   A(10,11,25)           110.2654                                         !
 ! A39   A(23,11,24)           109.085                                          !
 ! A40   A(23,11,25)           108.9571                                         !
 ! A41   A(24,11,25)           108.7299                                         !
 ! D1    D(1,2,3,4)             -0.4057                                         !
 ! D2    D(1,2,3,12)           179.6083                                         !
 ! D3    D(9,2,3,4)            179.5661                                         !
 ! D4    D(9,2,3,12)            -0.4198                                         !
 ! D5    D(1,2,9,10)             0.7153                                         !
 ! D6    D(3,2,9,10)          -179.2606                                         !
 ! D7    D(2,3,4,5)           -179.8449                                         !
 ! D8    D(12,3,4,5)             0.1405                                         !
 ! D9    D(3,4,5,6)            179.693                                          !
 ! D10   D(3,4,5,13)             0.2038                                         !
 ! D11   D(4,5,6,7)              4.9071                                         !
 ! D12   D(4,5,6,8)            129.1915                                         !
 ! D13   D(4,5,6,14)          -113.8721                                         !
 ! D14   D(13,5,6,7)          -175.5772                                         !
 ! D15   D(13,5,6,8)           -51.2928                                         !
 ! D16   D(13,5,6,14)           65.6437                                         !
 ! D17   D(5,6,7,15)           -55.3469                                         !
 ! D18   D(5,6,7,16)          -177.5971                                         !
 ! D19   D(5,6,7,17)            61.4625                                         !
 ! D20   D(8,6,7,15)          -179.5033                                         !
 ! D21   D(8,6,7,16)            58.2465                                         !
 ! D22   D(8,6,7,17)           -62.6939                                         !
 ! D23   D(14,6,7,15)           64.1117                                         !
 ! D24   D(14,6,7,16)          -58.1384                                         !
 ! D25   D(14,6,7,17)         -179.0788                                         !
 ! D26   D(5,6,8,18)           174.8567                                         !
 ! D27   D(5,6,8,19)            54.1788                                         !
 ! D28   D(5,6,8,20)           -64.6793                                         !
 ! D29   D(7,6,8,18)           -60.7586                                         !
 ! D30   D(7,6,8,19)           178.5635                                         !
 ! D31   D(7,6,8,20)            59.7053                                         !
 ! D32   D(14,6,8,18)           56.4277                                         !
 ! D33   D(14,6,8,19)          -64.2502                                         !
 ! D34   D(14,6,8,20)          176.8917                                         !
 ! D35   D(2,9,10,11)           80.01                                           !
 ! D36   D(2,9,10,21)         -159.3918                                         !
 ! D37   D(2,9,10,22)          -41.7077                                         !
 ! D38   D(9,10,11,23)         -64.1181                                         !
 ! D39   D(9,10,11,24)         175.8698                                         !
 ! D40   D(9,10,11,25)          55.1177                                         !
 ! D41   D(21,10,11,23)        177.6284                                         !
 ! D42   D(21,10,11,24)         57.6162                                         !
 ! D43   D(21,10,11,25)        -63.1359                                         !
 ! D44   D(22,10,11,23)         58.3157                                         !
 ! D45   D(22,10,11,24)        -61.6964                                         !
 ! D46   D(22,10,11,25)        177.5515                                         !
 --------------------------------------------------------------------------------
                          Input orientation:                          
 ---------------------------------------------------------------------
 Center     Atomic      Atomic             Coordinates (Angstroms)
 Number     Number       Type             X           Y           Z
 ---------------------------------------------------------------------
      1          8           0        1.581841   -1.306730    0.070578
      2          6           0        1.431218   -0.092590    0.149589
      3          6           0        0.270578    0.706567    0.089020
      4          7           0       -0.945947    0.145060   -0.092226
      5          6           0       -2.042140    0.808622   -0.160012
      6          6           0       -3.382188    0.140646   -0.370605
      7          6           0       -3.251276   -1.377850   -0.364094
      8          6           0       -4.398850    0.612220    0.675249
      9          8           0        2.574755    0.714788    0.333370
     10          6           0        3.791699    0.027019    0.392113
     11          6           0        4.307145   -0.344943   -0.992335
     12          1           0        0.387253    1.795131    0.193249
     13          1           0       -2.057917    1.917433   -0.074598
     14          1           0       -3.784710    0.443105   -1.361256
     15          1           0       -2.515001   -1.703106   -1.109983
     16          1           0       -4.221839   -1.863135   -0.560231
     17          1           0       -2.869549   -1.714761    0.611190
     18          1           0       -5.405862    0.204744    0.481798
     19          1           0       -4.473155    1.711333    0.686487
     20          1           0       -4.080601    0.290600    1.679944
     21          1           0        4.504167    0.700680    0.897615
     22          1           0        3.684136   -0.889456    0.993887
     23          1           0        3.598496   -1.047344   -1.450093
     24          1           0        5.299683   -0.820234   -0.935514
     25          1           0        4.380665    0.552093   -1.625352
 ---------------------------------------------------------------------
                    Distance matrix (angstroms):
                    1          2          3          4          5
     1  O    0.000000
     2  C    1.225996   0.000000
     3  C    2.402731   1.410463   0.000000
     4  N    2.919574   2.401221   1.352062   0.000000
     5  C    4.202514   3.601701   2.328325   1.283179   0.000000
     6  C    5.189521   4.847048   3.724812   2.452098   1.512042
     7  C    4.853145   4.882777   4.117470   2.776276   2.506855
     8  C    6.310044   5.895995   4.707029   3.567884   2.508050
     9  O    2.267482   1.411847   2.317112   3.591805   4.644130
    10  C    2.601104   2.375920   3.598881   4.763801   5.911803
    11  C    3.079301   3.104614   4.309161   5.352128   6.506680
    12  H    3.326204   2.157605   1.099749   2.140479   2.645740
    13  H    4.864581   4.032929   2.629612   2.092390   1.112207
    14  H    5.823396   5.456695   4.314866   3.123755   2.147823
    15  H    4.281933   4.444426   3.873445   2.629349   2.726687
    16  H    5.864317   5.966215   5.216005   3.870833   3.471246
    17  H    4.502624   4.619644   3.999486   2.766581   2.765288
    18  H    7.161121   6.851601   5.712099   4.497101   3.477243
    19  H    6.793455   6.197097   4.885644   3.937106   2.727871
    20  H    6.099572   5.733146   4.651540   3.603863   2.794478
    21  H    3.640560   3.260650   4.310120   5.567067   6.632070
    22  H    2.333723   2.534458   3.875365   4.866984   6.083189
    23  H    2.539019   2.857907   4.064494   4.890561   6.076652
    24  H    3.882170   4.083128   5.354688   6.375799   7.560220
    25  H    3.763617   3.502181   4.455979   5.557783   6.592834
                    6          7          8          9         10
     6  C    0.000000
     7  C    1.524143   0.000000
     8  C    1.532903   2.521416   0.000000
     9  O    6.025810   6.229625   6.982733   0.000000
    10  C    7.215213   7.221426   8.216307   1.399082   0.000000
    11  C    7.729695   7.654496   8.915791   2.425222   1.523397
    12  H    4.154989   4.859766   4.953622   2.443755   3.841356
    13  H    2.235684   3.516646   2.783130   4.803587   6.165184
    14  H    1.111258   2.143539   2.133804   6.586985   7.787773
    15  H    2.167513   1.097380   3.478027   5.816794   6.709999
    16  H    2.180851   1.102708   2.772206   7.323790   8.288331
    17  H    2.160846   1.100183   2.785266   5.968277   6.888687
    18  H    2.196806   2.803994   1.103420   7.998277   9.199715
    19  H    2.185111   3.484216   1.101679   7.126768   8.439868
    20  H    2.171409   2.765790   1.101878   6.803452   7.981296
    21  H    8.007285   8.127674   8.906232   2.010274   1.103161
    22  H    7.270205   7.083966   8.227467   2.059274   1.101648
    23  H    7.162860   6.943198   8.439714   2.708117   2.141333
    24  H    8.753131   8.588152   9.935191   3.375144   2.180470
    25  H    7.874362   7.972577   9.076137   2.669153   2.166276
                   11         12         13         14         15
    11  C    0.000000
    12  H    4.620723   0.000000
    13  H    6.817228   2.462835   0.000000
    14  H    8.138504   4.652927   2.609779   0.000000
    15  H    6.957019   4.728546   3.793316   2.506296   0.000000
    16  H    8.673822   5.932484   4.383046   2.480215   1.800315
    17  H    7.480149   4.806326   3.784426   3.063404   1.757349
    18  H    9.839600   6.014381   3.801528   2.466130   3.811921
    19  H    9.172806   4.886089   2.540689   2.505117   4.326669
    20  H    8.826056   4.943237   3.133090   3.059363   3.769570
    21  H    2.168884   4.317747   6.744378   8.595017   7.686179
    22  H    2.151677   4.326369   6.480082   7.943934   6.596786
    23  H    1.097767   4.592638   6.532756   7.532667   6.157966
    24  H    1.101935   5.678574   7.897485   9.181692   7.866332
    25  H    1.100359   4.560679   6.761977   8.170372   7.273358
                   16         17         18         19         20
    16  H    0.000000
    17  H    1.795252   0.000000
    18  H    2.600742   3.183414   0.000000
    19  H    3.793981   3.783562   1.783719   0.000000
    20  H    3.110773   2.574948   1.788642   1.777509   0.000000
    21  H    9.210952   7.764540   9.931140   9.036498   8.630089
    22  H    8.115896   6.616523   9.169928   8.567379   7.883803
    23  H    7.912965   6.821286   9.293998   8.793567   8.399748
    24  H    9.585815   8.362345  10.847491  10.224875   9.801240
    25  H    8.998383   7.918734  10.016829   9.223804   9.087705
                   21         22         23         24         25
    21  H    0.000000
    22  H    1.791718   0.000000
    23  H    3.063913   2.450572   0.000000
    24  H    2.511253   2.517414   1.791761   0.000000
    25  H    2.530355   3.069794   1.789051   1.789902   0.000000
 Stoichiometry    C8H14NO2(1-)
 Framework group  C1[X(C8H14NO2)]
 Deg. of freedom    69
 Full point group                 C1      NOp   1
 Largest Abelian subgroup         C1      NOp   1
 Largest concise Abelian subgroup C1      NOp   1
                         Standard orientation:                         
 ---------------------------------------------------------------------
 Center     Atomic      Atomic             Coordinates (Angstroms)
 Number     Number       Type             X           Y           Z
 ---------------------------------------------------------------------
      1          8           0       -1.614825    1.157880    0.503781
      2          6           0       -1.433486   -0.021867    0.223818
      3          6           0       -0.256655   -0.732960   -0.090536
      4          7           0        0.940547   -0.105681   -0.126616
      5          6           0        2.049582   -0.686959   -0.407163
      6          6           0        3.366864    0.054494   -0.443024
      7          6           0        3.200567    1.501257    0.006679
      8          6           0        4.424370   -0.668009    0.399274
      9          8           0       -2.551903   -0.882840    0.189427
     10          6           0       -3.782436   -0.279520    0.470892
     11          6           0       -4.346605    0.461223   -0.734823
     12          1           0       -0.344642   -1.808141   -0.304292
     13          1           0        2.093881   -1.771965   -0.647588
     14          1           0        3.747338    0.064416   -1.487072
     15          1           0        2.435431    2.005604   -0.597012
     16          1           0        4.153336    2.052321   -0.060585
     17          1           0        2.839618    1.529387    1.045585
     18          1           0        5.415468   -0.191033    0.311229
     19          1           0        4.524766   -1.720452    0.089464
     20          1           0        4.128070   -0.661060    1.460543
     21          1           0       -4.463850   -1.092387    0.774021
     22          1           0       -3.678937    0.426337    1.310346
     23          1           0       -3.668291    1.287642   -0.983852
     24          1           0       -5.347955    0.868768   -0.521595
     25          1           0       -4.417453   -0.215939   -1.599244
 ---------------------------------------------------------------------
 Rotational constants (GHZ):           3.6078939           0.3681088           0.3495133
 Standard basis: def2TZVPP (5D, 7F)
 There are   606 symmetry adapted cartesian basis functions of A   symmetry.
 There are   537 symmetry adapted basis functions of A   symmetry.
   537 basis functions,   799 primitive gaussians,   606 cartesian basis functions
    43 alpha electrons       43 beta electrons
       nuclear repulsion energy       596.5237992240 Hartrees.
 NAtoms=   25 NActive=   25 NUniq=   25 SFac= 1.00D+00 NAtFMM=   60 NAOKFM=F Big=F
 Integral buffers will be    131072 words long.
 Raffenetti 2 integral format.
 Two-electron integral symmetry is turned on.
 Nuclear repulsion after empirical dispersion term =      596.5230015358 Hartrees.
 ------------------------------------------------------------------------------
 Polarizable Continuum Model (PCM)
 =================================
 Model                : PCM.
 Atomic radii         : UFF (Universal Force Field).
 Polarization charges : Total charges.
 Charge compensation  : None.
 Solution method      : On-the-fly selection.
 Cavity type          : Scaled VdW (van der Waals Surface) (Alpha=1.100).
 Cavity algorithm     : GePol (No added spheres)
                        Default sphere list used, NSphG=   25.
                        Lebedev-Laikov grids with approx.  5.0 points / Ang**2.
                        Smoothing algorithm: York/Karplus (Gamma=1.0000).
                        Polarization charges: spherical gaussians, with
                                              point-specific exponents (IZeta= 3).
                        Self-potential: point-specific (ISelfS= 7).
                        Self-field    : sphere-specific E.n sum rule (ISelfD= 2).
 Solvent              : TetraHydroFuran, Eps=   7.425700 Eps(inf)=   1.974025
 ------------------------------------------------------------------------------
 One-electron integrals computed using PRISM.
   1 Symmetry operations used in ECPInt.
 ECPInt:  NShTT=   21115 NPrTT=   55562 LenC2=   18180 LenP2D=   37127.
 LDataN:  DoStor=T MaxTD1= 6 Len=  172
 NBasis=   537 RedAO= T EigKep=  6.09D-05  NBF=   537
 NBsUse=   537 1.00D-06 EigRej= -1.00D+00 NBFU=   537
 Initial guess from the checkpoint file:  "A18_crest_conformers_censo-18.chk"
 B after Tr=    -0.000000   -0.000000    0.000000
         Rot=    1.000000    0.000000    0.000000    0.000000 Ang=   0.00 deg.
 Requested convergence on RMS density matrix=1.00D-08 within 128 cycles.
 Requested convergence on MAX density matrix=1.00D-06.
 Requested convergence on             energy=1.00D-06.
 No special actions if energy rises.
 Inv3:  Mode=1 IEnd=    11466075.
 Iteration    1 A*A^-1 deviation from unit magnitude is 3.11D-15 for    223.
 Iteration    1 A*A^-1 deviation from orthogonality  is 2.86D-15 for   1931   1522.
 Iteration    1 A^-1*A deviation from unit magnitude is 3.11D-15 for    223.
 Iteration    1 A^-1*A deviation from orthogonality  is 4.07D-15 for   1577   1551.
 Error on total polarization charges =  0.01340
 SCF Done:  E(RM062X) =  -518.550016499     A.U. after   13 cycles
            NFock= 13  Conv=0.50D-08     -V/T= 2.0053
 DoSCS=F DFT=T ScalE2(SS,OS)=  1.000000  1.000000
 Range of M.O.s used for correlation:     1   537
 NBasis=   537 NAE=    43 NBE=    43 NFC=     0 NFV=     0
 NROrb=    537 NOA=    43 NOB=    43 NVA=   494 NVB=   494

 **** Warning!!: The largest alpha MO coefficient is  0.24736806D+02

 NEqPCM:  Using equilibrium solvation (IEInf=0, Eps=   7.4257, EpsInf=   1.9740)
          Differentiating once with respect to electric field.
                with respect to dipole field.
          Electric field/nuclear overlap derivatives assumed to be zero.
          There are     3 degrees of freedom in the 1st order CPHF.  IDoFFX=0 NUNeed=     3.
      3 vectors produced by pass  0 Test12= 7.08D-13 3.33D-08 XBig12= 1.28D+02 8.71D+00.
 AX will form     3 AO Fock derivatives at one time.
      3 vectors produced by pass  1 Test12= 7.08D-13 3.33D-08 XBig12= 1.34D+01 6.71D-01.
      3 vectors produced by pass  2 Test12= 7.08D-13 3.33D-08 XBig12= 5.25D+00 9.07D-01.
      3 vectors produced by pass  3 Test12= 7.08D-13 3.33D-08 XBig12= 8.96D-01 2.40D-01.
      3 vectors produced by pass  4 Test12= 7.08D-13 3.33D-08 XBig12= 2.74D-01 1.30D-01.
      3 vectors produced by pass  5 Test12= 7.08D-13 3.33D-08 XBig12= 3.14D-02 3.34D-02.
      3 vectors produced by pass  6 Test12= 7.08D-13 3.33D-08 XBig12= 4.35D-03 7.41D-03.
      3 vectors produced by pass  7 Test12= 7.08D-13 3.33D-08 XBig12= 5.31D-04 3.49D-03.
      3 vectors produced by pass  8 Test12= 7.08D-13 3.33D-08 XBig12= 4.31D-05 8.35D-04.
      3 vectors produced by pass  9 Test12= 7.08D-13 3.33D-08 XBig12= 4.79D-06 4.07D-04.
      3 vectors produced by pass 10 Test12= 7.08D-13 3.33D-08 XBig12= 6.88D-07 1.35D-04.
      3 vectors produced by pass 11 Test12= 7.08D-13 3.33D-08 XBig12= 3.15D-08 2.01D-05.
      3 vectors produced by pass 12 Test12= 7.08D-13 3.33D-08 XBig12= 1.18D-09 3.91D-06.
      3 vectors produced by pass 13 Test12= 7.08D-13 3.33D-08 XBig12= 4.55D-11 9.74D-07.
      3 vectors produced by pass 14 Test12= 7.08D-13 3.33D-08 XBig12= 1.95D-12 2.33D-07.
      1 vectors produced by pass 15 Test12= 7.08D-13 3.33D-08 XBig12= 5.59D-14 4.81D-08.
 InvSVY:  IOpt=1 It=  1 EMax= 2.66D-15
 Solved reduced A of dimension    46 with     3 vectors.
 Isotropic polarizability for W=    0.000000      173.96 Bohr**3.
 End of Minotr F.D. properties file   721 does not exist.
 End of Minotr F.D. properties file   722 does not exist.
 End of Minotr F.D. properties file   788 does not exist.

 **********************************************************************

            Population analysis using the SCF Density.

 **********************************************************************

 Orbital symmetries:
       Occupied  (A) (A) (A) (A) (A) (A) (A) (A) (A) (A) (A) (A)
                 (A) (A) (A) (A) (A) (A) (A) (A) (A) (A) (A) (A)
                 (A) (A) (A) (A) (A) (A) (A) (A) (A) (A) (A) (A)
                 (A) (A) (A) (A) (A) (A) (A)
       Virtual   (A) (A) (A) (A) (A) (A) (A) (A) (A) (A) (A) (A)
                 (A) (A) (A) (A) (A) (A) (A) (A) (A) (A) (A) (A)
                 (A) (A) (A) (A) (A) (A) (A) (A) (A) (A) (A) (A)
                 (A) (A) (A) (A) (A) (A) (A) (A) (A) (A) (A) (A)
                 (A) (A) (A) (A) (A) (A) (A) (A) (A) (A) (A) (A)
                 (A) (A) (A) (A) (A) (A) (A) (A) (A) (A) (A) (A)
                 (A) (A) (A) (A) (A) (A) (A) (A) (A) (A) (A) (A)
                 (A) (A) (A) (A) (A) (A) (A) (A) (A) (A) (A) (A)
                 (A) (A) (A) (A) (A) (A) (A) (A) (A) (A) (A) (A)
                 (A) (A) (A) (A) (A) (A) (A) (A) (A) (A) (A) (A)
                 (A) (A) (A) (A) (A) (A) (A) (A) (A) (A) (A) (A)
                 (A) (A) (A) (A) (A) (A) (A) (A) (A) (A) (A) (A)
                 (A) (A) (A) (A) (A) (A) (A) (A) (A) (A) (A) (A)
                 (A) (A) (A) (A) (A) (A) (A) (A) (A) (A) (A) (A)
                 (A) (A) (A) (A) (A) (A) (A) (A) (A) (A) (A) (A)
                 (A) (A) (A) (A) (A) (A) (A) (A) (A) (A) (A) (A)
                 (A) (A) (A) (A) (A) (A) (A) (A) (A) (A) (A) (A)
                 (A) (A) (A) (A) (A) (A) (A) (A) (A) (A) (A) (A)
                 (A) (A) (A) (A) (A) (A) (A) (A) (A) (A) (A) (A)
                 (A) (A) (A) (A) (A) (A) (A) (A) (A) (A) (A) (A)
                 (A) (A) (A) (A) (A) (A) (A) (A) (A) (A) (A) (A)
                 (A) (A) (A) (A) (A) (A) (A) (A) (A) (A) (A) (A)
                 (A) (A) (A) (A) (A) (A) (A) (A) (A) (A) (A) (A)
                 (A) (A) (A) (A) (A) (A) (A) (A) (A) (A) (A) (A)
                 (A) (A) (A) (A) (A) (A) (A) (A) (A) (A) (A) (A)
                 (A) (A) (A) (A) (A) (A) (A) (A) (A) (A) (A) (A)
                 (A) (A) (A) (A) (A) (A) (A) (A) (A) (A) (A) (A)
                 (A) (A) (A) (A) (A) (A) (A) (A) (A) (A) (A) (A)
                 (A) (A) (A) (A) (A) (A) (A) (A) (A) (A) (A) (A)
                 (A) (A) (A) (A) (A) (A) (A) (A) (A) (A) (A) (A)
                 (A) (A) (A) (A) (A) (A) (A) (A) (A) (A) (A) (A)
                 (A) (A) (A) (A) (A) (A) (A) (A) (A) (A) (A) (A)
                 (A) (A) (A) (A) (A) (A) (A) (A) (A) (A) (A) (A)
                 (A) (A) (A) (A) (A) (A) (A) (A) (A) (A) (A) (A)
                 (A) (A) (A) (A) (A) (A) (A) (A) (A) (A) (A) (A)
                 (A) (A) (A) (A) (A) (A) (A) (A) (A) (A) (A) (A)
                 (A) (A) (A) (A) (A) (A) (A) (A) (A) (A) (A) (A)
                 (A) (A) (A) (A) (A) (A) (A) (A) (A) (A) (A) (A)
                 (A) (A) (A) (A) (A) (A) (A) (A) (A) (A) (A) (A)
                 (A) (A) (A) (A) (A) (A) (A) (A) (A) (A) (A) (A)
                 (A) (A) (A) (A) (A) (A) (A) (A) (A) (A) (A) (A)
                 (A) (A)
 The electronic state is 1-A.
 Alpha  occ. eigenvalues --  -19.60221 -19.53781 -14.70201 -10.59302 -10.55382
 Alpha  occ. eigenvalues --  -10.51441 -10.51227 -10.50682 -10.50172 -10.49739
 Alpha  occ. eigenvalues --  -10.47722  -1.15882  -1.06622  -0.98279  -0.86717
 Alpha  occ. eigenvalues --   -0.82767  -0.76240  -0.74810  -0.69929  -0.65330
 Alpha  occ. eigenvalues --   -0.59590  -0.56377  -0.54158  -0.51865  -0.50344
 Alpha  occ. eigenvalues --   -0.49774  -0.48441  -0.47042  -0.45657  -0.43684
 Alpha  occ. eigenvalues --   -0.43020  -0.42178  -0.41256  -0.40472  -0.38218
 Alpha  occ. eigenvalues --   -0.37267  -0.37033  -0.36245  -0.35306  -0.31888
 Alpha  occ. eigenvalues --   -0.29408  -0.27077  -0.17407
 Alpha virt. eigenvalues --    0.06878   0.09864   0.10551   0.12523   0.13166
 Alpha virt. eigenvalues --    0.13703   0.14415   0.15017   0.15389   0.15889
 Alpha virt. eigenvalues --    0.16715   0.16834   0.17482   0.18426   0.18883
 Alpha virt. eigenvalues --    0.19417   0.20209   0.20686   0.21530   0.22591
 Alpha virt. eigenvalues --    0.24340   0.24787   0.25184   0.25434   0.27901
 Alpha virt. eigenvalues --    0.27971   0.28891   0.29362   0.30404   0.31143
 Alpha virt. eigenvalues --    0.32416   0.34409   0.35291   0.35447   0.36239
 Alpha virt. eigenvalues --    0.38012   0.38709   0.38998   0.40169   0.42084
 Alpha virt. eigenvalues --    0.43071   0.43771   0.44095   0.45333   0.46160
 Alpha virt. eigenvalues --    0.46373   0.46744   0.47296   0.47917   0.47963
 Alpha virt. eigenvalues --    0.49005   0.49260   0.49730   0.50217   0.50403
 Alpha virt. eigenvalues --    0.51333   0.52472   0.52945   0.53124   0.53883
 Alpha virt. eigenvalues --    0.54427   0.55491   0.56327   0.58153   0.58787
 Alpha virt. eigenvalues --    0.59908   0.60164   0.61678   0.62384   0.62961
 Alpha virt. eigenvalues --    0.63704   0.65259   0.66750   0.68329   0.69979
 Alpha virt. eigenvalues --    0.70648   0.71227   0.71590   0.73366   0.74824
 Alpha virt. eigenvalues --    0.75693   0.77276   0.78388   0.79573   0.80335
 Alpha virt. eigenvalues --    0.81700   0.83696   0.85074   0.86236   0.86754
 Alpha virt. eigenvalues --    0.88297   0.89382   0.90791   0.91942   0.93852
 Alpha virt. eigenvalues --    0.94869   0.95524   0.96705   0.97424   0.97826
 Alpha virt. eigenvalues --    0.98544   0.99416   0.99588   1.01540   1.02350
 Alpha virt. eigenvalues --    1.02841   1.04001   1.04991   1.05327   1.06283
 Alpha virt. eigenvalues --    1.07360   1.09181   1.10218   1.12708   1.13351
 Alpha virt. eigenvalues --    1.14834   1.15437   1.15686   1.17314   1.17708
 Alpha virt. eigenvalues --    1.18540   1.18881   1.20773   1.21960   1.23431
 Alpha virt. eigenvalues --    1.23996   1.24980   1.25355   1.26112   1.26903
 Alpha virt. eigenvalues --    1.27658   1.29200   1.31652   1.32550   1.34175
 Alpha virt. eigenvalues --    1.35172   1.35288   1.37763   1.39041   1.40917
 Alpha virt. eigenvalues --    1.41366   1.44038   1.45653   1.46234   1.46675
 Alpha virt. eigenvalues --    1.47018   1.47418   1.48958   1.49324   1.49987
 Alpha virt. eigenvalues --    1.50816   1.51290   1.52874   1.53367   1.54674
 Alpha virt. eigenvalues --    1.55201   1.55784   1.56829   1.58178   1.58334
 Alpha virt. eigenvalues --    1.59327   1.59902   1.60173   1.60484   1.61988
 Alpha virt. eigenvalues --    1.63737   1.64793   1.66014   1.67383   1.67775
 Alpha virt. eigenvalues --    1.69564   1.70734   1.72764   1.73604   1.76723
 Alpha virt. eigenvalues --    1.77478   1.79743   1.81317   1.84372   1.85224
 Alpha virt. eigenvalues --    1.87336   1.88845   1.91239   1.95261   1.96757
 Alpha virt. eigenvalues --    1.97733   2.00066   2.03459   2.05134   2.09093
 Alpha virt. eigenvalues --    2.10493   2.12521   2.13062   2.14237   2.16165
 Alpha virt. eigenvalues --    2.16861   2.20740   2.21133   2.24771   2.26991
 Alpha virt. eigenvalues --    2.28019   2.30412   2.30982   2.33481   2.38150
 Alpha virt. eigenvalues --    2.41737   2.42602   2.45037   2.45334   2.48209
 Alpha virt. eigenvalues --    2.49862   2.52070   2.52976   2.55192   2.56033
 Alpha virt. eigenvalues --    2.57441   2.58531   2.59531   2.60751   2.61753
 Alpha virt. eigenvalues --    2.62114   2.65083   2.66708   2.67501   2.69537
 Alpha virt. eigenvalues --    2.71094   2.72800   2.76096   2.77139   2.79598
 Alpha virt. eigenvalues --    2.81070   2.82845   2.84174   2.84487   2.85467
 Alpha virt. eigenvalues --    2.86351   2.87057   2.87567   2.88796   2.90105
 Alpha virt. eigenvalues --    2.91239   2.93119   2.93883   2.94843   2.95863
 Alpha virt. eigenvalues --    2.95977   2.96743   2.97406   2.98277   2.99786
 Alpha virt. eigenvalues --    3.00513   3.00852   3.01648   3.03471   3.04466
 Alpha virt. eigenvalues --    3.05601   3.07155   3.07698   3.08596   3.09398
 Alpha virt. eigenvalues --    3.09754   3.11103   3.12175   3.13801   3.14358
 Alpha virt. eigenvalues --    3.14898   3.16228   3.16815   3.17685   3.18915
 Alpha virt. eigenvalues --    3.19497   3.19855   3.20535   3.21346   3.22232
 Alpha virt. eigenvalues --    3.23816   3.24671   3.25867   3.27357   3.27832
 Alpha virt. eigenvalues --    3.29777   3.31905   3.32692   3.33507   3.33964
 Alpha virt. eigenvalues --    3.34993   3.35647   3.36750   3.37114   3.38006
 Alpha virt. eigenvalues --    3.39276   3.40389   3.42463   3.43160   3.44771
 Alpha virt. eigenvalues --    3.47885   3.48354   3.48636   3.49247   3.49858
 Alpha virt. eigenvalues --    3.52022   3.52273   3.53431   3.54455   3.55863
 Alpha virt. eigenvalues --    3.56237   3.58116   3.59351   3.59951   3.60570
 Alpha virt. eigenvalues --    3.61953   3.63319   3.63574   3.64667   3.65163
 Alpha virt. eigenvalues --    3.65879   3.67739   3.69622   3.72417   3.73735
 Alpha virt. eigenvalues --    3.74528   3.76213   3.77433   3.79431   3.79791
 Alpha virt. eigenvalues --    3.81615   3.82331   3.83478   3.84544   3.85212
 Alpha virt. eigenvalues --    3.87020   3.87676   3.89061   3.89434   3.89701
 Alpha virt. eigenvalues --    3.92237   3.93363   3.93677   3.95288   3.95506
 Alpha virt. eigenvalues --    3.96578   3.97024   3.97601   3.98650   4.00011
 Alpha virt. eigenvalues --    4.00303   4.00615   4.01775   4.02882   4.03961
 Alpha virt. eigenvalues --    4.04620   4.05567   4.06528   4.06980   4.07686
 Alpha virt. eigenvalues --    4.08762   4.09462   4.11140   4.12147   4.12466
 Alpha virt. eigenvalues --    4.13926   4.14100   4.16095   4.17234   4.19286
 Alpha virt. eigenvalues --    4.20920   4.22232   4.23838   4.24501   4.25685
 Alpha virt. eigenvalues --    4.27347   4.28054   4.30517   4.31700   4.32091
 Alpha virt. eigenvalues --    4.34171   4.36302   4.39403   4.40529   4.43895
 Alpha virt. eigenvalues --    4.47020   4.49652   4.50455   4.52638   4.54062
 Alpha virt. eigenvalues --    4.55078   4.55942   4.57819   4.58287   4.59196
 Alpha virt. eigenvalues --    4.60152   4.63848   4.64581   4.65349   4.69784
 Alpha virt. eigenvalues --    4.71604   4.73332   4.75166   4.76217   4.78305
 Alpha virt. eigenvalues --    4.79089   4.79650   4.81879   4.84937   4.85775
 Alpha virt. eigenvalues --    4.86421   4.87584   4.89779   4.90592   4.91945
 Alpha virt. eigenvalues --    4.94385   4.96557   4.97004   5.01936   5.02335
 Alpha virt. eigenvalues --    5.04806   5.09825   5.11377   5.12254   5.14846
 Alpha virt. eigenvalues --    5.17168   5.17405   5.18609   5.21519   5.22602
 Alpha virt. eigenvalues --    5.24357   5.25183   5.26577   5.27143   5.28770
 Alpha virt. eigenvalues --    5.29260   5.29496   5.30463   5.31479   5.32980
 Alpha virt. eigenvalues --    5.33981   5.34924   5.36327   5.38319   5.38940
 Alpha virt. eigenvalues --    5.40598   5.41137   5.42643   5.44118   5.46323
 Alpha virt. eigenvalues --    5.47629   5.51484   5.51836   5.52361   5.52946
 Alpha virt. eigenvalues --    5.57892   5.58974   5.60050   5.60301   5.62002
 Alpha virt. eigenvalues --    5.62426   5.63160   5.64130   5.66039   5.67151
 Alpha virt. eigenvalues --    5.71832   5.76756   5.86777   5.90150   5.93746
 Alpha virt. eigenvalues --    6.00977   6.06276   6.20867   6.24523   6.30710
 Alpha virt. eigenvalues --    6.43243   6.48496   6.55548   6.62367   6.76939
 Alpha virt. eigenvalues --    6.78455   6.86992   6.95047   7.00737   7.15125
 Alpha virt. eigenvalues --    7.21119   7.38257   7.46344  23.19547  23.24277
 Alpha virt. eigenvalues --   23.43618  23.46007  23.52277  23.67512  23.70739
 Alpha virt. eigenvalues --   23.79032  32.89965  44.19734  44.49792
          Condensed to atoms (all electrons):
               1          2          3          4          5          6
     1  O    8.125028   0.639427  -0.122529  -0.000760   0.002437  -0.000592
     2  C    0.639427   4.466241   0.524532  -0.084567  -0.001877   0.002464
     3  C   -0.122529   0.524532   5.329631   0.443091  -0.199014   0.007233
     4  N   -0.000760  -0.084567   0.443091   6.431402   0.640821  -0.122743
     5  C    0.002437  -0.001877  -0.199014   0.640821   5.198060   0.246169
     6  C   -0.000592   0.002464   0.007233  -0.122743   0.246169   5.216226
     7  C    0.000132  -0.000526  -0.000760  -0.002535  -0.045187   0.251803
     8  C   -0.000003   0.000227   0.000625   0.003934  -0.095354   0.283391
     9  O   -0.112010   0.282540  -0.106300   0.004999   0.000341  -0.000074
    10  C   -0.006312  -0.069329  -0.003184  -0.000155   0.000024  -0.000011
    11  C   -0.027946   0.009146   0.007908  -0.000052  -0.000021  -0.000000
    12  H    0.004922  -0.053373   0.409999  -0.051263  -0.009921  -0.008243
    13  H   -0.000054  -0.004039  -0.007132  -0.054929   0.451316  -0.114915
    14  H   -0.000010  -0.000293   0.000621  -0.001025  -0.074434   0.475099
    15  H    0.000538   0.000287  -0.001202   0.009262  -0.006698  -0.039778
    16  H    0.000012   0.000013   0.000070   0.001886   0.017204  -0.053835
    17  H    0.000189  -0.000674  -0.000745   0.005270  -0.006614  -0.028301
    18  H    0.000000  -0.000003   0.000004  -0.000263   0.016033  -0.038987
    19  H    0.000000  -0.000008   0.000016   0.000310  -0.006661  -0.039877
    20  H   -0.000001  -0.000125  -0.000632   0.001075  -0.003419  -0.021088
    21  H    0.001746   0.006476   0.001424   0.000003  -0.000000   0.000000
    22  H    0.020207  -0.015094   0.003404  -0.000084   0.000003   0.000003
    23  H    0.018175   0.000209   0.000133  -0.000005   0.000025   0.000003
    24  H    0.000391  -0.000172  -0.000312  -0.000000   0.000000  -0.000000
    25  H    0.001302  -0.002951  -0.000382   0.000004   0.000005   0.000000
               7          8          9         10         11         12
     1  O    0.000132  -0.000003  -0.112010  -0.006312  -0.027946   0.004922
     2  C   -0.000526   0.000227   0.282540  -0.069329   0.009146  -0.053373
     3  C   -0.000760   0.000625  -0.106300  -0.003184   0.007908   0.409999
     4  N   -0.002535   0.003934   0.004999  -0.000155  -0.000052  -0.051263
     5  C   -0.045187  -0.095354   0.000341   0.000024  -0.000021  -0.009921
     6  C    0.251803   0.283391  -0.000074  -0.000011  -0.000000  -0.008243
     7  C    5.021717  -0.049597   0.000013   0.000002   0.000000   0.000753
     8  C   -0.049597   5.085845  -0.000001   0.000000  -0.000000   0.000085
     9  O    0.000013  -0.000001   8.155116   0.238142  -0.054563   0.014631
    10  C    0.000002   0.000000   0.238142   4.869047   0.238784   0.002179
    11  C    0.000000  -0.000000  -0.054563   0.238784   5.116792   0.000031
    12  H    0.000753   0.000085   0.014631   0.002179   0.000031   0.617675
    13  H    0.013019  -0.001352   0.000065   0.000028  -0.000003   0.022898
    14  H   -0.052591  -0.089343  -0.000001  -0.000000   0.000000   0.000019
    15  H    0.417543   0.012594   0.000009   0.000004  -0.000002   0.000152
    16  H    0.422173  -0.007705   0.000000  -0.000000   0.000000   0.000017
    17  H    0.407213  -0.017765   0.000003  -0.000003   0.000001   0.000093
    18  H   -0.009719   0.408004   0.000000  -0.000000   0.000000  -0.000002
    19  H    0.010420   0.414450   0.000000   0.000000   0.000000   0.000064
    20  H   -0.011643   0.387398   0.000000  -0.000000   0.000000   0.000005
    21  H   -0.000000   0.000000  -0.035626   0.415991  -0.047451  -0.000351
    22  H   -0.000000   0.000000  -0.048865   0.442432  -0.078791  -0.000068
    23  H   -0.000001   0.000000  -0.003625  -0.032845   0.399709  -0.000129
    24  H   -0.000000   0.000000   0.005710  -0.028950   0.392000   0.000001
    25  H    0.000000   0.000000   0.005001  -0.031666   0.387396   0.000037
              13         14         15         16         17         18
     1  O   -0.000054  -0.000010   0.000538   0.000012   0.000189   0.000000
     2  C   -0.004039  -0.000293   0.000287   0.000013  -0.000674  -0.000003
     3  C   -0.007132   0.000621  -0.001202   0.000070  -0.000745   0.000004
     4  N   -0.054929  -0.001025   0.009262   0.001886   0.005270  -0.000263
     5  C    0.451316  -0.074434  -0.006698   0.017204  -0.006614   0.016033
     6  C   -0.114915   0.475099  -0.039778  -0.053835  -0.028301  -0.038987
     7  C    0.013019  -0.052591   0.417543   0.422173   0.407213  -0.009719
     8  C   -0.001352  -0.089343   0.012594  -0.007705  -0.017765   0.408004
     9  O    0.000065  -0.000001   0.000009   0.000000   0.000003   0.000000
    10  C    0.000028  -0.000000   0.000004  -0.000000  -0.000003  -0.000000
    11  C   -0.000003   0.000000  -0.000002   0.000000   0.000001   0.000000
    12  H    0.022898   0.000019   0.000152   0.000017   0.000093  -0.000002
    13  H    0.651017  -0.001318   0.000806   0.000093   0.000671  -0.000518
    14  H   -0.001318   0.671286  -0.007558  -0.006023   0.010292  -0.002018
    15  H    0.000806  -0.007558   0.546455  -0.021771  -0.024796  -0.000407
    16  H    0.000093  -0.006023  -0.021771   0.568839  -0.026020   0.002270
    17  H    0.000671   0.010292  -0.024796  -0.026020   0.566998   0.000641
    18  H   -0.000518  -0.002018  -0.000407   0.002270   0.000641   0.563563
    19  H    0.004242  -0.003615  -0.000400  -0.000026   0.000038  -0.023188
    20  H    0.000225   0.011196  -0.000349  -0.000046   0.005632  -0.021559
    21  H    0.000000  -0.000000  -0.000000  -0.000000  -0.000000  -0.000000
    22  H   -0.000003   0.000000  -0.000002  -0.000000  -0.000000  -0.000000
    23  H   -0.000000  -0.000000   0.000002  -0.000000  -0.000001  -0.000000
    24  H    0.000000  -0.000000   0.000000  -0.000000  -0.000000  -0.000000
    25  H   -0.000000  -0.000000   0.000000  -0.000000  -0.000000  -0.000000
              19         20         21         22         23         24
     1  O    0.000000  -0.000001   0.001746   0.020207   0.018175   0.000391
     2  C   -0.000008  -0.000125   0.006476  -0.015094   0.000209  -0.000172
     3  C    0.000016  -0.000632   0.001424   0.003404   0.000133  -0.000312
     4  N    0.000310   0.001075   0.000003  -0.000084  -0.000005  -0.000000
     5  C   -0.006661  -0.003419  -0.000000   0.000003   0.000025   0.000000
     6  C   -0.039877  -0.021088   0.000000   0.000003   0.000003  -0.000000
     7  C    0.010420  -0.011643  -0.000000  -0.000000  -0.000001  -0.000000
     8  C    0.414450   0.387398   0.000000   0.000000   0.000000   0.000000
     9  O    0.000000   0.000000  -0.035626  -0.048865  -0.003625   0.005710
    10  C    0.000000  -0.000000   0.415991   0.442432  -0.032845  -0.028950
    11  C    0.000000   0.000000  -0.047451  -0.078791   0.399709   0.392000
    12  H    0.000064   0.000005  -0.000351  -0.000068  -0.000129   0.000001
    13  H    0.004242   0.000225   0.000000  -0.000003  -0.000000   0.000000
    14  H   -0.003615   0.011196  -0.000000   0.000000  -0.000000  -0.000000
    15  H   -0.000400  -0.000349  -0.000000  -0.000002   0.000002   0.000000
    16  H   -0.000026  -0.000046  -0.000000  -0.000000  -0.000000  -0.000000
    17  H    0.000038   0.005632  -0.000000  -0.000000  -0.000001  -0.000000
    18  H   -0.023188  -0.021559  -0.000000  -0.000000  -0.000000  -0.000000
    19  H    0.562716  -0.024922  -0.000000  -0.000000  -0.000000  -0.000000
    20  H   -0.024922   0.571316  -0.000000   0.000000  -0.000000  -0.000000
    21  H   -0.000000  -0.000000   0.585852  -0.028543   0.006770  -0.002695
    22  H   -0.000000   0.000000  -0.028543   0.606329  -0.008472   0.003839
    23  H   -0.000000  -0.000000   0.006770  -0.008472   0.549403  -0.022051
    24  H   -0.000000  -0.000000  -0.002695   0.003839  -0.022051   0.569612
    25  H   -0.000000  -0.000000  -0.006226   0.009417  -0.025925  -0.017603
              25
     1  O    0.001302
     2  C   -0.002951
     3  C   -0.000382
     4  N    0.000004
     5  C    0.000005
     6  C    0.000000
     7  C    0.000000
     8  C    0.000000
     9  O    0.005001
    10  C   -0.031666
    11  C    0.387396
    12  H    0.000037
    13  H   -0.000000
    14  H   -0.000000
    15  H    0.000000
    16  H   -0.000000
    17  H   -0.000000
    18  H   -0.000000
    19  H   -0.000000
    20  H   -0.000000
    21  H   -0.006226
    22  H    0.009417
    23  H   -0.025925
    24  H   -0.017603
    25  H    0.581836
 Mulliken charges:
               1
     1  O   -0.544290
     2  C    0.301467
     3  C   -0.286498
     4  N   -0.223676
     5  C   -0.123237
     6  C   -0.013949
     7  C   -0.372229
     8  C   -0.335433
     9  O   -0.345506
    10  C   -0.034178
    11  C   -0.342941
    12  H    0.049789
    13  H    0.039882
    14  H    0.069714
    15  H    0.115309
    16  H    0.102849
    17  H    0.107877
    18  H    0.106148
    19  H    0.106440
    20  H    0.106934
    21  H    0.102629
    22  H    0.094288
    23  H    0.118626
    24  H    0.100231
    25  H    0.099753
 Sum of Mulliken charges =  -1.00000
 Mulliken charges with hydrogens summed into heavy atoms:
               1
     1  O   -0.544290
     2  C    0.301467
     3  C   -0.236709
     4  N   -0.223676
     5  C   -0.083355
     6  C    0.055764
     7  C   -0.046194
     8  C   -0.015911
     9  O   -0.345506
    10  C    0.162739
    11  C   -0.024331
 Electronic spatial extent (au):  <R**2>=           3256.7378
 Charge=             -1.0000 electrons
 Dipole moment (field-independent basis, Debye):
    X=              2.0462    Y=             -1.7088    Z=             -0.9303  Tot=              2.8236
 Quadrupole moment (field-independent basis, Debye-Ang):
   XX=            -80.8925   YY=            -79.3636   ZZ=            -74.0824
   XY=              1.0831   XZ=             -0.2327   YZ=             -1.1847
 Traceless Quadrupole moment (field-independent basis, Debye-Ang):
   XX=             -2.7797   YY=             -1.2507   ZZ=              4.0304
   XY=              1.0831   XZ=             -0.2327   YZ=             -1.1847
 Octapole moment (field-independent basis, Debye-Ang**2):
  XXX=            -33.6532  YYY=             -5.1635  ZZZ=              3.9468  XYY=              2.6891
  XXY=             -1.0121  XXZ=              0.0408  XZZ=             -5.2308  YZZ=              0.7865
  YYZ=             -3.5074  XYZ=              2.6156
 Hexadecapole moment (field-independent basis, Debye-Ang**3):
 XXXX=          -4002.1954 YYYY=           -419.2811 ZZZZ=           -196.0950 XXXY=             24.8925
 XXXZ=            -51.4689 YYYX=              0.9830 YYYZ=             -0.8324 ZZZX=             -5.8286
 ZZZY=              0.8092 XXYY=           -761.3255 XXZZ=           -711.1228 YYZZ=           -104.2801
 XXYZ=              2.3141 YYXZ=             -2.1105 ZZXY=              5.1991
 N-N= 5.965230015358D+02 E-N=-2.416876581735D+03  KE= 5.158179366871D+02
 There are a total of      571000 grid points.
 ElSum from          density=       85.9999803263
 ElSum from atomic densities=       84.9999698347
 Hirshfeld populations at iteration   1 (CA, CB, DipXYZ):
               1          2          3          4          5
     1  O    4.206676   4.206676  -0.044314  -0.214271  -0.059322
     2  C    2.950660   2.950660  -0.138929  -0.028793   0.004475
     3  C    3.090875   3.090875   0.062197   0.005861  -0.006563
     4  N    3.589851   3.589851  -0.012117  -0.160248  -0.032379
     5  C    3.022272   3.022272   0.061343  -0.010368  -0.010499
     6  C    3.015353   3.015353   0.013065   0.003032   0.017919
     7  C    3.049809   3.049809   0.026127  -0.015822  -0.013373
     8  C    3.046969   3.046969  -0.005164   0.014379  -0.018115
     9  O    4.098206   4.098206  -0.028934   0.173855   0.031283
    10  C    2.995191   2.995191   0.028251  -0.020534  -0.029742
    11  C    3.050923   3.050923  -0.014298  -0.006957   0.019926
    12  H    0.509416   0.509416   0.004007  -0.123508  -0.026270
    13  H    0.498878   0.498878   0.011938  -0.112589  -0.027305
    14  H    0.491154   0.491154   0.049403   0.003723  -0.119217
    15  H    0.491228   0.491228  -0.072330   0.072574  -0.079120
    16  H    0.490488   0.490488   0.116373   0.065799  -0.011093
    17  H    0.491164   0.491164  -0.029828   0.011463   0.125274
    18  H    0.488337   0.488337   0.121348   0.059546  -0.014245
    19  H    0.488781   0.488781   0.015256  -0.127764  -0.042214
    20  H    0.489296   0.489296  -0.031115   0.002727   0.128743
    21  H    0.488235   0.488235  -0.092837  -0.095965   0.035578
    22  H    0.492211   0.492211  -0.018780   0.069611   0.100402
    23  H    0.489589   0.489589   0.061306   0.098653  -0.040781
    24  H    0.485885   0.485885  -0.126363   0.050638   0.032235
    25  H    0.488544   0.488544  -0.013725  -0.084755  -0.106577
       Tot  42.999990  42.999990  -0.058121  -0.369717  -0.140981

 Dip from Atomic Chgs              0.863179  -0.302567  -0.225049
         Total Dipole              0.805058  -0.672284  -0.366030

 Hirshfeld charges, spin densities, dipoles, and CM5 charges using IRadAn=      5:
              Q-H        S-H        Dx         Dy         Dz        Q-CM5   
     1  O   -0.413351   0.000000  -0.044314  -0.214271  -0.059322  -0.461228
     2  C    0.098680   0.000000  -0.138929  -0.028793   0.004475   0.155601
     3  C   -0.181749   0.000000   0.062197   0.005861  -0.006563  -0.152779
     4  N   -0.179702   0.000000  -0.012117  -0.160248  -0.032379  -0.383101
     5  C   -0.044543   0.000000   0.061343  -0.010368  -0.010499  -0.011519
     6  C   -0.030706   0.000000   0.013065   0.003032   0.017919  -0.093565
     7  C   -0.099618   0.000000   0.026127  -0.015822  -0.013373  -0.242490
     8  C   -0.093938   0.000000  -0.005164   0.014379  -0.018115  -0.238596
     9  O   -0.196413   0.000000  -0.028934   0.173855   0.031283  -0.278285
    10  C    0.009619   0.000000   0.028251  -0.020534  -0.029742  -0.069130
    11  C   -0.101846   0.000000  -0.014298  -0.006957   0.019926  -0.246273
    12  H   -0.018832   0.000000   0.004007  -0.123508  -0.026270   0.048252
    13  H    0.002244   0.000000   0.011938  -0.112589  -0.027305   0.064844
    14  H    0.017693   0.000000   0.049403   0.003723  -0.119217   0.074649
    15  H    0.017545   0.000000  -0.072330   0.072574  -0.079120   0.072190
    16  H    0.019024   0.000000   0.116373   0.065799  -0.011093   0.069571
    17  H    0.017671   0.000000  -0.029828   0.011463   0.125274   0.071564
    18  H    0.023325   0.000000   0.121348   0.059546  -0.014245   0.073483
    19  H    0.022438   0.000000   0.015256  -0.127764  -0.042214   0.073130
    20  H    0.021408   0.000000  -0.031115   0.002727   0.128743   0.072860
    21  H    0.023529   0.000000  -0.092837  -0.095965   0.035578   0.085979
    22  H    0.015579   0.000000  -0.018780   0.069611   0.100402   0.083452
    23  H    0.020822   0.000000   0.061306   0.098653  -0.040781   0.077452
    24  H    0.028230   0.000000  -0.126363   0.050638   0.032235   0.078411
    25  H    0.022912   0.000000  -0.013725  -0.084755  -0.106577   0.075547
       Tot  -0.999980   0.000000  -0.058121  -0.369717  -0.140981  -0.999980
 Hirshfeld charges with hydrogens summed into heavy atoms:
              Q-H       Q-CM5   
     1  O   -0.413351  -0.461228
     2  C    0.098680   0.155601
     3  C   -0.200581  -0.104527
     4  N   -0.179702  -0.383101
     5  C   -0.042299   0.053325
     6  C   -0.013013  -0.018916
     7  C   -0.045379  -0.029164
     8  C   -0.026767  -0.019122
     9  O   -0.196413  -0.278285
    10  C    0.048726   0.100301
    11  C   -0.029882  -0.014864
 
 EQQ=  0.00000000000     EQD=  0.00000000000     EDD=-0.181397994990E-02
 EQQ+QD+DD=-0.181397994990E-02
 
  Exact polarizability:     258.692     -15.591     143.025     -13.910       5.624     120.152
 Approx polarizability:     200.875     -13.934     139.205     -13.677       6.767     120.205
 Breneman (CHELPG) radii used.
 Read replacement radii for each type of atom:
 Atom Element Radius
    1     8    1.70
    2     6    1.50
    3     6    1.50
    4     7    1.70
    5     6    1.50
    6     6    1.50
    7     6    1.50
    8     6    1.50
    9     8    1.70
   10     6    1.50
   11     6    1.50
   12     1    1.45
   13     1    1.45
   14     1    1.45
   15     1    1.45
   16     1    1.45
   17     1    1.45
   18     1    1.45
   19     1    1.45
   20     1    1.45
   21     1    1.45
   22     1    1.45
   23     1    1.45
   24     1    1.45
   25     1    1.45
 Generate Potential Derived Charges using the Breneman model, NDens= 1.
 Grid spacing= 0.300 Box extension= 2.800
 NStep X,Y,Z=   56     32     30   Total possible points=       53760
 Number of Points to Fit=   16385

 **********************************************************************

            Electrostatic Properties Using The SCF Density.

 **********************************************************************

       Atomic Center    1 is at  -1.614825  1.157880  0.503781
       Atomic Center    2 is at  -1.433486 -0.021867  0.223818
       Atomic Center    3 is at  -0.256655 -0.732960 -0.090536
       Atomic Center    4 is at   0.940547 -0.105681 -0.126616
       Atomic Center    5 is at   2.049582 -0.686959 -0.407163
       Atomic Center    6 is at   3.366864  0.054494 -0.443024
       Atomic Center    7 is at   3.200567  1.501257  0.006679
       Atomic Center    8 is at   4.424370 -0.668009  0.399274
       Atomic Center    9 is at  -2.551903 -0.882840  0.189427
       Atomic Center   10 is at  -3.782436 -0.279520  0.470892
       Atomic Center   11 is at  -4.346605  0.461223 -0.734823
       Atomic Center   12 is at  -0.344642 -1.808141 -0.304292
       Atomic Center   13 is at   2.093881 -1.771965 -0.647588
       Atomic Center   14 is at   3.747338  0.064416 -1.487072
       Atomic Center   15 is at   2.435431  2.005604 -0.597012
       Atomic Center   16 is at   4.153336  2.052321 -0.060585
       Atomic Center   17 is at   2.839618  1.529387  1.045585
       Atomic Center   18 is at   5.415468 -0.191033  0.311229
       Atomic Center   19 is at   4.524766 -1.720452  0.089464
       Atomic Center   20 is at   4.128070 -0.661060  1.460543
       Atomic Center   21 is at  -4.463850 -1.092387  0.774021
       Atomic Center   22 is at  -3.678937  0.426337  1.310346
       Atomic Center   23 is at  -3.668291  1.287642 -0.983852
       Atomic Center   24 is at  -5.347955  0.868768 -0.521595
       Atomic Center   25 is at  -4.417453 -0.215939 -1.599244
 Evaluate density.
 Using the total density.
 Monte-Carlo method of calculating molar volume:
 based on  0.001 e/bohr**3 density envelope.
 Number of points per bohr**3 =   20 CutOff= 1.00D-04
 Using the SCF density.
 There are       396 points.  Will hold       396 in memory.
 LenV=  6441881010 MDV=  6442450944.
 Box volume = 7813.170 fraction occupied=0.215
 Integrated density= 9.4231289281184473D+01 error= 8.2312892811844733D+00
 Molar volume = 1677.069 bohr**3/mol (149.660 cm**3/mol)
 Recommended a0 for SCRF calculation =  4.79 angstrom (  9.06 bohr)
 Running external command "gaunbo7 R"
         input file       "/scratch/general/vast/u6067110/5269608-notchpeak.peaks/Gau-1431661.EIn"
         output file      "/scratch/general/vast/u6067110/5269608-notchpeak.peaks/Gau-1431661.EOu"
         message file     "/scratch/general/vast/u6067110/5269608-notchpeak.peaks/Gau-1431661.EMs"
         fchk file        "/scratch/general/vast/u6067110/5269608-notchpeak.peaks/Gau-1431661.EFC"
         mat. el file     "/scratch/general/vast/u6067110/5269608-notchpeak.peaks/Gau-1431661.EUF"

 Writing WrtUnf unformatted file "/scratch/general/vast/u6067110/5269608-notchpeak.peaks/Gau-1431661.EUF"
 Gaussian matrix elements                                         Version   2 NLab=11 Len12L=8 Len4L=8
 Write SHELL TO ATOM MAP                   from file      0 offset           0 length                 205 to matrix element file.
 Write SHELL TYPES                         from file      0 offset           0 length                 205 to matrix element file.
 Write NUMBER OF PRIMITIVES PER SHELL      from file      0 offset           0 length                 205 to matrix element file.
 Write PRIMITIVE EXPONENTS                 from file      0 offset           0 length                 332 to matrix element file.
 Write CONTRACTION COEFFICIENTS            from file      0 offset           0 length                 332 to matrix element file.
 Write P(S=P) CONTRACTION COEFFICIENTS     from file      0 offset           0 length                 332 to matrix element file.
 Write COORDINATES OF EACH SHELL           from file      0 offset           0 length                 615 to matrix element file.
 Write BONDS PER ATOM                      from file      0 offset           0 length                  25 to matrix element file.
 Write BONDED ATOMS                        from file      0 offset           0 length                  48 to matrix element file.
 Write BOND TYPES                          from file      0 offset           0 length                  48 to matrix element file.
 Write ONIOM CHARGE/MULT                   from file      0 offset           0 length                  32 to matrix element file.
 Write ONIOM ATOM LAYERS                   from file      0 offset           0 length                  25 to matrix element file.
 Write ONIOM ATOM MODIFIERS                from file      0 offset           0 length                  25 to matrix element file.
 Write ONIOM ATOM TYPES                    from file      0 offset           0 length                  25 to matrix element file.
 Write ONIOM LINK ATOMS                    from file      0 offset           0 length                  25 to matrix element file.
 Write ONIOM LINK CHARGES                  from file      0 offset           0 length                  25 to matrix element file.
 Write ONIOM LINK DISTANCES                from file      0 offset           0 length                 100 to matrix element file.
 Write SYMINF INTS                         from file      0 offset           0 length                  26 to matrix element file.
 Write ROTTR TO SO                         from file      0 offset           0 length                  12 to matrix element file.
 Write GAUSSIAN SCALARS                    from file    501 offset           0 to matrix element file.
 Write OPTIMIZATION FLAGS                  from file      0 offset           0 length                  25 to matrix element file.
 Write INTEGER ISO                         from file      0 offset           0 length                  25 to matrix element file.
 Write INTEGER SPIN                        from file      0 offset           0 length                  25 to matrix element file.
 Write REAL ZEFFECTIVE                     from file      0 offset           0 length                  25 to matrix element file.
 Write REAL QUADRUPOLEMOMENT               from file      0 offset           0 length                  25 to matrix element file.
 Write REAL GFACTOR                        from file      0 offset           0 length                  25 to matrix element file.
 Write REAL ZNUCLEAR                       from file      0 offset           0 length                  25 to matrix element file.
 Write MULLIKEN CHARGES                    from file      0 offset           0 length                  25 to matrix element file.
 Write TYPE 6 CHARGES                      from file      0 offset           0 length                  25 to matrix element file.
 Write TYPE 7 CHARGES                      from file      0 offset           0 length                  25 to matrix element file.
 Write NUCLEAR GRADIENT                    from file  10584 offset           0 length                  75 to matrix element file.
 Array NUCLEAR FORCE CONSTANTS              on  file  10585 does not exist.
 Write ELECTRIC DIPOLE MOMENT              from file      0 offset           0 length                   3 to matrix element file.
 Write ELECTRIC DIPOLE POLARIZABILITY      from file      0 offset           0 length                   6 to matrix element file.
 Write ELECTRIC DIPOLE HYPERPOLARIZABILITY from file      0 offset           0 length                  10 to matrix element file.
 Write NON-ADIABATIC COUPLING              from file  10810 offset           0 length                  75 to matrix element file.
 Write RED INT COORD DIMS                  from file      0 offset           0 length                   4 to matrix element file.
 Write RED INT COORD ATOMS                 from file      0 offset           0 length                 444 to matrix element file.
 Write RED INT COORD VALS                  from file      0 offset           0 length                 111 to matrix element file.
 Write RED INT COORD IFLAGS                from file      0 offset           0 length                 111 to matrix element file.
 Write RED INT COORD RFLAGS                from file      0 offset           0 length                 111 to matrix element file.
 Write RED INT COORD CONSTRAINT            from file      0 offset           0 length                 222 to matrix element file.
 Write FINITE EM FIELD                     from file  10521 offset           0 length                  35 to matrix element file.
 Write OVERLAP                             from file  10514 offset           0 length              144453 to matrix element file.
 Write CORE HAMILTONIAN ALPHA              from file  10515 offset           0 length              144453 to matrix element file.
 Write CORE HAMILTONIAN BETA               from file  10515 offset      144453 length              144453 to matrix element file.
 Write KINETIC ENERGY                      from file  10516 offset           0 length              144453 to matrix element file.
 Write ORTHOGONAL BASIS                    from file  10685 offset           0 length              288369 to matrix element file.
 Write DIPOLE INTEGRALS                    from file  10518 offset           0 length              433359 to matrix element file.
 Array DIP VEL INTEGRALS                    on  file  10572 does not exist.
 Array R X DEL INTEGRALS                    on  file  10572 does not exist.
 Write ALPHA ORBITAL ENERGIES              from file      0 offset           0 length                 537 to matrix element file.
 Write ALPHA MO COEFFICIENTS               from file  10524 offset           0 length              288369 to matrix element file.
 Write ALPHA DENSITY MATRIX                from file      0 offset           0 length              144453 to matrix element file.
 Write ALPHA FOCK MATRIX                   from file  10536 offset           0 length              144453 to matrix element file.
 Write ENERGY-WEIGHTED DENSITY             from file  10571 offset           0 length              144453 to matrix element file.
 Write ALPHA SCF DENSITY MATRIX            from file      0 offset           0 length              144453 to matrix element file.
 Write TRANS MO COEFFICIENTS               from file  10548 offset           0 length              288369 to matrix element file.
 No 2e integrals to process.
 Perform NBO analysis...executing G16NBO...

 *********************************** NBO 7.0 ***********************************
             N A T U R A L   A T O M I C   O R B I T A L   A N D
          N A T U R A L   B O N D   O R B I T A L   A N A L Y S I S
 **************************** Anita Orendt (S101720) ***************************
  (c) Copyright 1996-2021 Board of Regents of the University of Wisconsin System
      on behalf of the Theoretical Chemistry Institute.  All rights reserved.

          Cite this program [NBO 7.0.10 (8-Feb-2021)] as:

          NBO 7.0.  E. D. Glendening, J. K. Badenhoop, A. E. Reed,
          J. E. Carpenter, J. A. Bohmann, C. M. Morales, P. Karafiloglou,
          C. R. Landis, and F. Weinhold, Theoretical Chemistry Institute,
          University of Wisconsin, Madison, WI (2018)

 Filename set to /scratch/general/vast/u6067110/5269608-notchpeak.pea

 Job title: A18_crest_conformers_censo-18


 NATURAL POPULATIONS:  Natural atomic orbital occupancies

  NAO Atom No lang   Type(AO)    Occupancy      Energy
 -------------------------------------------------------
   1    O  1  s      Cor( 1s)     2.00000     -19.53763
   2    O  1  s      Val( 2s)     1.70001      -0.69855
   3    O  1  s      Ryd( 3s)     0.00041       1.42994
   4    O  1  s      Ryd( 4s)     0.00004       6.88724
   5    O  1  s      Ryd( 5s)     0.00000      39.72430
   6    O  1  px     Val( 2p)     1.83684      -0.27311
   7    O  1  px     Ryd( 3p)     0.00197       0.85632
   8    O  1  px     Ryd( 4p)     0.00002       3.36640
   9    O  1  py     Val( 2p)     1.57430      -0.26117
  10    O  1  py     Ryd( 3p)     0.00103       0.70928
  11    O  1  py     Ryd( 4p)     0.00014       3.96251
  12    O  1  pz     Val( 2p)     1.62826      -0.25096
  13    O  1  pz     Ryd( 3p)     0.00254       0.71986
  14    O  1  pz     Ryd( 4p)     0.00002       3.06579
  15    O  1  dxy    Ryd( 3d)     0.00400       2.12073
  16    O  1  dxy    Ryd( 4d)     0.00002       6.78560
  17    O  1  dxz    Ryd( 3d)     0.00036       1.75197
  18    O  1  dxz    Ryd( 4d)     0.00000       6.42277
  19    O  1  dyz    Ryd( 3d)     0.00525       2.01783
  20    O  1  dyz    Ryd( 4d)     0.00002       6.63879
  21    O  1  dx2y2  Ryd( 3d)     0.00605       2.15325
  22    O  1  dx2y2  Ryd( 4d)     0.00001       6.74869
  23    O  1  dz2    Ryd( 3d)     0.00233       1.90488
  24    O  1  dz2    Ryd( 4d)     0.00000       6.59374
  25    O  1  f(0)   Ryd( 4f)     0.00004       5.57440
  26    O  1  f(c1)  Ryd( 4f)     0.00000       5.34774
  27    O  1  f(s1)  Ryd( 4f)     0.00009       5.85440
  28    O  1  f(c2)  Ryd( 4f)     0.00012       5.76262
  29    O  1  f(s2)  Ryd( 4f)     0.00003       5.61865
  30    O  1  f(c3)  Ryd( 4f)     0.00017       6.08844
  31    O  1  f(s3)  Ryd( 4f)     0.00012       6.01417

  32    C  2  s      Cor( 1s)     1.99999     -10.59292
  33    C  2  s      Val( 2s)     0.82357      -0.04708
  34    C  2  s      Ryd( 3s)     0.00433       1.49199
  35    C  2  s      Ryd( 4s)     0.00024       2.16942
  36    C  2  s      Ryd( 5s)     0.00000      22.01671
  37    C  2  px     Val( 2p)     0.85425       0.03586
  38    C  2  px     Ryd( 3p)     0.00537       1.34261
  39    C  2  px     Ryd( 4p)     0.00027       1.74992
  40    C  2  py     Val( 2p)     0.76586       0.09949
  41    C  2  py     Ryd( 3p)     0.01735       1.26756
  42    C  2  py     Ryd( 4p)     0.00027       1.41434
  43    C  2  pz     Val( 2p)     0.84239      -0.04957
  44    C  2  pz     Ryd( 3p)     0.00342       0.90318
  45    C  2  pz     Ryd( 4p)     0.00039       1.14871
  46    C  2  dxy    Ryd( 4d)     0.00206       3.58282
  47    C  2  dxy    Ryd( 3d)     0.00029       3.21749
  48    C  2  dxz    Ryd( 4d)     0.00160       2.46425
  49    C  2  dxz    Ryd( 3d)     0.00018       2.44312
  50    C  2  dyz    Ryd( 4d)     0.00201       2.69836
  51    C  2  dyz    Ryd( 3d)     0.00014       2.49749
  52    C  2  dx2y2  Ryd( 4d)     0.00070       3.21462
  53    C  2  dx2y2  Ryd( 3d)     0.00042       3.40054
  54    C  2  dz2    Ryd( 4d)     0.00065       2.86847
  55    C  2  dz2    Ryd( 3d)     0.00016       2.68847
  56    C  2  f(0)   Ryd( 4f)     0.00023       3.39918
  57    C  2  f(c1)  Ryd( 4f)     0.00016       3.40711
  58    C  2  f(s1)  Ryd( 4f)     0.00017       3.49705
  59    C  2  f(c2)  Ryd( 4f)     0.00006       3.42419
  60    C  2  f(s2)  Ryd( 4f)     0.00009       3.52261
  61    C  2  f(c3)  Ryd( 4f)     0.00007       4.05587
  62    C  2  f(s3)  Ryd( 4f)     0.00030       3.89760

  63    C  3  s      Cor( 1s)     1.99999     -10.47713
  64    C  3  s      Val( 2s)     0.94742      -0.07804
  65    C  3  s      Ryd( 3s)     0.00462       1.17154
  66    C  3  s      Ryd( 4s)     0.00021       2.75770
  67    C  3  s      Ryd( 5s)     0.00000      19.65301
  68    C  3  px     Val( 2p)     0.93987       0.03804
  69    C  3  px     Ryd( 3p)     0.00581       0.92977
  70    C  3  px     Ryd( 4p)     0.00040       1.84172
  71    C  3  py     Val( 2p)     1.11331       0.00189
  72    C  3  py     Ryd( 3p)     0.00443       0.94253
  73    C  3  py     Ryd( 4p)     0.00100       1.78787
  74    C  3  pz     Val( 2p)     1.34628      -0.08511
  75    C  3  pz     Ryd( 3p)     0.01039       0.54027
  76    C  3  pz     Ryd( 4p)     0.00019       1.51567
  77    C  3  dxy    Ryd( 3d)     0.00128       3.57877
  78    C  3  dxy    Ryd( 4d)     0.00022       3.75837
  79    C  3  dxz    Ryd( 3d)     0.00073       2.18903
  80    C  3  dxz    Ryd( 4d)     0.00015       2.89217
  81    C  3  dyz    Ryd( 3d)     0.00041       2.04223
  82    C  3  dyz    Ryd( 4d)     0.00006       2.93639
  83    C  3  dx2y2  Ryd( 3d)     0.00073       2.74953
  84    C  3  dx2y2  Ryd( 4d)     0.00034       3.91481
  85    C  3  dz2    Ryd( 3d)     0.00076       2.58288
  86    C  3  dz2    Ryd( 4d)     0.00005       3.29339
  87    C  3  f(0)   Ryd( 4f)     0.00055       3.37756
  88    C  3  f(c1)  Ryd( 4f)     0.00028       3.49416
  89    C  3  f(s1)  Ryd( 4f)     0.00037       3.33785
  90    C  3  f(c2)  Ryd( 4f)     0.00014       3.39966
  91    C  3  f(s2)  Ryd( 4f)     0.00006       3.46570
  92    C  3  f(c3)  Ryd( 4f)     0.00010       3.97355
  93    C  3  f(s3)  Ryd( 4f)     0.00039       3.94134

  94    N  4  s      Cor( 1s)     1.99999     -14.70192
  95    N  4  s      Val( 2s)     1.32836      -0.36716
  96    N  4  s      Ryd( 3s)     0.00382       1.08743
  97    N  4  s      Ryd( 4s)     0.00007       4.17627
  98    N  4  s      Ryd( 5s)     0.00000      29.25192
  99    N  4  px     Val( 2p)     1.21926      -0.08685
 100    N  4  px     Ryd( 3p)     0.00276       1.16497
 101    N  4  px     Ryd( 4p)     0.00008       3.57451
 102    N  4  py     Val( 2p)     1.67182      -0.20419
 103    N  4  py     Ryd( 3p)     0.00774       0.78377
 104    N  4  py     Ryd( 4p)     0.00015       3.31916
 105    N  4  pz     Val( 2p)     1.17418      -0.14630
 106    N  4  pz     Ryd( 3p)     0.00128       0.65175
 107    N  4  pz     Ryd( 4p)     0.00004       2.56223
 108    N  4  dxy    Ryd( 3d)     0.00599       2.13086
 109    N  4  dxy    Ryd( 4d)     0.00012       5.38325
 110    N  4  dxz    Ryd( 3d)     0.00113       1.73812
 111    N  4  dxz    Ryd( 4d)     0.00019       4.95067
 112    N  4  dyz    Ryd( 3d)     0.00307       1.50712
 113    N  4  dyz    Ryd( 4d)     0.00002       4.77463
 114    N  4  dx2y2  Ryd( 3d)     0.00283       2.23135
 115    N  4  dx2y2  Ryd( 4d)     0.00020       5.30244
 116    N  4  dz2    Ryd( 3d)     0.00409       1.79147
 117    N  4  dz2    Ryd( 4d)     0.00002       5.02480
 118    N  4  f(0)   Ryd( 4f)     0.00018       4.40522
 119    N  4  f(c1)  Ryd( 4f)     0.00025       4.59399
 120    N  4  f(s1)  Ryd( 4f)     0.00009       4.27309
 121    N  4  f(c2)  Ryd( 4f)     0.00015       4.46978
 122    N  4  f(s2)  Ryd( 4f)     0.00004       4.60668
 123    N  4  f(c3)  Ryd( 4f)     0.00019       5.01428
 124    N  4  f(s3)  Ryd( 4f)     0.00038       4.96837

 125    C  5  s      Cor( 1s)     1.99999     -10.51218
 126    C  5  s      Val( 2s)     0.93813      -0.09618
 127    C  5  s      Ryd( 3s)     0.00830       1.03106
 128    C  5  s      Ryd( 4s)     0.00030       2.16216
 129    C  5  s      Ryd( 5s)     0.00000      21.18951
 130    C  5  px     Val( 2p)     0.92009       0.04616
 131    C  5  px     Ryd( 3p)     0.00508       1.11977
 132    C  5  px     Ryd( 4p)     0.00026       1.85886
 133    C  5  py     Val( 2p)     1.07424      -0.00057
 134    C  5  py     Ryd( 3p)     0.00351       1.13275
 135    C  5  py     Ryd( 4p)     0.00072       1.63523
 136    C  5  pz     Val( 2p)     1.06311      -0.07093
 137    C  5  pz     Ryd( 3p)     0.00515       0.71948
 138    C  5  pz     Ryd( 4p)     0.00047       1.35119
 139    C  5  dxy    Ryd( 4d)     0.00087       3.44146
 140    C  5  dxy    Ryd( 3d)     0.00026       3.17049
 141    C  5  dxz    Ryd( 4d)     0.00051       2.81333
 142    C  5  dxz    Ryd( 3d)     0.00010       2.46176
 143    C  5  dyz    Ryd( 4d)     0.00030       2.63525
 144    C  5  dyz    Ryd( 3d)     0.00011       2.37259
 145    C  5  dx2y2  Ryd( 4d)     0.00086       3.05552
 146    C  5  dx2y2  Ryd( 3d)     0.00048       3.38137
 147    C  5  dz2    Ryd( 4d)     0.00071       3.02504
 148    C  5  dz2    Ryd( 3d)     0.00016       2.66982
 149    C  5  f(0)   Ryd( 4f)     0.00029       3.37606
 150    C  5  f(c1)  Ryd( 4f)     0.00027       3.43974
 151    C  5  f(s1)  Ryd( 4f)     0.00026       3.29781
 152    C  5  f(c2)  Ryd( 4f)     0.00010       3.44143
 153    C  5  f(s2)  Ryd( 4f)     0.00006       3.45216
 154    C  5  f(c3)  Ryd( 4f)     0.00011       3.89093
 155    C  5  f(s3)  Ryd( 4f)     0.00041       3.82216

 156    C  6  s      Cor( 1s)     1.99999     -10.51420
 157    C  6  s      Val( 2s)     1.01033      -0.17517
 158    C  6  s      Ryd( 3s)     0.00180       1.32543
 159    C  6  s      Ryd( 4s)     0.00004       6.43189
 160    C  6  s      Ryd( 5s)     0.00001      15.07840
 161    C  6  px     Val( 2p)     1.06151      -0.04231
 162    C  6  px     Ryd( 3p)     0.00205       1.04127
 163    C  6  px     Ryd( 4p)     0.00014       1.68287
 164    C  6  py     Val( 2p)     1.03770      -0.04056
 165    C  6  py     Ryd( 3p)     0.00128       1.08590
 166    C  6  py     Ryd( 4p)     0.00013       1.54841
 167    C  6  pz     Val( 2p)     1.13703      -0.07054
 168    C  6  pz     Ryd( 3p)     0.00226       1.06126
 169    C  6  pz     Ryd( 4p)     0.00010       1.64639
 170    C  6  dxy    Ryd( 3d)     0.00044       2.41152
 171    C  6  dxy    Ryd( 4d)     0.00036       3.85288
 172    C  6  dxz    Ryd( 3d)     0.00074       2.15732
 173    C  6  dxz    Ryd( 4d)     0.00020       3.70310
 174    C  6  dyz    Ryd( 3d)     0.00030       2.03000
 175    C  6  dyz    Ryd( 4d)     0.00035       3.55132
 176    C  6  dx2y2  Ryd( 3d)     0.00032       2.33850
 177    C  6  dx2y2  Ryd( 4d)     0.00037       3.79122
 178    C  6  dz2    Ryd( 3d)     0.00111       2.45989
 179    C  6  dz2    Ryd( 4d)     0.00017       3.88721
 180    C  6  f(0)   Ryd( 4f)     0.00015       3.65034
 181    C  6  f(c1)  Ryd( 4f)     0.00018       3.69674
 182    C  6  f(s1)  Ryd( 4f)     0.00002       3.54376
 183    C  6  f(c2)  Ryd( 4f)     0.00004       3.56063
 184    C  6  f(s2)  Ryd( 4f)     0.00006       3.56761
 185    C  6  f(c3)  Ryd( 4f)     0.00002       3.82909
 186    C  6  f(s3)  Ryd( 4f)     0.00029       3.71382

 187    C  7  s      Cor( 1s)     1.99999     -10.49725
 188    C  7  s      Val( 2s)     1.10848      -0.20312
 189    C  7  s      Ryd( 3s)     0.00054       1.57303
 190    C  7  s      Ryd( 4s)     0.00002       2.16983
 191    C  7  s      Ryd( 5s)     0.00000      21.92790
 192    C  7  px     Val( 2p)     1.19937      -0.07134
 193    C  7  px     Ryd( 3p)     0.00195       0.99182
 194    C  7  px     Ryd( 4p)     0.00004       1.83731
 195    C  7  py     Val( 2p)     1.07824      -0.05225
 196    C  7  py     Ryd( 3p)     0.00098       0.80884
 197    C  7  py     Ryd( 4p)     0.00012       2.19069
 198    C  7  pz     Val( 2p)     1.19977      -0.07799
 199    C  7  pz     Ryd( 3p)     0.00062       0.77168
 200    C  7  pz     Ryd( 4p)     0.00002       1.83141
 201    C  7  dxy    Ryd( 3d)     0.00123       1.88257
 202    C  7  dxy    Ryd( 4d)     0.00009       3.59756
 203    C  7  dxz    Ryd( 3d)     0.00138       1.80663
 204    C  7  dxz    Ryd( 4d)     0.00002       3.57373
 205    C  7  dyz    Ryd( 3d)     0.00064       1.93342
 206    C  7  dyz    Ryd( 4d)     0.00007       3.38202
 207    C  7  dx2y2  Ryd( 3d)     0.00135       2.14135
 208    C  7  dx2y2  Ryd( 4d)     0.00003       3.51799
 209    C  7  dz2    Ryd( 3d)     0.00193       1.90309
 210    C  7  dz2    Ryd( 4d)     0.00002       3.62363
 211    C  7  f(0)   Ryd( 4f)     0.00022       3.49504
 212    C  7  f(c1)  Ryd( 4f)     0.00022       3.50395
 213    C  7  f(s1)  Ryd( 4f)     0.00004       3.49162
 214    C  7  f(c2)  Ryd( 4f)     0.00005       3.41731
 215    C  7  f(s2)  Ryd( 4f)     0.00007       3.52817
 216    C  7  f(c3)  Ryd( 4f)     0.00003       3.54161
 217    C  7  f(s3)  Ryd( 4f)     0.00033       3.62201

 218    C  8  s      Cor( 1s)     1.99999     -10.50668
 219    C  8  s      Val( 2s)     1.11515      -0.21708
 220    C  8  s      Ryd( 3s)     0.00028       1.40393
 221    C  8  s      Ryd( 4s)     0.00002       2.17530
 222    C  8  s      Ryd( 5s)     0.00000      22.29831
 223    C  8  px     Val( 2p)     1.13738      -0.07406
 224    C  8  px     Ryd( 3p)     0.00075       0.85137
 225    C  8  px     Ryd( 4p)     0.00008       1.90124
 226    C  8  py     Val( 2p)     1.17535      -0.07992
 227    C  8  py     Ryd( 3p)     0.00133       0.87051
 228    C  8  py     Ryd( 4p)     0.00003       1.88128
 229    C  8  pz     Val( 2p)     1.15889      -0.07773
 230    C  8  pz     Ryd( 3p)     0.00024       0.77594
 231    C  8  pz     Ryd( 4p)     0.00003       1.88040
 232    C  8  dxy    Ryd( 3d)     0.00126       1.97879
 233    C  8  dxy    Ryd( 4d)     0.00003       3.50006
 234    C  8  dxz    Ryd( 3d)     0.00111       2.06501
 235    C  8  dxz    Ryd( 4d)     0.00003       3.42529
 236    C  8  dyz    Ryd( 3d)     0.00074       1.89725
 237    C  8  dyz    Ryd( 4d)     0.00003       3.40033
 238    C  8  dx2y2  Ryd( 3d)     0.00147       1.89190
 239    C  8  dx2y2  Ryd( 4d)     0.00005       3.57437
 240    C  8  dz2    Ryd( 3d)     0.00180       1.89267
 241    C  8  dz2    Ryd( 4d)     0.00004       3.62443
 242    C  8  f(0)   Ryd( 4f)     0.00028       3.56752
 243    C  8  f(c1)  Ryd( 4f)     0.00019       3.60169
 244    C  8  f(s1)  Ryd( 4f)     0.00003       3.43034
 245    C  8  f(c2)  Ryd( 4f)     0.00003       3.47996
 246    C  8  f(s2)  Ryd( 4f)     0.00008       3.31901
 247    C  8  f(c3)  Ryd( 4f)     0.00003       3.46067
 248    C  8  f(s3)  Ryd( 4f)     0.00033       3.63725

 249    O  9  s      Cor( 1s)     2.00000     -19.60213
 250    O  9  s      Val( 2s)     1.62013      -0.75399
 251    O  9  s      Ryd( 3s)     0.00085       2.29346
 252    O  9  s      Ryd( 4s)     0.00006       6.49783
 253    O  9  s      Ryd( 5s)     0.00000      40.07540
 254    O  9  px     Val( 2p)     1.34152      -0.24872
 255    O  9  px     Ryd( 3p)     0.00155       1.08188
 256    O  9  px     Ryd( 4p)     0.00009       4.15101
 257    O  9  py     Val( 2p)     1.72864      -0.33181
 258    O  9  py     Ryd( 3p)     0.00228       0.72989
 259    O  9  py     Ryd( 4p)     0.00019       3.56535
 260    O  9  pz     Val( 2p)     1.84827      -0.34080
 261    O  9  pz     Ryd( 3p)     0.00354       0.73112
 262    O  9  pz     Ryd( 4p)     0.00006       3.05613
 263    O  9  dxy    Ryd( 3d)     0.00454       2.45004
 264    O  9  dxy    Ryd( 4d)     0.00004       6.69946
 265    O  9  dxz    Ryd( 3d)     0.00053       2.12119
 266    O  9  dxz    Ryd( 4d)     0.00005       6.63613
 267    O  9  dyz    Ryd( 3d)     0.00237       1.93749
 268    O  9  dyz    Ryd( 4d)     0.00002       6.55355
 269    O  9  dx2y2  Ryd( 3d)     0.00162       2.39792
 270    O  9  dx2y2  Ryd( 4d)     0.00005       6.75160
 271    O  9  dz2    Ryd( 3d)     0.00252       2.07672
 272    O  9  dz2    Ryd( 4d)     0.00001       6.62918
 273    O  9  f(0)   Ryd( 4f)     0.00010       5.59272
 274    O  9  f(c1)  Ryd( 4f)     0.00010       5.67203
 275    O  9  f(s1)  Ryd( 4f)     0.00005       5.46028
 276    O  9  f(c2)  Ryd( 4f)     0.00004       5.56761
 277    O  9  f(s2)  Ryd( 4f)     0.00002       5.80003
 278    O  9  f(c3)  Ryd( 4f)     0.00003       6.17099
 279    O  9  f(s3)  Ryd( 4f)     0.00011       6.01945

 280    C 10  s      Cor( 1s)     1.99999     -10.55371
 281    C 10  s      Val( 2s)     1.02257      -0.19170
 282    C 10  s      Ryd( 3s)     0.00342       1.40557
 283    C 10  s      Ryd( 4s)     0.00004       2.31514
 284    C 10  s      Ryd( 5s)     0.00000      21.50793
 285    C 10  px     Val( 2p)     0.84670      -0.02902
 286    C 10  px     Ryd( 3p)     0.00365       1.07568
 287    C 10  px     Ryd( 4p)     0.00019       1.32328
 288    C 10  py     Val( 2p)     1.08780      -0.06443
 289    C 10  py     Ryd( 3p)     0.00425       1.11297
 290    C 10  py     Ryd( 4p)     0.00027       1.40031
 291    C 10  pz     Val( 2p)     1.09322      -0.06910
 292    C 10  pz     Ryd( 3p)     0.00069       0.93632
 293    C 10  pz     Ryd( 4p)     0.00018       1.31125
 294    C 10  dxy    Ryd( 3d)     0.00141       2.47944
 295    C 10  dxy    Ryd( 4d)     0.00026       3.54950
 296    C 10  dxz    Ryd( 3d)     0.00113       2.16377
 297    C 10  dxz    Ryd( 4d)     0.00017       3.17080
 298    C 10  dyz    Ryd( 3d)     0.00153       2.25387
 299    C 10  dyz    Ryd( 4d)     0.00014       3.46221
 300    C 10  dx2y2  Ryd( 3d)     0.00064       2.19862
 301    C 10  dx2y2  Ryd( 4d)     0.00019       3.26981
 302    C 10  dz2    Ryd( 3d)     0.00084       2.24186
 303    C 10  dz2    Ryd( 4d)     0.00019       3.33136
 304    C 10  f(0)   Ryd( 4f)     0.00002       3.64953
 305    C 10  f(c1)  Ryd( 4f)     0.00002       3.61942
 306    C 10  f(s1)  Ryd( 4f)     0.00022       3.68338
 307    C 10  f(c2)  Ryd( 4f)     0.00005       3.66772
 308    C 10  f(s2)  Ryd( 4f)     0.00015       3.64806
 309    C 10  f(c3)  Ryd( 4f)     0.00006       3.76637
 310    C 10  f(s3)  Ryd( 4f)     0.00007       3.65330

 311    C 11  s      Cor( 1s)     1.99999     -10.50157
 312    C 11  s      Val( 2s)     1.12824      -0.22372
 313    C 11  s      Ryd( 3s)     0.00081       1.16369
 314    C 11  s      Ryd( 4s)     0.00002       1.79206
 315    C 11  s      Ryd( 5s)     0.00000      22.47815
 316    C 11  px     Val( 2p)     1.19165      -0.08395
 317    C 11  px     Ryd( 3p)     0.00102       0.87715
 318    C 11  px     Ryd( 4p)     0.00006       1.78912
 319    C 11  py     Val( 2p)     1.18270      -0.08329
 320    C 11  py     Ryd( 3p)     0.00038       0.82463
 321    C 11  py     Ryd( 4p)     0.00003       1.82038
 322    C 11  pz     Val( 2p)     1.12161      -0.07038
 323    C 11  pz     Ryd( 3p)     0.00042       0.77462
 324    C 11  pz     Ryd( 4p)     0.00005       2.01112
 325    C 11  dxy    Ryd( 3d)     0.00172       1.83689
 326    C 11  dxy    Ryd( 4d)     0.00001       3.72314
 327    C 11  dxz    Ryd( 3d)     0.00080       1.82826
 328    C 11  dxz    Ryd( 4d)     0.00004       3.43977
 329    C 11  dyz    Ryd( 3d)     0.00208       1.98922
 330    C 11  dyz    Ryd( 4d)     0.00002       3.65651
 331    C 11  dx2y2  Ryd( 3d)     0.00099       1.73881
 332    C 11  dx2y2  Ryd( 4d)     0.00004       3.53371
 333    C 11  dz2    Ryd( 3d)     0.00121       1.82995
 334    C 11  dz2    Ryd( 4d)     0.00004       3.51584
 335    C 11  f(0)   Ryd( 4f)     0.00002       3.49435
 336    C 11  f(c1)  Ryd( 4f)     0.00008       3.46208
 337    C 11  f(s1)  Ryd( 4f)     0.00038       3.56236
 338    C 11  f(c2)  Ryd( 4f)     0.00009       3.51511
 339    C 11  f(s2)  Ryd( 4f)     0.00017       3.42062
 340    C 11  f(c3)  Ryd( 4f)     0.00012       3.43195
 341    C 11  f(s3)  Ryd( 4f)     0.00016       3.48485

 342    H 12  s      Val( 1s)     0.84553       0.07201
 343    H 12  s      Ryd( 2s)     0.00263       0.55503
 344    H 12  s      Ryd( 3s)     0.00013       2.28571
 345    H 12  px     Ryd( 2p)     0.00010       2.27016
 346    H 12  px     Ryd( 3p)     0.00013       3.60641
 347    H 12  py     Ryd( 2p)     0.00019       2.75720
 348    H 12  py     Ryd( 3p)     0.00008       4.28968
 349    H 12  pz     Ryd( 2p)     0.00024       2.04480
 350    H 12  pz     Ryd( 3p)     0.00001       3.27417
 351    H 12  dxy    Ryd( 3d)     0.00003       4.42374
 352    H 12  dxz    Ryd( 3d)     0.00001       3.57322
 353    H 12  dyz    Ryd( 3d)     0.00003       4.22702
 354    H 12  dx2y2  Ryd( 3d)     0.00006       4.37382
 355    H 12  dz2    Ryd( 3d)     0.00001       3.95803

 356    H 13  s      Val( 1s)     0.87118       0.04566
 357    H 13  s      Ryd( 2s)     0.00386       0.51600
 358    H 13  s      Ryd( 3s)     0.00011       2.33909
 359    H 13  px     Ryd( 2p)     0.00009       2.60572
 360    H 13  px     Ryd( 3p)     0.00007       3.17046
 361    H 13  py     Ryd( 2p)     0.00024       2.82442
 362    H 13  py     Ryd( 3p)     0.00004       4.05729
 363    H 13  pz     Ryd( 2p)     0.00016       2.45235
 364    H 13  pz     Ryd( 3p)     0.00002       2.85290
 365    H 13  dxy    Ryd( 3d)     0.00002       4.37778
 366    H 13  dxz    Ryd( 3d)     0.00001       3.55740
 367    H 13  dyz    Ryd( 3d)     0.00002       4.22436
 368    H 13  dx2y2  Ryd( 3d)     0.00006       4.32797
 369    H 13  dz2    Ryd( 3d)     0.00001       3.93561

 370    H 14  s      Val( 1s)     0.81093       0.04906
 371    H 14  s      Ryd( 2s)     0.00151       0.83581
 372    H 14  s      Ryd( 3s)     0.00002       2.18396
 373    H 14  px     Ryd( 3p)     0.00010       4.04634
 374    H 14  px     Ryd( 2p)     0.00005       1.79278
 375    H 14  py     Ryd( 3p)     0.00007       4.03886
 376    H 14  py     Ryd( 2p)     0.00007       1.64908
 377    H 14  pz     Ryd( 3p)     0.00034       3.92298
 378    H 14  pz     Ryd( 2p)     0.00002       2.73665
 379    H 14  dxy    Ryd( 3d)     0.00001       3.70571
 380    H 14  dxz    Ryd( 3d)     0.00007       4.31398
 381    H 14  dyz    Ryd( 3d)     0.00003       4.21491
 382    H 14  dx2y2  Ryd( 3d)     0.00001       3.70983
 383    H 14  dz2    Ryd( 3d)     0.00010       4.46554

 384    H 15  s      Val( 1s)     0.78182       0.09004
 385    H 15  s      Ryd( 2s)     0.00062       0.79518
 386    H 15  s      Ryd( 3s)     0.00004       2.03536
 387    H 15  px     Ryd( 3p)     0.00018       3.86842
 388    H 15  px     Ryd( 2p)     0.00006       2.27667
 389    H 15  py     Ryd( 3p)     0.00019       3.71152
 390    H 15  py     Ryd( 2p)     0.00007       2.17936
 391    H 15  pz     Ryd( 3p)     0.00017       3.69150
 392    H 15  pz     Ryd( 2p)     0.00002       2.19194
 393    H 15  dxy    Ryd( 3d)     0.00004       4.18684
 394    H 15  dxz    Ryd( 3d)     0.00005       4.20891
 395    H 15  dyz    Ryd( 3d)     0.00003       4.00378
 396    H 15  dx2y2  Ryd( 3d)     0.00002       4.17031
 397    H 15  dz2    Ryd( 3d)     0.00002       4.14999

 398    H 16  s      Val( 1s)     0.80433       0.07127
 399    H 16  s      Ryd( 2s)     0.00041       0.82859
 400    H 16  s      Ryd( 3s)     0.00003       1.95603
 401    H 16  px     Ryd( 3p)     0.00027       4.23024
 402    H 16  px     Ryd( 2p)     0.00003       2.29487
 403    H 16  py     Ryd( 3p)     0.00014       3.99876
 404    H 16  py     Ryd( 2p)     0.00009       1.91553
 405    H 16  pz     Ryd( 3p)     0.00007       3.78889
 406    H 16  pz     Ryd( 2p)     0.00001       1.66104
 407    H 16  dxy    Ryd( 3d)     0.00006       4.39934
 408    H 16  dxz    Ryd( 3d)     0.00002       4.16939
 409    H 16  dyz    Ryd( 3d)     0.00001       3.78467
 410    H 16  dx2y2  Ryd( 3d)     0.00004       4.40645
 411    H 16  dz2    Ryd( 3d)     0.00002       3.89061

 412    H 17  s      Val( 1s)     0.79509       0.07793
 413    H 17  s      Ryd( 2s)     0.00114       0.80565
 414    H 17  s      Ryd( 3s)     0.00003       2.03370
 415    H 17  px     Ryd( 3p)     0.00013       3.64923
 416    H 17  px     Ryd( 2p)     0.00006       2.01377
 417    H 17  py     Ryd( 3p)     0.00010       3.58079
 418    H 17  py     Ryd( 2p)     0.00008       1.93498
 419    H 17  pz     Ryd( 3p)     0.00028       4.20716
 420    H 17  pz     Ryd( 2p)     0.00003       2.49576
 421    H 17  dxy    Ryd( 3d)     0.00001       3.73225
 422    H 17  dxz    Ryd( 3d)     0.00004       4.41178
 423    H 17  dyz    Ryd( 3d)     0.00002       4.28848
 424    H 17  dx2y2  Ryd( 3d)     0.00001       3.69733
 425    H 17  dz2    Ryd( 3d)     0.00007       4.60821

 426    H 18  s      Val( 1s)     0.79857       0.06559
 427    H 18  s      Ryd( 2s)     0.00061       0.75504
 428    H 18  s      Ryd( 3s)     0.00002       1.99802
 429    H 18  px     Ryd( 3p)     0.00029       4.27619
 430    H 18  px     Ryd( 2p)     0.00005       2.32702
 431    H 18  py     Ryd( 3p)     0.00012       3.87728
 432    H 18  py     Ryd( 2p)     0.00005       1.79051
 433    H 18  pz     Ryd( 3p)     0.00007       3.76554
 434    H 18  pz     Ryd( 2p)     0.00002       1.67032
 435    H 18  dxy    Ryd( 3d)     0.00006       4.36638
 436    H 18  dxz    Ryd( 3d)     0.00002       4.22524
 437    H 18  dyz    Ryd( 3d)     0.00001       3.68308
 438    H 18  dx2y2  Ryd( 3d)     0.00004       4.38542
 439    H 18  dz2    Ryd( 3d)     0.00003       3.89881

 440    H 19  s      Val( 1s)     0.79615       0.06869
 441    H 19  s      Ryd( 2s)     0.00044       0.81750
 442    H 19  s      Ryd( 3s)     0.00003       1.95590
 443    H 19  px     Ryd( 3p)     0.00007       3.88640
 444    H 19  px     Ryd( 2p)     0.00004       1.60521
 445    H 19  py     Ryd( 3p)     0.00031       4.35296
 446    H 19  py     Ryd( 2p)     0.00002       2.31000
 447    H 19  pz     Ryd( 3p)     0.00008       3.90092
 448    H 19  pz     Ryd( 2p)     0.00003       1.63424
 449    H 19  dxy    Ryd( 3d)     0.00002       4.32735
 450    H 19  dxz    Ryd( 3d)     0.00000       3.63275
 451    H 19  dyz    Ryd( 3d)     0.00004       4.32561
 452    H 19  dx2y2  Ryd( 3d)     0.00006       4.32184
 453    H 19  dz2    Ryd( 3d)     0.00002       3.96200

 454    H 20  s      Val( 1s)     0.79944       0.06700
 455    H 20  s      Ryd( 2s)     0.00110       0.79389
 456    H 20  s      Ryd( 3s)     0.00002       2.00258
 457    H 20  px     Ryd( 3p)     0.00012       3.74914
 458    H 20  px     Ryd( 2p)     0.00007       1.81069
 459    H 20  py     Ryd( 3p)     0.00009       3.67741
 460    H 20  py     Ryd( 2p)     0.00004       1.78282
 461    H 20  pz     Ryd( 3p)     0.00028       4.28989
 462    H 20  pz     Ryd( 2p)     0.00003       2.38564
 463    H 20  dxy    Ryd( 3d)     0.00000       3.64747
 464    H 20  dxz    Ryd( 3d)     0.00004       4.38179
 465    H 20  dyz    Ryd( 3d)     0.00002       4.31260
 466    H 20  dx2y2  Ryd( 3d)     0.00000       3.66879
 467    H 20  dz2    Ryd( 3d)     0.00007       4.61445

 468    H 21  s      Val( 1s)     0.82954       0.04426
 469    H 21  s      Ryd( 2s)     0.00094       0.73980
 470    H 21  s      Ryd( 3s)     0.00003       2.09368
 471    H 21  px     Ryd( 3p)     0.00017       4.20719
 472    H 21  px     Ryd( 2p)     0.00004       1.79369
 473    H 21  py     Ryd( 3p)     0.00019       4.23852
 474    H 21  py     Ryd( 2p)     0.00003       1.96981
 475    H 21  pz     Ryd( 3p)     0.00007       4.11556
 476    H 21  pz     Ryd( 2p)     0.00009       1.47117
 477    H 21  dxy    Ryd( 3d)     0.00008       4.29583
 478    H 21  dxz    Ryd( 3d)     0.00002       3.86785
 479    H 21  dyz    Ryd( 3d)     0.00003       4.05905
 480    H 21  dx2y2  Ryd( 3d)     0.00002       4.21911
 481    H 21  dz2    Ryd( 3d)     0.00003       3.89836

 482    H 22  s      Val( 1s)     0.81985       0.05380
 483    H 22  s      Ryd( 2s)     0.00185       0.68384
 484    H 22  s      Ryd( 3s)     0.00007       2.19717
 485    H 22  px     Ryd( 3p)     0.00007       3.59467
 486    H 22  px     Ryd( 2p)     0.00021       1.96314
 487    H 22  py     Ryd( 3p)     0.00018       3.59504
 488    H 22  py     Ryd( 2p)     0.00005       2.41944
 489    H 22  pz     Ryd( 3p)     0.00020       3.61242
 490    H 22  pz     Ryd( 2p)     0.00009       2.73485
 491    H 22  dxy    Ryd( 3d)     0.00002       3.91250
 492    H 22  dxz    Ryd( 3d)     0.00002       4.00271
 493    H 22  dyz    Ryd( 3d)     0.00008       4.39852
 494    H 22  dx2y2  Ryd( 3d)     0.00002       3.84676
 495    H 22  dz2    Ryd( 3d)     0.00004       4.24652

 496    H 23  s      Val( 1s)     0.77987       0.08181
 497    H 23  s      Ryd( 2s)     0.00096       0.91491
 498    H 23  s      Ryd( 3s)     0.00003       1.93223
 499    H 23  px     Ryd( 3p)     0.00015       3.75157
 500    H 23  px     Ryd( 2p)     0.00005       2.11693
 501    H 23  py     Ryd( 3p)     0.00024       3.91162
 502    H 23  py     Ryd( 2p)     0.00002       2.25394
 503    H 23  pz     Ryd( 3p)     0.00013       3.53471
 504    H 23  pz     Ryd( 2p)     0.00005       2.02759
 505    H 23  dxy    Ryd( 3d)     0.00006       4.35214
 506    H 23  dxz    Ryd( 3d)     0.00002       3.88623
 507    H 23  dyz    Ryd( 3d)     0.00002       4.14024
 508    H 23  dx2y2  Ryd( 3d)     0.00003       4.31497
 509    H 23  dz2    Ryd( 3d)     0.00002       3.91690

 510    H 24  s      Val( 1s)     0.79528       0.06156
 511    H 24  s      Ryd( 2s)     0.00035       0.73573
 512    H 24  s      Ryd( 3s)     0.00002       2.01936
 513    H 24  px     Ryd( 3p)     0.00031       4.23244
 514    H 24  px     Ryd( 2p)     0.00001       2.23684
 515    H 24  py     Ryd( 3p)     0.00009       3.89087
 516    H 24  py     Ryd( 2p)     0.00001       1.70472
 517    H 24  pz     Ryd( 3p)     0.00007       3.82798
 518    H 24  pz     Ryd( 2p)     0.00002       1.60172
 519    H 24  dxy    Ryd( 3d)     0.00005       4.34128
 520    H 24  dxz    Ryd( 3d)     0.00003       4.21856
 521    H 24  dyz    Ryd( 3d)     0.00001       3.76191
 522    H 24  dx2y2  Ryd( 3d)     0.00005       4.29916
 523    H 24  dz2    Ryd( 3d)     0.00002       3.85607

 524    H 25  s      Val( 1s)     0.79930       0.06449
 525    H 25  s      Ryd( 2s)     0.00075       0.75489
 526    H 25  s      Ryd( 3s)     0.00002       1.99837
 527    H 25  px     Ryd( 3p)     0.00008       3.79469
 528    H 25  px     Ryd( 2p)     0.00001       1.68504
 529    H 25  py     Ryd( 3p)     0.00017       3.93895
 530    H 25  py     Ryd( 2p)     0.00001       1.87965
 531    H 25  pz     Ryd( 3p)     0.00024       4.13541
 532    H 25  pz     Ryd( 2p)     0.00002       2.06201
 533    H 25  dxy    Ryd( 3d)     0.00001       3.90407
 534    H 25  dxz    Ryd( 3d)     0.00002       4.04714
 535    H 25  dyz    Ryd( 3d)     0.00007       4.39013
 536    H 25  dx2y2  Ryd( 3d)     0.00002       3.84281
 537    H 25  dz2    Ryd( 3d)     0.00004       4.31314


 Summary of Natural Population Analysis:

                                     Natural Population
             Natural    ---------------------------------------------
  Atom No    Charge        Core      Valence    Rydberg      Total
 --------------------------------------------------------------------
    O  1   -0.76420      2.00000     6.73941    0.02480     8.76420
    C  2    0.67299      1.99999     3.28607    0.04095     5.32701
    C  3   -0.38053      1.99999     4.34688    0.03366     6.38053
    N  4   -0.42850      1.99999     5.39363    0.03488     7.42850
    C  5   -0.02520      1.99999     3.99558    0.02963     6.02520
    C  6   -0.25948      1.99999     4.24657    0.01291     6.25948
    C  7   -0.59786      1.99999     4.58586    0.01201     6.59786
    C  8   -0.59703      1.99999     4.58676    0.01028     6.59703
    O  9   -0.55933      2.00000     6.53856    0.02078     8.55933
    C 10   -0.07010      1.99999     4.05029    0.01981     6.07010
    C 11   -0.63495      1.99999     4.62420    0.01076     6.63495
    H 12    0.15082      0.00000     0.84553    0.00365     0.84918
    H 13    0.12410      0.00000     0.87118    0.00472     0.87590
    H 14    0.18667      0.00000     0.81093    0.00240     0.81333
    H 15    0.21667      0.00000     0.78182    0.00151     0.78333
    H 16    0.19447      0.00000     0.80433    0.00120     0.80553
    H 17    0.20291      0.00000     0.79509    0.00200     0.79709
    H 18    0.20006      0.00000     0.79857    0.00137     0.79994
    H 19    0.20268      0.00000     0.79615    0.00117     0.79732
    H 20    0.19865      0.00000     0.79944    0.00191     0.80135
    H 21    0.16870      0.00000     0.82954    0.00176     0.83130
    H 22    0.17723      0.00000     0.81985    0.00292     0.82277
    H 23    0.21834      0.00000     0.77987    0.00179     0.78166
    H 24    0.20366      0.00000     0.79528    0.00106     0.79634
    H 25    0.19924      0.00000     0.79930    0.00146     0.80076
 ====================================================================
 * Total * -1.00000     21.99991    63.72070    0.27939    86.00000

                                 Natural Population
 ---------------------------------------------------------
   Core                      21.99991 ( 99.9996% of   22)
   Valence                   63.72070 ( 99.5636% of   64)
   Natural Minimal Basis     85.72061 ( 99.6751% of   86)
   Natural Rydberg Basis      0.27939 (  0.3249% of   86)
 ---------------------------------------------------------

    Atom No         Natural Electron Configuration
 ----------------------------------------------------------------------------
      O  1      [core]2s( 1.70)2p( 5.04)3p( 0.01)3d( 0.02)
      C  2      [core]2s( 0.82)2p( 2.46)3p( 0.03)4d( 0.01)
      C  3      [core]2s( 0.95)2p( 3.40)3p( 0.02)
      N  4      [core]2s( 1.33)2p( 4.07)3p( 0.01)3d( 0.02)
      C  5      [core]2s( 0.94)2p( 3.06)3s( 0.01)3p( 0.01)
      C  6      [core]2s( 1.01)2p( 3.24)3p( 0.01)
      C  7      [core]2s( 1.11)2p( 3.48)3d( 0.01)
      C  8      [core]2s( 1.12)2p( 3.47)3d( 0.01)
      O  9      [core]2s( 1.62)2p( 4.92)3p( 0.01)3d( 0.01)
      C 10      [core]2s( 1.02)2p( 3.03)3p( 0.01)3d( 0.01)
      C 11      [core]2s( 1.13)2p( 3.50)3d( 0.01)
      H 12            1s( 0.85)
      H 13            1s( 0.87)
      H 14            1s( 0.81)
      H 15            1s( 0.78)
      H 16            1s( 0.80)
      H 17            1s( 0.80)
      H 18            1s( 0.80)
      H 19            1s( 0.80)
      H 20            1s( 0.80)
      H 21            1s( 0.83)
      H 22            1s( 0.82)
      H 23            1s( 0.78)
      H 24            1s( 0.80)
      H 25            1s( 0.80)


 NATURAL BOND ORBITAL ANALYSIS:

                            Occupancies       Lewis Structure    Low   High
         Max    Occ     -------------------  -----------------   occ   occ
  Cycle  Ctr   Thresh    Lewis   non-Lewis     CR  BD  nC  LP    (L)   (NL)
 ============================================================================
    1     2     1.90    83.48626   2.51374     11  26   0   6     4      5
    2     2     1.88    83.60163   2.39837     11  26   0   6     3      5
    3     2     1.86    83.60525   2.39475     11  26   0   6     2      5
    4     2     1.85    84.54547   1.45453     11  26   0   6     1      3
    5     2     1.77    84.54547   1.45453     11  26   0   6     1      3
    6     2     1.75    84.54547   1.45453     11  26   0   6     1      3
    7     2     1.63    84.59261   1.40739     11  26   0   6     0      3
 ----------------------------------------------------------------------------

 Structure accepted: No low occupancy Lewis orbitals

 -------------------------------------------------------
   Core                     21.99991 (100.000% of  22)
   Valence Lewis            62.59270 ( 97.801% of  64)
  ==================      =============================
   Total Lewis              84.59261 ( 98.363% of  86)
  -----------------------------------------------------
   Valence non-Lewis         1.26113 (  1.466% of  86)
   Rydberg non-Lewis         0.14626 (  0.170% of  86)
  ==================      =============================
   Total non-Lewis           1.40739 (  1.637% of  86)
 -------------------------------------------------------


     (Occupancy)   Bond orbital / Coefficients / Hybrids
 ------------------ Lewis ------------------------------------------------------
   1. (2.00000) CR ( 1) O  1            s(100.00%)
                                         1.0000  0.0000  0.0000  0.0000  0.0000
                                         0.0000  0.0000  0.0000  0.0000  0.0000
                                         0.0000  0.0000  0.0000  0.0000  0.0000
                                         0.0000  0.0000  0.0000  0.0000  0.0000
                                         0.0000  0.0000  0.0000  0.0000  0.0000
                                         0.0000  0.0000  0.0000  0.0000  0.0000
                                         0.0000
   2. (1.99999) CR ( 1) C  2            s(100.00%)
                                         1.0000  0.0000  0.0000  0.0000  0.0000
                                         0.0000  0.0000  0.0000  0.0000  0.0000
                                         0.0000  0.0000  0.0000  0.0000  0.0000
                                         0.0000  0.0000  0.0000  0.0000  0.0000
                                         0.0000  0.0000  0.0000  0.0000  0.0000
                                         0.0000  0.0000  0.0000  0.0000  0.0000
                                         0.0000
   3. (1.99999) CR ( 1) C  3            s(100.00%)
                                         1.0000  0.0000  0.0000  0.0000  0.0000
                                         0.0000  0.0000  0.0000  0.0000  0.0000
                                         0.0000  0.0000  0.0000  0.0000  0.0000
                                         0.0000  0.0000  0.0000  0.0000  0.0000
                                         0.0000  0.0000  0.0000  0.0000  0.0000
                                         0.0000  0.0000  0.0000  0.0000  0.0000
                                         0.0000
   4. (1.99999) CR ( 1) N  4            s(100.00%)
                                         1.0000  0.0000  0.0000  0.0000  0.0000
                                         0.0000  0.0000  0.0000  0.0000  0.0000
                                         0.0000  0.0000  0.0000  0.0000  0.0000
                                         0.0000  0.0000  0.0000  0.0000  0.0000
                                         0.0000  0.0000  0.0000  0.0000  0.0000
                                         0.0000  0.0000  0.0000  0.0000  0.0000
                                         0.0000
   5. (1.99999) CR ( 1) C  5            s(100.00%)
                                         1.0000  0.0000  0.0000  0.0000  0.0000
                                         0.0000  0.0000  0.0000  0.0000  0.0000
                                         0.0000  0.0000  0.0000  0.0000  0.0000
                                         0.0000  0.0000  0.0000  0.0000  0.0000
                                         0.0000  0.0000  0.0000  0.0000  0.0000
                                         0.0000  0.0000  0.0000  0.0000  0.0000
                                         0.0000
   6. (1.99999) CR ( 1) C  6            s(100.00%)
                                         1.0000  0.0000  0.0000  0.0000  0.0000
                                         0.0000  0.0000  0.0000  0.0000  0.0000
                                         0.0000  0.0000  0.0000  0.0000  0.0000
                                         0.0000  0.0000  0.0000  0.0000  0.0000
                                         0.0000  0.0000  0.0000  0.0000  0.0000
                                         0.0000  0.0000  0.0000  0.0000  0.0000
                                         0.0000
   7. (1.99999) CR ( 1) C  7            s(100.00%)
                                         1.0000  0.0000  0.0000  0.0000  0.0000
                                         0.0000  0.0000  0.0000  0.0000  0.0000
                                         0.0000  0.0000  0.0000  0.0000  0.0000
                                         0.0000  0.0000  0.0000  0.0000  0.0000
                                         0.0000  0.0000  0.0000  0.0000  0.0000
                                         0.0000  0.0000  0.0000  0.0000  0.0000
                                         0.0000
   8. (1.99999) CR ( 1) C  8            s(100.00%)
                                         1.0000  0.0000  0.0000  0.0000  0.0000
                                         0.0000  0.0000  0.0000  0.0000  0.0000
                                         0.0000  0.0000  0.0000  0.0000  0.0000
                                         0.0000  0.0000  0.0000  0.0000  0.0000
                                         0.0000  0.0000  0.0000  0.0000  0.0000
                                         0.0000  0.0000  0.0000  0.0000  0.0000
                                         0.0000
   9. (2.00000) CR ( 1) O  9            s(100.00%)
                                         1.0000  0.0000  0.0000  0.0000  0.0000
                                         0.0000  0.0000  0.0000  0.0000  0.0000
                                         0.0000  0.0000  0.0000  0.0000  0.0000
                                         0.0000  0.0000  0.0000  0.0000  0.0000
                                         0.0000  0.0000  0.0000  0.0000  0.0000
                                         0.0000  0.0000  0.0000  0.0000  0.0000
                                         0.0000
  10. (1.99999) CR ( 1) C 10            s(100.00%)
                                         1.0000  0.0000  0.0000  0.0000  0.0000
                                         0.0000  0.0000  0.0000  0.0000  0.0000
                                         0.0000  0.0000  0.0000  0.0000  0.0000
                                         0.0000  0.0000  0.0000  0.0000  0.0000
                                         0.0000  0.0000  0.0000  0.0000  0.0000
                                         0.0000  0.0000  0.0000  0.0000  0.0000
                                         0.0000
  11. (1.99999) CR ( 1) C 11            s(100.00%)
                                         1.0000  0.0000  0.0000  0.0000  0.0000
                                         0.0000  0.0000  0.0000  0.0000  0.0000
                                         0.0000  0.0000  0.0000  0.0000  0.0000
                                         0.0000  0.0000  0.0000  0.0000  0.0000
                                         0.0000  0.0000  0.0000  0.0000  0.0000
                                         0.0000  0.0000  0.0000  0.0000  0.0000
                                         0.0000
  12. (1.97686) LP ( 1) O  1            s( 59.65%)p 0.68( 40.27%)d 0.00(  0.08%)
                                                  f 0.00(  0.00%)
                                         0.0000  0.7723 -0.0012  0.0002 -0.0002
                                        -0.0928 -0.0002  0.0000  0.6110 -0.0024
                                        -0.0044  0.1440 -0.0004 -0.0010  0.0061
                                         0.0001  0.0017  0.0000 -0.0108 -0.0001
                                         0.0214  0.0003  0.0128  0.0000 -0.0009
                                         0.0002 -0.0012 -0.0013 -0.0003  0.0010
                                        -0.0024
  13. (1.85203) LP ( 2) O  1            s(  0.01%)p99.99( 99.78%)d17.42(  0.20%)
                                                  f 0.90(  0.01%)
                                         0.0000  0.0099 -0.0040  0.0008  0.0001
                                        -0.9797 -0.0086  0.0007 -0.1793 -0.0034
                                         0.0005  0.0763  0.0002  0.0000  0.0417
                                        -0.0004  0.0101  0.0000 -0.0014  0.0000
                                        -0.0120 -0.0002 -0.0025  0.0002 -0.0002
                                         0.0010  0.0006  0.0004 -0.0033  0.0084
                                         0.0044
  14. (1.63598) LP ( 3) O  1            s(  0.00%)p 1.00( 99.69%)d 0.00(  0.30%)
                                                  f 0.00(  0.01%)
                                         0.0000  0.0006  0.0002 -0.0005  0.0000
                                         0.1142  0.0010  0.0002 -0.2118 -0.0014
                                         0.0001  0.9690  0.0069 -0.0004 -0.0072
                                         0.0000  0.0018  0.0006 -0.0490  0.0002
                                        -0.0112  0.0002 -0.0198 -0.0001 -0.0040
                                        -0.0008  0.0059 -0.0073 -0.0018 -0.0018
                                         0.0018
  15. (1.88245) LP ( 1) N  4            s( 24.58%)p 3.06( 75.22%)d 0.01(  0.19%)
                                                  f 0.00(  0.00%)
                                         0.0000  0.4950 -0.0294 -0.0019  0.0000
                                        -0.0043  0.0020 -0.0005  0.8480  0.0277
                                         0.0049  0.1798  0.0059  0.0011  0.0032
                                        -0.0002  0.0015  0.0002 -0.0160  0.0009
                                         0.0337 -0.0027  0.0211 -0.0007 -0.0020
                                        -0.0006 -0.0036 -0.0003 -0.0020  0.0010
                                         0.0051
  16. (1.96365) LP ( 1) O  9            s( 41.05%)p 1.43( 58.87%)d 0.00(  0.08%)
                                                  f 0.00(  0.00%)
                                         0.0000  0.6407 -0.0007 -0.0031  0.0001
                                         0.0717 -0.0022 -0.0002 -0.7425 -0.0074
                                         0.0050 -0.1794 -0.0020  0.0012  0.0043
                                         0.0002  0.0009  0.0002 -0.0096  0.0002
                                         0.0241 -0.0015  0.0106  0.0001  0.0014
                                         0.0000  0.0021  0.0004  0.0006  0.0001
                                        -0.0009
  17. (1.86520) LP ( 2) O  9            s(  0.00%)p 1.00( 99.87%)d 0.00(  0.12%)
                                                  f 0.00(  0.01%)
                                         0.0000  0.0027  0.0025  0.0002  0.0001
                                         0.1306  0.0030  0.0001 -0.2184 -0.0011
                                         0.0006  0.9663  0.0098 -0.0046  0.0051
                                        -0.0003  0.0006 -0.0002  0.0313 -0.0014
                                         0.0072 -0.0004  0.0129 -0.0005 -0.0063
                                        -0.0027  0.0022  0.0036  0.0014  0.0008
                                        -0.0008
  18. (1.99642) BD ( 1) O  1- C  2
               ( 64.45%)   0.8028* O  1 s( 40.24%)p 1.47( 59.16%)d 0.01(  0.58%)
                                                  f 0.00(  0.01%)
                                         0.0000  0.6344  0.0028 -0.0008  0.0003
                                         0.1275 -0.0038  0.0012 -0.7372  0.0248
                                        -0.0072 -0.1765  0.0058 -0.0017 -0.0185
                                        -0.0001 -0.0044  0.0001  0.0290  0.0001
                                        -0.0600 -0.0005 -0.0322  0.0002  0.0032
                                        -0.0007  0.0045  0.0043  0.0013 -0.0037
                                         0.0073
               ( 35.55%)   0.5962* C  2 s( 34.58%)p 1.89( 65.32%)d 0.00(  0.07%)
                                                  f 0.00(  0.03%)
                                         0.0000  0.5868 -0.0371  0.0063 -0.0007
                                        -0.1063 -0.0026  0.0016  0.7782 -0.0575
                                        -0.0026  0.1812 -0.0129 -0.0010 -0.0054
                                        -0.0049 -0.0012 -0.0008  0.0063  0.0080
                                        -0.0124 -0.0178 -0.0069 -0.0078 -0.0054
                                         0.0021 -0.0070 -0.0062 -0.0025  0.0055
                                        -0.0105
  19. (1.98278) BD ( 1) C  2- C  3
               ( 50.22%)   0.7086* C  2 s( 40.96%)p 1.44( 58.92%)d 0.00(  0.08%)
                                                  f 0.00(  0.04%)
                                         0.0000  0.6394  0.0273 -0.0064  0.0000
                                         0.6622  0.0027  0.0023 -0.3520  0.0053
                                        -0.0055 -0.1634  0.0029 -0.0030 -0.0233
                                         0.0033 -0.0076 -0.0008  0.0027  0.0025
                                         0.0094  0.0003 -0.0034 -0.0076  0.0072
                                        -0.0087  0.0059 -0.0031  0.0075 -0.0004
                                        -0.0131
               ( 49.78%)   0.7056* C  3 s( 34.61%)p 1.88( 65.22%)d 0.00(  0.14%)
                                                  f 0.00(  0.04%)
                                         0.0000  0.5881 -0.0102 -0.0091 -0.0002
                                        -0.6703  0.0227  0.0030  0.4109 -0.0055
                                         0.0003  0.1828 -0.0044 -0.0004 -0.0293
                                         0.0041 -0.0116  0.0005  0.0081  0.0000
                                         0.0097 -0.0004 -0.0151 -0.0008 -0.0071
                                         0.0089 -0.0056  0.0038 -0.0059 -0.0045
                                         0.0112
  20. (1.77384) BD ( 2) C  2- C  3
               ( 30.26%)   0.5501* C  2 s(  0.00%)p 1.00( 99.82%)d 0.00(  0.15%)
                                                  f 0.00(  0.03%)
                                         0.0000  0.0014  0.0006 -0.0011 -0.0003
                                        -0.1302 -0.0092  0.0047  0.2064  0.0119
                                        -0.0048 -0.9671 -0.0534  0.0186  0.0088
                                        -0.0030 -0.0276  0.0090  0.0171 -0.0056
                                        -0.0002  0.0003  0.0146 -0.0053  0.0118
                                         0.0044 -0.0090  0.0032  0.0012  0.0013
                                        -0.0006
               ( 69.74%)   0.8351* C  3 s(  0.00%)p 1.00( 99.92%)d 0.00(  0.04%)
                                                  f 0.00(  0.04%)
                                         0.0000  0.0021 -0.0012 -0.0013  0.0003
                                        -0.1358 -0.0066  0.0010  0.2056  0.0117
                                        -0.0022 -0.9671 -0.0535  0.0100 -0.0045
                                         0.0011  0.0111 -0.0049 -0.0112 -0.0002
                                        -0.0009 -0.0006 -0.0073  0.0011  0.0169
                                         0.0067 -0.0086 -0.0032 -0.0026 -0.0009
                                         0.0006
  21. (1.98835) BD ( 1) C  2- O  9
               ( 31.56%)   0.5618* C  2 s( 24.56%)p 3.07( 75.36%)d 0.00(  0.07%)
                                                  f 0.00(  0.01%)
                                         0.0000  0.4956 -0.0015  0.0068  0.0005
                                        -0.7288  0.0053 -0.0052 -0.4708  0.0272
                                        -0.0077 -0.0015  0.0024 -0.0002  0.0209
                                         0.0110  0.0019  0.0003  0.0003 -0.0014
                                         0.0059  0.0022 -0.0118 -0.0019 -0.0007
                                         0.0060  0.0025  0.0012 -0.0016  0.0014
                                        -0.0018
               ( 68.44%)   0.8273* O  9 s( 28.64%)p 2.48( 71.10%)d 0.01(  0.25%)
                                                  f 0.00(  0.01%)
                                         0.0000  0.5352 -0.0020  0.0017 -0.0002
                                         0.6636 -0.0173  0.0030  0.5192 -0.0030
                                         0.0064  0.0262  0.0016  0.0007  0.0409
                                         0.0016  0.0032  0.0005  0.0057 -0.0004
                                        -0.0081  0.0000 -0.0272  0.0009 -0.0005
                                        -0.0053 -0.0040 -0.0009 -0.0002  0.0006
                                         0.0060
  22. (1.98292) BD ( 1) C  3- N  4
               ( 40.32%)   0.6350* C  3 s( 34.08%)p 1.93( 65.84%)d 0.00(  0.05%)
                                                  f 0.00(  0.03%)
                                         0.0000  0.5820  0.0461  0.0014 -0.0002
                                         0.7234 -0.0542 -0.0069  0.3613 -0.0319
                                        -0.0050 -0.0236  0.0009 -0.0001  0.0093
                                         0.0125 -0.0021  0.0006  0.0031 -0.0016
                                         0.0044  0.0068 -0.0139 -0.0047  0.0011
                                        -0.0107 -0.0050 -0.0021 -0.0007  0.0048
                                         0.0111
               ( 59.68%)   0.7725* N  4 s( 35.48%)p 1.81( 64.11%)d 0.01(  0.38%)
                                                  f 0.00(  0.03%)
                                         0.0000  0.5951  0.0255  0.0025 -0.0002
                                        -0.7166  0.0177  0.0038 -0.3555 -0.0054
                                         0.0066  0.0282 -0.0040  0.0009  0.0483
                                         0.0017 -0.0002  0.0008  0.0038 -0.0013
                                         0.0115  0.0010 -0.0357  0.0021 -0.0008
                                         0.0098  0.0048  0.0026  0.0022 -0.0091
                                        -0.0115
  23. (1.98437) BD ( 1) C  3- H 12
               ( 58.45%)   0.7646* C  3 s( 31.40%)p 2.18( 68.49%)d 0.00(  0.08%)
                                                  f 0.00(  0.04%)
                                         0.0000  0.5599 -0.0213  0.0071  0.0002
                                        -0.0492  0.0093 -0.0033 -0.8091  0.0204
                                        -0.0191 -0.1639  0.0029 -0.0035  0.0052
                                        -0.0008 -0.0003  0.0007  0.0097  0.0003
                                        -0.0200 -0.0035 -0.0160  0.0013  0.0070
                                         0.0022  0.0130  0.0073  0.0005  0.0027
                                         0.0089
               ( 41.55%)   0.6446* H 12 s( 99.96%)p 0.00(  0.03%)d 0.00(  0.01%)
                                         0.9998 -0.0081  0.0007  0.0025  0.0005
                                         0.0139  0.0091  0.0026  0.0019  0.0008
                                         0.0003  0.0024 -0.0066 -0.0029
  24. (1.99101) BD ( 1) N  4- C  5
               ( 59.71%)   0.7727* N  4 s( 39.81%)p 1.50( 59.70%)d 0.01(  0.45%)
                                                  f 0.00(  0.03%)
                                         0.0000  0.6308  0.0150 -0.0002  0.0002
                                         0.6803 -0.0161 -0.0023 -0.3301  0.0040
                                         0.0048 -0.1577  0.0034  0.0012 -0.0484
                                        -0.0018 -0.0216  0.0002  0.0166 -0.0008
                                         0.0167  0.0006 -0.0334  0.0023  0.0055
                                        -0.0077  0.0042 -0.0047  0.0042  0.0077
                                        -0.0115
               ( 40.29%)   0.6347* C  5 s( 36.33%)p 1.75( 63.58%)d 0.00(  0.06%)
                                                  f 0.00(  0.03%)
                                         0.0000  0.6005  0.0516 -0.0038 -0.0006
                                        -0.6904  0.0486  0.0092  0.3509 -0.0279
                                        -0.0032  0.1806 -0.0127 -0.0026 -0.0118
                                        -0.0131 -0.0067 -0.0048  0.0044  0.0023
                                         0.0085  0.0048 -0.0109 -0.0037 -0.0060
                                         0.0088 -0.0034  0.0047 -0.0057 -0.0036
                                         0.0118
  25. (1.95209) BD ( 2) N  4- C  5
               ( 52.48%)   0.7244* N  4 s(  0.00%)p 1.00( 99.68%)d 0.00(  0.29%)
                                                  f 0.00(  0.03%)
                                         0.0000  0.0061  0.0021  0.0007  0.0000
                                        -0.1328  0.0003 -0.0004  0.2011 -0.0015
                                         0.0005 -0.9688  0.0110 -0.0030  0.0106
                                         0.0011 -0.0158 -0.0062  0.0444  0.0003
                                         0.0082 -0.0010  0.0210  0.0017  0.0110
                                         0.0072 -0.0035 -0.0099  0.0011 -0.0010
                                         0.0030
               ( 47.52%)   0.6894* C  5 s(  0.01%)p99.99( 99.89%)d 6.06(  0.07%)
                                                  f 2.29(  0.03%)
                                         0.0000 -0.0034  0.0096  0.0031 -0.0004
                                        -0.1511 -0.0058  0.0003  0.2046  0.0034
                                        -0.0024 -0.9661 -0.0277  0.0133 -0.0076
                                         0.0023  0.0201 -0.0020 -0.0107  0.0011
                                         0.0002  0.0005 -0.0099  0.0017  0.0132
                                         0.0057 -0.0071 -0.0019 -0.0006 -0.0002
                                         0.0001
  26. (1.97921) BD ( 1) C  5- C  6
               ( 47.93%)   0.6923* C  5 s( 33.99%)p 1.94( 65.88%)d 0.00(  0.08%)
                                                  f 0.00(  0.04%)
                                         0.0000  0.5830 -0.0076 -0.0054  0.0003
                                         0.7039 -0.0070  0.0054  0.4032  0.0032
                                         0.0025 -0.0268  0.0033  0.0040  0.0222
                                        -0.0051  0.0003 -0.0011  0.0001 -0.0007
                                         0.0093 -0.0011 -0.0143  0.0038  0.0004
                                        -0.0119 -0.0069 -0.0024 -0.0014  0.0060
                                         0.0136
               ( 52.07%)   0.7216* C  6 s( 26.91%)p 2.71( 73.02%)d 0.00(  0.06%)
                                                  f 0.00(  0.02%)
                                         0.0000  0.5187  0.0044  0.0004 -0.0001
                                        -0.7443  0.0000  0.0015 -0.4193  0.0080
                                         0.0004  0.0122  0.0088 -0.0034  0.0161
                                         0.0027 -0.0034  0.0017 -0.0027  0.0017
                                         0.0116  0.0001 -0.0140  0.0004 -0.0043
                                         0.0075  0.0011 -0.0017 -0.0024 -0.0001
                                        -0.0087
  27. (1.98701) BD ( 1) C  5- H 13
               ( 57.58%)   0.7588* C  5 s( 29.83%)p 2.35( 70.05%)d 0.00(  0.09%)
                                                  f 0.00(  0.03%)
                                         0.0000  0.5453 -0.0304  0.0076  0.0000
                                         0.0098 -0.0077  0.0022 -0.8177 -0.0022
                                        -0.0186 -0.1769  0.0020 -0.0045 -0.0023
                                         0.0019 -0.0012  0.0021  0.0113 -0.0035
                                        -0.0223  0.0007 -0.0144  0.0068  0.0070
                                         0.0002  0.0109  0.0075  0.0029 -0.0046
                                         0.0087
               ( 42.42%)   0.6513* H 13 s( 99.96%)p 0.00(  0.03%)d 0.00(  0.01%)
                                         0.9998 -0.0116  0.0005  0.0000 -0.0017
                                         0.0159  0.0061  0.0036  0.0013 -0.0010
                                         0.0002  0.0023 -0.0065 -0.0016
  28. (1.98613) BD ( 1) C  6- C  7
               ( 50.85%)   0.7131* C  6 s( 27.20%)p 2.68( 72.75%)d 0.00(  0.04%)
                                                  f 0.00(  0.01%)
                                         0.0000  0.5214  0.0112 -0.0002 -0.0002
                                        -0.0898 -0.0026  0.0023  0.8116 -0.0085
                                         0.0016  0.2462  0.0059 -0.0030 -0.0036
                                        -0.0002 -0.0001 -0.0011  0.0119  0.0001
                                        -0.0117 -0.0048 -0.0068 -0.0019 -0.0062
                                         0.0046 -0.0027 -0.0034 -0.0021  0.0010
                                        -0.0077
               ( 49.15%)   0.7010* C  7 s( 29.05%)p 2.44( 70.79%)d 0.00(  0.13%)
                                                  f 0.00(  0.03%)
                                         0.0000  0.5390  0.0080  0.0016  0.0002
                                         0.0968 -0.0039  0.0019 -0.7956  0.0052
                                         0.0060 -0.2557  0.0043 -0.0024 -0.0075
                                         0.0006 -0.0016 -0.0003  0.0170  0.0003
                                        -0.0272 -0.0003 -0.0148  0.0006  0.0076
                                        -0.0045  0.0039  0.0052  0.0026 -0.0026
                                         0.0111
  29. (1.98281) BD ( 1) C  6- C  8
               ( 50.35%)   0.7096* C  6 s( 26.23%)p 2.81( 73.71%)d 0.00(  0.04%)
                                                  f 0.00(  0.01%)
                                         0.0000  0.5120  0.0136 -0.0002  0.0000
                                         0.5932 -0.0086  0.0022 -0.4059  0.0037
                                         0.0002  0.4694  0.0007 -0.0012 -0.0098
                                        -0.0031  0.0147  0.0010 -0.0097 -0.0011
                                         0.0011  0.0030 -0.0004 -0.0009 -0.0066
                                         0.0046 -0.0003  0.0000 -0.0044  0.0002
                                        -0.0059
               ( 49.65%)   0.7046* C  8 s( 29.41%)p 2.40( 70.44%)d 0.00(  0.12%)
                                                  f 0.00(  0.03%)
                                         0.0000  0.5423  0.0078  0.0014  0.0003
                                        -0.5710  0.0023  0.0061  0.3957 -0.0019
                                        -0.0024 -0.4709  0.0046 -0.0005 -0.0190
                                        -0.0001  0.0236 -0.0005 -0.0147 -0.0005
                                         0.0074  0.0002 -0.0027  0.0006  0.0086
                                        -0.0053  0.0016 -0.0018  0.0077  0.0011
                                         0.0093
  30. (1.96167) BD ( 1) C  6- H 14
               ( 59.60%)   0.7720* C  6 s( 19.73%)p 4.06( 80.16%)d 0.01(  0.10%)
                                                  f 0.00(  0.02%)
                                         0.0000  0.4431 -0.0297  0.0000  0.0001
                                         0.2916  0.0104  0.0013  0.0049 -0.0030
                                         0.0007 -0.8462 -0.0178 -0.0010 -0.0005
                                         0.0006 -0.0177 -0.0001  0.0006 -0.0004
                                         0.0028  0.0004  0.0261  0.0006 -0.0062
                                         0.0076 -0.0005 -0.0021 -0.0034  0.0006
                                        -0.0065
               ( 40.40%)   0.6356* H 14 s( 99.94%)p 0.00(  0.04%)d 0.00(  0.02%)
                                         0.9997 -0.0058 -0.0001  0.0070 -0.0023
                                         0.0001  0.0000 -0.0193  0.0017  0.0000
                                        -0.0071 -0.0002  0.0011  0.0100
  31. (1.98913) BD ( 1) C  7- H 15
               ( 60.87%)   0.7802* C  7 s( 23.70%)p 3.21( 76.15%)d 0.01(  0.13%)
                                                  f 0.00(  0.02%)
                                         0.0000  0.4868 -0.0007 -0.0005  0.0001
                                        -0.5919 -0.0012  0.0011  0.4146 -0.0018
                                         0.0048 -0.4891 -0.0066 -0.0001 -0.0183
                                        -0.0011  0.0264 -0.0012 -0.0149 -0.0009
                                         0.0088  0.0002  0.0013 -0.0015  0.0072
                                        -0.0052 -0.0002 -0.0006  0.0060  0.0017
                                         0.0076
               ( 39.13%)   0.6255* H 15 s( 99.94%)p 0.00(  0.04%)d 0.00(  0.01%)
                                         0.9997 -0.0014 -0.0001 -0.0123  0.0065
                                         0.0106  0.0004 -0.0119  0.0008 -0.0067
                                         0.0068 -0.0046  0.0018 -0.0001
  32. (1.99016) BD ( 1) C  7- H 16
               ( 59.78%)   0.7732* C  7 s( 23.76%)p 3.20( 76.08%)d 0.01(  0.14%)
                                                  f 0.00(  0.02%)
                                         0.0000  0.4874 -0.0003 -0.0010  0.0000
                                         0.7520  0.0078  0.0018  0.4385 -0.0045
                                         0.0051 -0.0537 -0.0011  0.0008  0.0242
                                         0.0022 -0.0058  0.0015 -0.0009 -0.0008
                                         0.0201 -0.0019 -0.0194  0.0006  0.0045
                                        -0.0080 -0.0024 -0.0001  0.0020 -0.0021
                                         0.0089
               ( 40.22%)   0.6342* H 16 s( 99.95%)p 0.00(  0.04%)d 0.00(  0.01%)
                                         0.9997 -0.0011 -0.0001  0.0178 -0.0013
                                         0.0099 -0.0012 -0.0011  0.0002  0.0082
                                        -0.0008 -0.0006  0.0044 -0.0052
  33. (1.98971) BD ( 1) C  7- H 17
               ( 60.33%)   0.7767* C  7 s( 23.42%)p 3.26( 76.43%)d 0.01(  0.13%)
                                                  f 0.00(  0.02%)
                                         0.0000  0.4839 -0.0056  0.0001 -0.0003
                                        -0.2700  0.0036  0.0016  0.0274 -0.0099
                                         0.0033  0.8310 -0.0001 -0.0013  0.0005
                                        -0.0006 -0.0186 -0.0005 -0.0026  0.0021
                                        -0.0002  0.0024  0.0312  0.0000  0.0076
                                        -0.0087  0.0022  0.0005  0.0008 -0.0001
                                         0.0054
               ( 39.67%)   0.6299* H 17 s( 99.95%)p 0.00(  0.04%)d 0.00(  0.01%)
                                         0.9997 -0.0028 -0.0002 -0.0043  0.0053
                                         0.0003  0.0000  0.0181 -0.0045 -0.0006
                                        -0.0052  0.0006  0.0006  0.0086
  34. (1.99072) BD ( 1) C  8- H 18
               ( 60.10%)   0.7753* C  8 s( 23.66%)p 3.22( 76.19%)d 0.01(  0.14%)
                                                  f 0.00(  0.02%)
                                         0.0000  0.4864 -0.0011 -0.0005 -0.0001
                                         0.7826  0.0005  0.0036  0.3799  0.0071
                                        -0.0008 -0.0701 -0.0031  0.0017  0.0259
                                        -0.0008 -0.0063  0.0010 -0.0045  0.0016
                                         0.0171  0.0015 -0.0180  0.0000  0.0047
                                        -0.0078 -0.0006  0.0017  0.0008  0.0026
                                         0.0092
               ( 39.90%)   0.6316* H 18 s( 99.95%)p 0.00(  0.04%)d 0.00(  0.01%)
                                         0.9997 -0.0017 -0.0001  0.0180 -0.0017
                                         0.0086 -0.0008 -0.0016  0.0000  0.0070
                                        -0.0012 -0.0005  0.0058 -0.0051
  35. (1.98995) BD ( 1) C  8- H 19
               ( 60.17%)   0.7757* C  8 s( 23.35%)p 3.28( 76.50%)d 0.01(  0.14%)
                                                  f 0.00(  0.02%)
                                         0.0000  0.4832 -0.0007 -0.0006 -0.0002
                                         0.0832 -0.0042  0.0028 -0.8349 -0.0026
                                        -0.0025 -0.2467 -0.0050  0.0015 -0.0031
                                        -0.0013  0.0000 -0.0012  0.0196 -0.0015
                                        -0.0282 -0.0003 -0.0125 -0.0010  0.0064
                                        -0.0050  0.0034  0.0033  0.0012 -0.0024
                                         0.0089
               ( 39.83%)   0.6311* H 19 s( 99.95%)p 0.00(  0.04%)d 0.00(  0.01%)
                                         0.9997 -0.0012 -0.0001  0.0019  0.0001
                                        -0.0192  0.0012 -0.0056  0.0001 -0.0019
                                        -0.0006  0.0048 -0.0084 -0.0040
  36. (1.99107) BD ( 1) C  8- H 20
               ( 60.14%)   0.7755* C  8 s( 23.51%)p 3.25( 76.34%)d 0.01(  0.13%)
                                                  f 0.00(  0.02%)
                                         0.0000  0.4848 -0.0051  0.0002  0.0000
                                        -0.2295 -0.0068  0.0030  0.0083  0.0052
                                        -0.0016  0.8430 -0.0032  0.0002 -0.0030
                                         0.0019 -0.0185  0.0012  0.0013 -0.0006
                                         0.0038 -0.0011  0.0310  0.0010  0.0098
                                        -0.0058 -0.0005  0.0018  0.0008  0.0000
                                         0.0057
               ( 39.86%)   0.6314* H 20 s( 99.95%)p 0.00(  0.04%)d 0.00(  0.01%)
                                         0.9998 -0.0027 -0.0001 -0.0047  0.0022
                                         0.0003  0.0003  0.0181 -0.0044  0.0000
                                        -0.0045  0.0001  0.0004  0.0091
  37. (1.99263) BD ( 1) O  9- C 10
               ( 66.12%)   0.8132* O  9 s( 30.22%)p 2.30( 69.49%)d 0.01(  0.28%)
                                                  f 0.00(  0.01%)
                                         0.0000  0.5496  0.0076  0.0032  0.0001
                                        -0.7300  0.0189 -0.0043  0.3600  0.0102
                                         0.0073  0.1785 -0.0028  0.0014 -0.0401
                                        -0.0015 -0.0159 -0.0002  0.0134 -0.0002
                                         0.0103  0.0008 -0.0260  0.0009 -0.0035
                                         0.0054 -0.0026  0.0021 -0.0024 -0.0038
                                         0.0051
               ( 33.88%)   0.5820* C 10 s( 23.30%)p 3.29( 76.63%)d 0.00(  0.07%)
                                                  f 0.00(  0.00%)
                                         0.0000  0.4812  0.0384  0.0021 -0.0004
                                         0.7809 -0.0298  0.0032 -0.3491  0.0419
                                         0.0042 -0.1784  0.0001 -0.0030 -0.0069
                                        -0.0149 -0.0063 -0.0048  0.0007  0.0039
                                         0.0152  0.0034 -0.0070 -0.0079 -0.0005
                                        -0.0018  0.0042 -0.0014  0.0026  0.0013
                                        -0.0021
  38. (1.99488) BD ( 1) C 10- C 11
               ( 49.51%)   0.7037* C 10 s( 29.48%)p 2.39( 70.43%)d 0.00(  0.07%)
                                                  f 0.00(  0.01%)
                                         0.0000  0.5427  0.0188 -0.0011  0.0000
                                        -0.3081  0.0158 -0.0006  0.4008 -0.0041
                                         0.0021 -0.6696  0.0003  0.0028 -0.0056
                                        -0.0010  0.0151 -0.0021 -0.0174  0.0002
                                        -0.0028  0.0006  0.0121  0.0009 -0.0004
                                        -0.0033  0.0081 -0.0013  0.0071  0.0032
                                        -0.0018
               ( 50.49%)   0.7105* C 11 s( 28.13%)p 2.55( 71.71%)d 0.00(  0.14%)
                                                  f 0.00(  0.02%)
                                         0.0000  0.5300  0.0199  0.0011 -0.0002
                                         0.2950 -0.0046  0.0041 -0.4162  0.0062
                                        -0.0018  0.6758 -0.0084  0.0007 -0.0112
                                        -0.0004  0.0190  0.0001 -0.0251 -0.0002
                                        -0.0032  0.0000  0.0162 -0.0001  0.0002
                                         0.0058 -0.0105  0.0012 -0.0087 -0.0043
                                         0.0025
  39. (1.98354) BD ( 1) C 10- H 21
               ( 58.78%)   0.7667* C 10 s( 23.17%)p 3.31( 76.68%)d 0.01(  0.14%)
                                                  f 0.00(  0.01%)
                                         0.0000  0.4811 -0.0151 -0.0011 -0.0002
                                        -0.5313 -0.0177  0.0024 -0.6517 -0.0156
                                         0.0044  0.2433  0.0007 -0.0037  0.0301
                                        -0.0030 -0.0089 -0.0008 -0.0114  0.0000
                                        -0.0063 -0.0008 -0.0145  0.0007 -0.0024
                                         0.0000  0.0062 -0.0026  0.0067  0.0040
                                        -0.0048
               ( 41.22%)   0.6420* H 21 s( 99.95%)p 0.00(  0.04%)d 0.00(  0.01%)
                                         0.9997 -0.0031 -0.0001 -0.0127 -0.0005
                                        -0.0141  0.0003  0.0053 -0.0014  0.0088
                                        -0.0037 -0.0039 -0.0009 -0.0040
  40. (1.98743) BD ( 1) C 10- H 22
               ( 59.61%)   0.7721* C 10 s( 24.20%)p 3.13( 75.66%)d 0.00(  0.12%)
                                                  f 0.00(  0.01%)
                                         0.0000  0.4913 -0.0251  0.0008  0.0003
                                         0.0939  0.0046  0.0016  0.5385  0.0066
                                         0.0055  0.6765  0.0079  0.0006  0.0017
                                         0.0025  0.0039  0.0007  0.0290 -0.0010
                                        -0.0123  0.0018  0.0131 -0.0007 -0.0007
                                        -0.0010  0.0086 -0.0049  0.0040  0.0035
                                        -0.0042
               ( 40.39%)   0.6355* H 22 s( 99.95%)p 0.00(  0.04%)d 0.00(  0.01%)
                                         0.9997 -0.0060 -0.0001  0.0034  0.0042
                                         0.0131 -0.0025  0.0139 -0.0049 -0.0003
                                         0.0010  0.0089 -0.0035  0.0046
  41. (1.99026) BD ( 1) C 11- H 23
               ( 61.07%)   0.7814* C 11 s( 24.23%)p 3.12( 75.62%)d 0.01(  0.13%)
                                                  f 0.00(  0.02%)
                                         0.0000  0.4922 -0.0080  0.0003  0.0003
                                         0.5274  0.0055  0.0034  0.6588 -0.0002
                                        -0.0011 -0.2099  0.0020  0.0031  0.0295
                                         0.0003 -0.0067 -0.0011 -0.0100 -0.0002
                                        -0.0035 -0.0010 -0.0165  0.0000  0.0025
                                        -0.0002 -0.0069  0.0043 -0.0064 -0.0069
                                         0.0052
               ( 38.93%)   0.6240* H 23 s( 99.95%)p 0.00(  0.04%)d 0.00(  0.01%)
                                         0.9997 -0.0022 -0.0001  0.0104 -0.0056
                                         0.0157 -0.0016 -0.0066 -0.0026  0.0081
                                        -0.0033 -0.0036 -0.0024 -0.0043
  42. (1.98747) BD ( 1) C 11- H 24
               ( 60.11%)   0.7753* C 11 s( 23.71%)p 3.21( 76.12%)d 0.01(  0.14%)
                                                  f 0.00(  0.02%)
                                         0.0000  0.4869 -0.0034 -0.0011 -0.0003
                                        -0.7932 -0.0043  0.0023  0.3239 -0.0007
                                        -0.0018  0.1646  0.0070  0.0014 -0.0200
                                        -0.0006 -0.0163  0.0017  0.0058 -0.0001
                                         0.0234 -0.0002 -0.0139 -0.0013 -0.0008
                                         0.0041 -0.0064  0.0035 -0.0042 -0.0048
                                         0.0086
               ( 39.89%)   0.6316* H 24 s( 99.94%)p 0.00(  0.04%)d 0.00(  0.01%)
                                         0.9997 -0.0008 -0.0001 -0.0192 -0.0008
                                         0.0074 -0.0007  0.0046  0.0016 -0.0065
                                        -0.0030  0.0011  0.0065 -0.0048
  43. (1.99097) BD ( 1) C 11- H 25
               ( 60.08%)   0.7751* C 11 s( 23.90%)p 3.18( 75.94%)d 0.01(  0.14%)
                                                  f 0.00(  0.02%)
                                         0.0000  0.4889 -0.0069 -0.0001  0.0000
                                        -0.0607  0.0027  0.0011 -0.5347 -0.0067
                                        -0.0016 -0.6854  0.0022  0.0019  0.0009
                                         0.0007  0.0048 -0.0007  0.0310  0.0007
                                        -0.0144  0.0011  0.0129  0.0011 -0.0011
                                        -0.0001 -0.0104  0.0055 -0.0045 -0.0030
                                         0.0046
               ( 39.92%)   0.6318* H 25 s( 99.95%)p 0.00(  0.04%)d 0.00(  0.01%)
                                         0.9997 -0.0019 -0.0001 -0.0017 -0.0009
                                        -0.0127  0.0001 -0.0160  0.0007  0.0009
                                         0.0011  0.0088 -0.0034  0.0048
 ---------------- non-Lewis ----------------------------------------------------
  44. (0.02031) BD*( 1) O  1- C  2
               ( 35.55%)   0.5962* O  1 s( 40.24%)p 1.47( 59.16%)d 0.01(  0.58%)
                                                  f 0.00(  0.01%)
                                         0.0000 -0.6344 -0.0028  0.0008 -0.0003
                                        -0.1275  0.0038 -0.0012  0.7372 -0.0248
                                         0.0072  0.1765 -0.0058  0.0017  0.0185
                                         0.0001  0.0044 -0.0001 -0.0290 -0.0001
                                         0.0600  0.0005  0.0322 -0.0002 -0.0032
                                         0.0007 -0.0045 -0.0043 -0.0013  0.0037
                                        -0.0073
               ( 64.45%)  -0.8028* C  2 s( 34.58%)p 1.89( 65.32%)d 0.00(  0.07%)
                                                  f 0.00(  0.03%)
                                         0.0000 -0.5868  0.0371 -0.0063  0.0007
                                         0.1063  0.0026 -0.0016 -0.7782  0.0575
                                         0.0026 -0.1812  0.0129  0.0010  0.0054
                                         0.0049  0.0012  0.0008 -0.0063 -0.0080
                                         0.0124  0.0178  0.0069  0.0078  0.0054
                                        -0.0021  0.0070  0.0062  0.0025 -0.0055
                                         0.0105
  45. (0.05324) BD*( 1) C  2- C  3
               ( 49.78%)   0.7056* C  2 s( 40.96%)p 1.44( 58.92%)d 0.00(  0.08%)
                                                  f 0.00(  0.04%)
                                         0.0000  0.6394  0.0273 -0.0064  0.0000
                                         0.6622  0.0027  0.0023 -0.3520  0.0053
                                        -0.0055 -0.1634  0.0029 -0.0030 -0.0233
                                         0.0033 -0.0076 -0.0008  0.0027  0.0025
                                         0.0094  0.0003 -0.0034 -0.0076  0.0072
                                        -0.0087  0.0059 -0.0031  0.0075 -0.0004
                                        -0.0131
               ( 50.22%)  -0.7086* C  3 s( 34.61%)p 1.88( 65.22%)d 0.00(  0.14%)
                                                  f 0.00(  0.04%)
                                         0.0000  0.5881 -0.0102 -0.0091 -0.0002
                                        -0.6703  0.0227  0.0030  0.4109 -0.0055
                                         0.0003  0.1828 -0.0044 -0.0004 -0.0293
                                         0.0041 -0.0116  0.0005  0.0081  0.0000
                                         0.0097 -0.0004 -0.0151 -0.0008 -0.0071
                                         0.0089 -0.0056  0.0038 -0.0059 -0.0045
                                         0.0112
  46. (0.43467) BD*( 2) C  2- C  3
               ( 69.74%)   0.8351* C  2 s(  0.00%)p 1.00( 99.82%)d 0.00(  0.15%)
                                                  f 0.00(  0.03%)
                                         0.0000  0.0014  0.0006 -0.0011 -0.0003
                                        -0.1302 -0.0092  0.0047  0.2064  0.0119
                                        -0.0048 -0.9671 -0.0534  0.0186  0.0088
                                        -0.0030 -0.0276  0.0090  0.0171 -0.0056
                                        -0.0002  0.0003  0.0146 -0.0053  0.0118
                                         0.0044 -0.0090  0.0032  0.0012  0.0013
                                        -0.0006
               ( 30.26%)  -0.5501* C  3 s(  0.00%)p 1.00( 99.92%)d 0.00(  0.04%)
                                                  f 0.00(  0.04%)
                                         0.0000  0.0021 -0.0012 -0.0013  0.0003
                                        -0.1358 -0.0066  0.0010  0.2056  0.0117
                                        -0.0022 -0.9671 -0.0535  0.0100 -0.0045
                                         0.0011  0.0111 -0.0049 -0.0112 -0.0002
                                        -0.0009 -0.0006 -0.0073  0.0011  0.0169
                                         0.0067 -0.0086 -0.0032 -0.0026 -0.0009
                                         0.0006
  47. (0.11617) BD*( 1) C  2- O  9
               ( 68.44%)   0.8273* C  2 s( 24.56%)p 3.07( 75.36%)d 0.00(  0.07%)
                                                  f 0.00(  0.01%)
                                         0.0000  0.4956 -0.0015  0.0068  0.0005
                                        -0.7288  0.0053 -0.0052 -0.4708  0.0272
                                        -0.0077 -0.0015  0.0024 -0.0002  0.0209
                                         0.0110  0.0019  0.0003  0.0003 -0.0014
                                         0.0059  0.0022 -0.0118 -0.0019 -0.0007
                                         0.0060  0.0025  0.0012 -0.0016  0.0014
                                        -0.0018
               ( 31.56%)  -0.5618* O  9 s( 28.64%)p 2.48( 71.10%)d 0.01(  0.25%)
                                                  f 0.00(  0.01%)
                                         0.0000  0.5352 -0.0020  0.0017 -0.0002
                                         0.6636 -0.0173  0.0030  0.5192 -0.0030
                                         0.0064  0.0262  0.0016  0.0007  0.0409
                                         0.0016  0.0032  0.0005  0.0057 -0.0004
                                        -0.0081  0.0000 -0.0272  0.0009 -0.0005
                                        -0.0053 -0.0040 -0.0009 -0.0002  0.0006
                                         0.0060
  48. (0.01222) BD*( 1) C  3- N  4
               ( 59.68%)   0.7725* C  3 s( 34.08%)p 1.93( 65.84%)d 0.00(  0.05%)
                                                  f 0.00(  0.03%)
                                         0.0000  0.5820  0.0461  0.0014 -0.0002
                                         0.7234 -0.0542 -0.0069  0.3613 -0.0319
                                        -0.0050 -0.0236  0.0009 -0.0001  0.0093
                                         0.0125 -0.0021  0.0006  0.0031 -0.0016
                                         0.0044  0.0068 -0.0139 -0.0047  0.0011
                                        -0.0107 -0.0050 -0.0021 -0.0007  0.0048
                                         0.0111
               ( 40.32%)  -0.6350* N  4 s( 35.48%)p 1.81( 64.11%)d 0.01(  0.38%)
                                                  f 0.00(  0.03%)
                                         0.0000  0.5951  0.0255  0.0025 -0.0002
                                        -0.7166  0.0177  0.0038 -0.3555 -0.0054
                                         0.0066  0.0282 -0.0040  0.0009  0.0483
                                         0.0017 -0.0002  0.0008  0.0038 -0.0013
                                         0.0115  0.0010 -0.0357  0.0021 -0.0008
                                         0.0098  0.0048  0.0026  0.0022 -0.0091
                                        -0.0115
  49. (0.03653) BD*( 1) C  3- H 12
               ( 41.55%)   0.6446* C  3 s( 31.40%)p 2.18( 68.49%)d 0.00(  0.08%)
                                                  f 0.00(  0.04%)
                                         0.0000 -0.5599  0.0213 -0.0071 -0.0002
                                         0.0492 -0.0093  0.0033  0.8091 -0.0204
                                         0.0191  0.1639 -0.0029  0.0035 -0.0052
                                         0.0008  0.0003 -0.0007 -0.0097 -0.0003
                                         0.0200  0.0035  0.0160 -0.0013 -0.0070
                                        -0.0022 -0.0130 -0.0073 -0.0005 -0.0027
                                        -0.0089
               ( 58.45%)  -0.7646* H 12 s( 99.96%)p 0.00(  0.03%)d 0.00(  0.01%)
                                        -0.9998  0.0081 -0.0007 -0.0025 -0.0005
                                        -0.0139 -0.0091 -0.0026 -0.0019 -0.0008
                                        -0.0003 -0.0024  0.0066  0.0029
  50. (0.00922) BD*( 1) N  4- C  5
               ( 40.29%)   0.6347* N  4 s( 39.81%)p 1.50( 59.70%)d 0.01(  0.45%)
                                                  f 0.00(  0.03%)
                                         0.0000 -0.6308 -0.0150  0.0002 -0.0002
                                        -0.6803  0.0161  0.0023  0.3301 -0.0040
                                        -0.0048  0.1577 -0.0034 -0.0012  0.0484
                                         0.0018  0.0216 -0.0002 -0.0166  0.0008
                                        -0.0167 -0.0006  0.0334 -0.0023 -0.0055
                                         0.0077 -0.0042  0.0047 -0.0042 -0.0077
                                         0.0115
               ( 59.71%)  -0.7727* C  5 s( 36.33%)p 1.75( 63.58%)d 0.00(  0.06%)
                                                  f 0.00(  0.03%)
                                         0.0000 -0.6005 -0.0516  0.0038  0.0006
                                         0.6904 -0.0486 -0.0092 -0.3509  0.0279
                                         0.0032 -0.1806  0.0127  0.0026  0.0118
                                         0.0131  0.0067  0.0048 -0.0044 -0.0023
                                        -0.0085 -0.0048  0.0109  0.0037  0.0060
                                        -0.0088  0.0034 -0.0047  0.0057  0.0036
                                        -0.0118
  51. (0.27020) BD*( 2) N  4- C  5
               ( 47.52%)   0.6894* N  4 s(  0.00%)p 1.00( 99.68%)d 0.00(  0.29%)
                                                  f 0.00(  0.03%)
                                         0.0000 -0.0061 -0.0021 -0.0007  0.0000
                                         0.1328 -0.0003  0.0004 -0.2011  0.0015
                                        -0.0005  0.9688 -0.0110  0.0030 -0.0106
                                        -0.0011  0.0158  0.0062 -0.0444 -0.0003
                                        -0.0082  0.0010 -0.0210 -0.0017 -0.0110
                                        -0.0072  0.0035  0.0099 -0.0011  0.0010
                                        -0.0030
               ( 52.48%)  -0.7244* C  5 s(  0.01%)p99.99( 99.89%)d 6.06(  0.07%)
                                                  f 2.29(  0.03%)
                                         0.0000  0.0034 -0.0096 -0.0031  0.0004
                                         0.1511  0.0058 -0.0003 -0.2046 -0.0034
                                         0.0024  0.9661  0.0277 -0.0133  0.0076
                                        -0.0023 -0.0201  0.0020  0.0107 -0.0011
                                        -0.0002 -0.0005  0.0099 -0.0017 -0.0132
                                        -0.0057  0.0071  0.0019  0.0006  0.0002
                                        -0.0001
  52. (0.03271) BD*( 1) C  5- C  6
               ( 52.07%)   0.7216* C  5 s( 33.99%)p 1.94( 65.88%)d 0.00(  0.08%)
                                                  f 0.00(  0.04%)
                                         0.0000  0.5830 -0.0076 -0.0054  0.0003
                                         0.7039 -0.0070  0.0054  0.4032  0.0032
                                         0.0025 -0.0268  0.0033  0.0040  0.0222
                                        -0.0051  0.0003 -0.0011  0.0001 -0.0007
                                         0.0093 -0.0011 -0.0143  0.0038  0.0004
                                        -0.0119 -0.0069 -0.0024 -0.0014  0.0060
                                         0.0136
               ( 47.93%)  -0.6923* C  6 s( 26.91%)p 2.71( 73.02%)d 0.00(  0.06%)
                                                  f 0.00(  0.02%)
                                         0.0000  0.5187  0.0044  0.0004 -0.0001
                                        -0.7443  0.0000  0.0015 -0.4193  0.0080
                                         0.0004  0.0122  0.0088 -0.0034  0.0161
                                         0.0027 -0.0034  0.0017 -0.0027  0.0017
                                         0.0116  0.0001 -0.0140  0.0004 -0.0043
                                         0.0075  0.0011 -0.0017 -0.0024 -0.0001
                                        -0.0087
  53. (0.04943) BD*( 1) C  5- H 13
               ( 42.42%)   0.6513* C  5 s( 29.83%)p 2.35( 70.05%)d 0.00(  0.09%)
                                                  f 0.00(  0.03%)
                                         0.0000 -0.5453  0.0304 -0.0076  0.0000
                                        -0.0098  0.0077 -0.0022  0.8177  0.0022
                                         0.0186  0.1769 -0.0020  0.0045  0.0023
                                        -0.0019  0.0012 -0.0021 -0.0113  0.0035
                                         0.0223 -0.0007  0.0144 -0.0068 -0.0070
                                        -0.0002 -0.0109 -0.0075 -0.0029  0.0046
                                        -0.0087
               ( 57.58%)  -0.7588* H 13 s( 99.96%)p 0.00(  0.03%)d 0.00(  0.01%)
                                        -0.9998  0.0116 -0.0005  0.0000  0.0017
                                        -0.0159 -0.0061 -0.0036 -0.0013  0.0010
                                        -0.0002 -0.0023  0.0065  0.0016
  54. (0.01368) BD*( 1) C  6- C  7
               ( 49.15%)   0.7010* C  6 s( 27.20%)p 2.68( 72.75%)d 0.00(  0.04%)
                                                  f 0.00(  0.01%)
                                         0.0000 -0.5214 -0.0112  0.0002  0.0002
                                         0.0898  0.0026 -0.0023 -0.8116  0.0085
                                        -0.0016 -0.2462 -0.0059  0.0030  0.0036
                                         0.0002  0.0001  0.0011 -0.0119 -0.0001
                                         0.0117  0.0048  0.0068  0.0019  0.0062
                                        -0.0046  0.0027  0.0034  0.0021 -0.0010
                                         0.0077
               ( 50.85%)  -0.7131* C  7 s( 29.05%)p 2.44( 70.79%)d 0.00(  0.13%)
                                                  f 0.00(  0.03%)
                                         0.0000 -0.5390 -0.0080 -0.0016 -0.0002
                                        -0.0968  0.0039 -0.0019  0.7956 -0.0052
                                        -0.0060  0.2557 -0.0043  0.0024  0.0075
                                        -0.0006  0.0016  0.0003 -0.0170 -0.0003
                                         0.0272  0.0003  0.0148 -0.0006 -0.0076
                                         0.0045 -0.0039 -0.0052 -0.0026  0.0026
                                        -0.0111
  55. (0.01670) BD*( 1) C  6- C  8
               ( 49.65%)   0.7046* C  6 s( 26.23%)p 2.81( 73.71%)d 0.00(  0.04%)
                                                  f 0.00(  0.01%)
                                         0.0000 -0.5120 -0.0136  0.0002  0.0000
                                        -0.5932  0.0086 -0.0022  0.4059 -0.0037
                                        -0.0002 -0.4694 -0.0007  0.0012  0.0098
                                         0.0031 -0.0147 -0.0010  0.0097  0.0011
                                        -0.0011 -0.0030  0.0004  0.0009  0.0066
                                        -0.0046  0.0003  0.0000  0.0044 -0.0002
                                         0.0059
               ( 50.35%)  -0.7096* C  8 s( 29.41%)p 2.40( 70.44%)d 0.00(  0.12%)
                                                  f 0.00(  0.03%)
                                         0.0000 -0.5423 -0.0078 -0.0014 -0.0003
                                         0.5710 -0.0023 -0.0061 -0.3957  0.0019
                                         0.0024  0.4709 -0.0046  0.0005  0.0190
                                         0.0001 -0.0236  0.0005  0.0147  0.0005
                                        -0.0074 -0.0002  0.0027 -0.0006 -0.0086
                                         0.0053 -0.0016  0.0018 -0.0077 -0.0011
                                        -0.0093
  56. (0.03173) BD*( 1) C  6- H 14
               ( 40.40%)   0.6356* C  6 s( 19.73%)p 4.06( 80.16%)d 0.01(  0.10%)
                                                  f 0.00(  0.02%)
                                         0.0000 -0.4431  0.0297  0.0000 -0.0001
                                        -0.2916 -0.0104 -0.0013 -0.0049  0.0030
                                        -0.0007  0.8462  0.0178  0.0010  0.0005
                                        -0.0006  0.0177  0.0001 -0.0006  0.0004
                                        -0.0028 -0.0004 -0.0261 -0.0006  0.0062
                                        -0.0076  0.0005  0.0021  0.0034 -0.0006
                                         0.0065
               ( 59.60%)  -0.7720* H 14 s( 99.94%)p 0.00(  0.04%)d 0.00(  0.02%)
                                        -0.9997  0.0058  0.0001 -0.0070  0.0023
                                        -0.0001  0.0000  0.0193 -0.0017  0.0000
                                         0.0071  0.0002 -0.0011 -0.0100
  57. (0.00653) BD*( 1) C  7- H 15
               ( 39.13%)   0.6255* C  7 s( 23.70%)p 3.21( 76.15%)d 0.01(  0.13%)
                                                  f 0.00(  0.02%)
                                         0.0000 -0.4868  0.0007  0.0005 -0.0001
                                         0.5919  0.0012 -0.0011 -0.4146  0.0018
                                        -0.0048  0.4891  0.0066  0.0001  0.0183
                                         0.0011 -0.0264  0.0012  0.0149  0.0009
                                        -0.0088 -0.0002 -0.0013  0.0015 -0.0072
                                         0.0052  0.0002  0.0006 -0.0060 -0.0017
                                        -0.0076
               ( 60.87%)  -0.7802* H 15 s( 99.94%)p 0.00(  0.04%)d 0.00(  0.01%)
                                        -0.9997  0.0014  0.0001  0.0123 -0.0065
                                        -0.0106 -0.0004  0.0119 -0.0008  0.0067
                                        -0.0068  0.0046 -0.0018  0.0001
  58. (0.00715) BD*( 1) C  7- H 16
               ( 40.22%)   0.6342* C  7 s( 23.76%)p 3.20( 76.08%)d 0.01(  0.14%)
                                                  f 0.00(  0.02%)
                                         0.0000 -0.4874  0.0003  0.0010  0.0000
                                        -0.7520 -0.0078 -0.0018 -0.4385  0.0045
                                        -0.0051  0.0537  0.0011 -0.0008 -0.0242
                                        -0.0022  0.0058 -0.0015  0.0009  0.0008
                                        -0.0201  0.0019  0.0194 -0.0006 -0.0045
                                         0.0080  0.0024  0.0001 -0.0020  0.0021
                                        -0.0089
               ( 59.78%)  -0.7732* H 16 s( 99.95%)p 0.00(  0.04%)d 0.00(  0.01%)
                                        -0.9997  0.0011  0.0001 -0.0178  0.0013
                                        -0.0099  0.0012  0.0011 -0.0002 -0.0082
                                         0.0008  0.0006 -0.0044  0.0052
  59. (0.01013) BD*( 1) C  7- H 17
               ( 39.67%)   0.6299* C  7 s( 23.42%)p 3.26( 76.43%)d 0.01(  0.13%)
                                                  f 0.00(  0.02%)
                                         0.0000 -0.4839  0.0056 -0.0001  0.0003
                                         0.2700 -0.0036 -0.0016 -0.0274  0.0099
                                        -0.0033 -0.8310  0.0001  0.0013 -0.0005
                                         0.0006  0.0186  0.0005  0.0026 -0.0021
                                         0.0002 -0.0024 -0.0312  0.0000 -0.0076
                                         0.0087 -0.0022 -0.0005 -0.0008  0.0001
                                        -0.0054
               ( 60.33%)  -0.7767* H 17 s( 99.95%)p 0.00(  0.04%)d 0.00(  0.01%)
                                        -0.9997  0.0028  0.0002  0.0043 -0.0053
                                        -0.0003  0.0000 -0.0181  0.0045  0.0006
                                         0.0052 -0.0006 -0.0006 -0.0086
  60. (0.00794) BD*( 1) C  8- H 18
               ( 39.90%)   0.6316* C  8 s( 23.66%)p 3.22( 76.19%)d 0.01(  0.14%)
                                                  f 0.00(  0.02%)
                                         0.0000 -0.4864  0.0011  0.0005  0.0001
                                        -0.7826 -0.0005 -0.0036 -0.3799 -0.0071
                                         0.0008  0.0701  0.0031 -0.0017 -0.0259
                                         0.0008  0.0063 -0.0010  0.0045 -0.0016
                                        -0.0171 -0.0015  0.0180  0.0000 -0.0047
                                         0.0078  0.0006 -0.0017 -0.0008 -0.0026
                                        -0.0092
               ( 60.10%)  -0.7753* H 18 s( 99.95%)p 0.00(  0.04%)d 0.00(  0.01%)
                                        -0.9997  0.0017  0.0001 -0.0180  0.0017
                                        -0.0086  0.0008  0.0016  0.0000 -0.0070
                                         0.0012  0.0005 -0.0058  0.0051
  61. (0.00657) BD*( 1) C  8- H 19
               ( 39.83%)   0.6311* C  8 s( 23.35%)p 3.28( 76.50%)d 0.01(  0.14%)
                                                  f 0.00(  0.02%)
                                         0.0000 -0.4832  0.0007  0.0006  0.0002
                                        -0.0832  0.0042 -0.0028  0.8349  0.0026
                                         0.0025  0.2467  0.0050 -0.0015  0.0031
                                         0.0013  0.0000  0.0012 -0.0196  0.0015
                                         0.0282  0.0003  0.0125  0.0010 -0.0064
                                         0.0050 -0.0034 -0.0033 -0.0012  0.0024
                                        -0.0089
               ( 60.17%)  -0.7757* H 19 s( 99.95%)p 0.00(  0.04%)d 0.00(  0.01%)
                                        -0.9997  0.0012  0.0001 -0.0019 -0.0001
                                         0.0192 -0.0012  0.0056 -0.0001  0.0019
                                         0.0006 -0.0048  0.0084  0.0040
  62. (0.01023) BD*( 1) C  8- H 20
               ( 39.86%)   0.6314* C  8 s( 23.51%)p 3.25( 76.34%)d 0.01(  0.13%)
                                                  f 0.00(  0.02%)
                                         0.0000 -0.4848  0.0051 -0.0002  0.0000
                                         0.2295  0.0068 -0.0030 -0.0083 -0.0052
                                         0.0016 -0.8430  0.0032 -0.0002  0.0030
                                        -0.0019  0.0185 -0.0012 -0.0013  0.0006
                                        -0.0038  0.0011 -0.0310 -0.0010 -0.0098
                                         0.0058  0.0005 -0.0018 -0.0008  0.0000
                                        -0.0057
               ( 60.14%)  -0.7755* H 20 s( 99.95%)p 0.00(  0.04%)d 0.00(  0.01%)
                                        -0.9998  0.0027  0.0001  0.0047 -0.0022
                                        -0.0003 -0.0003 -0.0181  0.0044  0.0000
                                         0.0045 -0.0001 -0.0004 -0.0091
  63. (0.02256) BD*( 1) O  9- C 10
               ( 33.88%)   0.5820* O  9 s( 30.22%)p 2.30( 69.49%)d 0.01(  0.28%)
                                                  f 0.00(  0.01%)
                                         0.0000 -0.5496 -0.0076 -0.0032 -0.0001
                                         0.7300 -0.0189  0.0043 -0.3600 -0.0102
                                        -0.0073 -0.1785  0.0028 -0.0014  0.0401
                                         0.0015  0.0159  0.0002 -0.0134  0.0002
                                        -0.0103 -0.0008  0.0260 -0.0009  0.0035
                                        -0.0054  0.0026 -0.0021  0.0024  0.0038
                                        -0.0051
               ( 66.12%)  -0.8132* C 10 s( 23.30%)p 3.29( 76.63%)d 0.00(  0.07%)
                                                  f 0.00(  0.00%)
                                         0.0000 -0.4812 -0.0384 -0.0021  0.0004
                                        -0.7809  0.0298 -0.0032  0.3491 -0.0419
                                        -0.0042  0.1784 -0.0001  0.0030  0.0069
                                         0.0149  0.0063  0.0048 -0.0007 -0.0039
                                        -0.0152 -0.0034  0.0070  0.0079  0.0005
                                         0.0018 -0.0042  0.0014 -0.0026 -0.0013
                                         0.0021
  64. (0.02083) BD*( 1) C 10- C 11
               ( 50.49%)   0.7105* C 10 s( 29.48%)p 2.39( 70.43%)d 0.00(  0.07%)
                                                  f 0.00(  0.01%)
                                         0.0000  0.5427  0.0188 -0.0011  0.0000
                                        -0.3081  0.0158 -0.0006  0.4008 -0.0041
                                         0.0021 -0.6696  0.0003  0.0028 -0.0056
                                        -0.0010  0.0151 -0.0021 -0.0174  0.0002
                                        -0.0028  0.0006  0.0121  0.0009 -0.0004
                                        -0.0033  0.0081 -0.0013  0.0071  0.0032
                                        -0.0018
               ( 49.51%)  -0.7037* C 11 s( 28.13%)p 2.55( 71.71%)d 0.00(  0.14%)
                                                  f 0.00(  0.02%)
                                         0.0000  0.5300  0.0199  0.0011 -0.0002
                                         0.2950 -0.0046  0.0041 -0.4162  0.0062
                                        -0.0018  0.6758 -0.0084  0.0007 -0.0112
                                        -0.0004  0.0190  0.0001 -0.0251 -0.0002
                                        -0.0032  0.0000  0.0162 -0.0001  0.0002
                                         0.0058 -0.0105  0.0012 -0.0087 -0.0043
                                         0.0025
  65. (0.02103) BD*( 1) C 10- H 21
               ( 41.22%)   0.6420* C 10 s( 23.17%)p 3.31( 76.68%)d 0.01(  0.14%)
                                                  f 0.00(  0.01%)
                                         0.0000 -0.4811  0.0151  0.0011  0.0002
                                         0.5313  0.0177 -0.0024  0.6517  0.0156
                                        -0.0044 -0.2433 -0.0007  0.0037 -0.0301
                                         0.0030  0.0089  0.0008  0.0114  0.0000
                                         0.0063  0.0008  0.0145 -0.0007  0.0024
                                         0.0000 -0.0062  0.0026 -0.0067 -0.0040
                                         0.0048
               ( 58.78%)  -0.7667* H 21 s( 99.95%)p 0.00(  0.04%)d 0.00(  0.01%)
                                        -0.9997  0.0031  0.0001  0.0127  0.0005
                                         0.0141 -0.0003 -0.0053  0.0014 -0.0088
                                         0.0037  0.0039  0.0009  0.0040
  66. (0.02939) BD*( 1) C 10- H 22
               ( 40.39%)   0.6355* C 10 s( 24.20%)p 3.13( 75.66%)d 0.00(  0.12%)
                                                  f 0.00(  0.01%)
                                         0.0000 -0.4913  0.0251 -0.0008 -0.0003
                                        -0.0939 -0.0046 -0.0016 -0.5385 -0.0066
                                        -0.0055 -0.6765 -0.0079 -0.0006 -0.0017
                                        -0.0025 -0.0039 -0.0007 -0.0290  0.0010
                                         0.0123 -0.0018 -0.0131  0.0007  0.0007
                                         0.0010 -0.0086  0.0049 -0.0040 -0.0035
                                         0.0042
               ( 59.61%)  -0.7721* H 22 s( 99.95%)p 0.00(  0.04%)d 0.00(  0.01%)
                                        -0.9997  0.0060  0.0001 -0.0034 -0.0042
                                        -0.0131  0.0025 -0.0139  0.0049  0.0003
                                        -0.0010 -0.0089  0.0035 -0.0046
  67. (0.00885) BD*( 1) C 11- H 23
               ( 38.93%)   0.6240* C 11 s( 24.23%)p 3.12( 75.62%)d 0.01(  0.13%)
                                                  f 0.00(  0.02%)
                                         0.0000 -0.4922  0.0080 -0.0003 -0.0003
                                        -0.5274 -0.0055 -0.0034 -0.6588  0.0002
                                         0.0011  0.2099 -0.0020 -0.0031 -0.0295
                                        -0.0003  0.0067  0.0011  0.0100  0.0002
                                         0.0035  0.0010  0.0165  0.0000 -0.0025
                                         0.0002  0.0069 -0.0043  0.0064  0.0069
                                        -0.0052
               ( 61.07%)  -0.7814* H 23 s( 99.95%)p 0.00(  0.04%)d 0.00(  0.01%)
                                        -0.9997  0.0022  0.0001 -0.0104  0.0056
                                        -0.0157  0.0016  0.0066  0.0026 -0.0081
                                         0.0033  0.0036  0.0024  0.0043
  68. (0.00478) BD*( 1) C 11- H 24
               ( 39.89%)   0.6316* C 11 s( 23.71%)p 3.21( 76.12%)d 0.01(  0.14%)
                                                  f 0.00(  0.02%)
                                         0.0000 -0.4869  0.0034  0.0011  0.0003
                                         0.7932  0.0043 -0.0023 -0.3239  0.0007
                                         0.0018 -0.1646 -0.0070 -0.0014  0.0200
                                         0.0006  0.0163 -0.0017 -0.0058  0.0001
                                        -0.0234  0.0002  0.0139  0.0013  0.0008
                                        -0.0041  0.0064 -0.0035  0.0042  0.0048
                                        -0.0086
               ( 60.11%)  -0.7753* H 24 s( 99.94%)p 0.00(  0.04%)d 0.00(  0.01%)
                                        -0.9997  0.0008  0.0001  0.0192  0.0008
                                        -0.0074  0.0007 -0.0046 -0.0016  0.0065
                                         0.0030 -0.0011 -0.0065  0.0048
  69. (0.00834) BD*( 1) C 11- H 25
               ( 39.92%)   0.6318* C 11 s( 23.90%)p 3.18( 75.94%)d 0.01(  0.14%)
                                                  f 0.00(  0.02%)
                                         0.0000 -0.4889  0.0069  0.0001  0.0000
                                         0.0607 -0.0027 -0.0011  0.5347  0.0067
                                         0.0016  0.6854 -0.0022 -0.0019 -0.0009
                                        -0.0007 -0.0048  0.0007 -0.0310 -0.0007
                                         0.0144 -0.0011 -0.0129 -0.0011  0.0011
                                         0.0001  0.0104 -0.0055  0.0045  0.0030
                                        -0.0046
               ( 60.08%)  -0.7751* H 25 s( 99.95%)p 0.00(  0.04%)d 0.00(  0.01%)
                                        -0.9997  0.0019  0.0001  0.0017  0.0009
                                         0.0127 -0.0001  0.0160 -0.0007 -0.0009
                                        -0.0011 -0.0088  0.0034 -0.0048
  70. (0.00264) RY ( 1) O  1            s(  0.05%)p99.99( 97.36%)d48.15(  2.58%)
                                                  f 0.26(  0.01%)
                                         0.0000 -0.0002  0.0231 -0.0015  0.0004
                                         0.0010 -0.0435 -0.0012 -0.0005  0.2354
                                         0.0192  0.0054 -0.9557 -0.0503 -0.0012
                                        -0.0062  0.1136  0.0001 -0.0089 -0.0934
                                         0.0099 -0.0273 -0.0449 -0.0344  0.0003
                                        -0.0035  0.0029  0.0032 -0.0103  0.0015
                                        -0.0016
  71. (0.00208) RY ( 2) O  1            s(  8.02%)p11.00( 88.24%)d 0.46(  3.70%)
                                                  f 0.00(  0.03%)
                                         0.0000 -0.0001  0.2801 -0.0421 -0.0005
                                        -0.0039  0.9261  0.0418  0.0035  0.1376
                                         0.0611  0.0003  0.0032  0.0172  0.1334
                                         0.0857  0.0088  0.0233  0.0230  0.0047
                                        -0.0283 -0.0333 -0.0931  0.0115  0.0041
                                         0.0027  0.0082  0.0007 -0.0018  0.0141
                                         0.0023
  72. (0.00028) RY ( 3) O  1            s( 64.95%)p 0.09(  5.55%)d 0.43( 27.70%)
                                                  f 0.03(  1.79%)
                                         0.0000 -0.0009  0.7824  0.1931  0.0033
                                        -0.0245 -0.1599  0.0026  0.0021 -0.1211
                                         0.1167  0.0055 -0.0264  0.0192 -0.4384
                                         0.0366 -0.2411  0.0269  0.0901 -0.0101
                                         0.1106 -0.0377 -0.0506 -0.0117 -0.0037
                                        -0.0190 -0.0270  0.0276  0.0335 -0.1121
                                         0.0488
  73. (0.00014) RY ( 4) O  1            s( 21.66%)p 0.79( 17.10%)d 2.74( 59.31%)
                                                  f 0.09(  1.92%)
                                         0.0000 -0.0083  0.4395 -0.1527 -0.0115
                                         0.0282 -0.2683 -0.1670  0.0239  0.2470
                                         0.0516  0.0031  0.0722  0.0301  0.6529
                                        -0.1408 -0.0664 -0.0090  0.0233  0.0080
                                        -0.3680  0.0651 -0.0367 -0.0310 -0.0098
                                         0.0543  0.0126 -0.0091 -0.0162  0.1251
                                        -0.0050
  74. (0.00012) RY ( 5) O  1            s(  7.08%)p 2.95( 20.90%)d 9.96( 70.53%)
                                                  f 0.21(  1.49%)
                                         0.0000  0.0078 -0.1409  0.2255 -0.0040
                                         0.0075  0.1191 -0.0263 -0.0171 -0.3697
                                        -0.1279  0.0042 -0.2008 -0.0196  0.2585
                                        -0.0616 -0.7449  0.0838 -0.0126 -0.0281
                                        -0.0477  0.0301  0.2594 -0.0372 -0.0168
                                         0.0422 -0.0468  0.0158  0.1001  0.0026
                                         0.0187
  75. (0.00007) RY ( 6) O  1            s( 14.56%)p 2.87( 41.81%)d 2.90( 42.30%)
                                                  f 0.09(  1.33%)
  76. (0.00005) RY ( 7) O  1            s(  4.27%)p 6.46( 27.61%)d14.86( 63.51%)
                                                  f 1.08(  4.61%)
  77. (0.00001) RY ( 8) O  1            s(  2.84%)p22.84( 64.79%)d10.95( 31.07%)
                                                  f 0.46(  1.30%)
  78. (0.00001) RY ( 9) O  1            s( 43.92%)p 0.55( 24.31%)d 0.68( 29.75%)
                                                  f 0.05(  2.02%)
  79. (0.00000) RY (10) O  1            s(  3.54%)p20.71( 73.38%)d 5.37( 19.02%)
                                                  f 1.14(  4.05%)
  80. (0.00000) RY (11) O  1            s( 17.36%)p 0.26(  4.49%)d 3.83( 66.44%)
                                                  f 0.67( 11.71%)
  81. (0.00000) RY (12) O  1            s(  9.48%)p 0.43(  4.08%)d 4.77( 45.23%)
                                                  f 4.35( 41.21%)
  82. (0.00000) RY (13) O  1            s( 18.97%)p 0.12(  2.32%)d 1.26( 23.92%)
                                                  f 2.89( 54.79%)
  83. (0.00000) RY (14) O  1            s(  5.01%)p 1.39(  6.96%)d 5.03( 25.21%)
                                                  f12.53( 62.82%)
  84. (0.00000) RY (15) O  1            s(  1.73%)p10.40( 18.03%)d21.62( 37.50%)
                                                  f24.64( 42.73%)
  85. (0.00000) RY (16) O  1            s(  0.28%)p99.99( 60.17%)d88.85( 24.53%)
                                                  f54.41( 15.02%)
  86. (0.00000) RY (17) O  1            s(  1.45%)p 8.48( 12.33%)d50.93( 74.03%)
                                                  f 8.39( 12.19%)
  87. (0.00000) RY (18) O  1            s(  1.26%)p 9.11( 11.48%)d14.63( 18.43%)
                                                  f54.65( 68.84%)
  88. (0.00000) RY (19) O  1            s( 28.07%)p 0.01(  0.31%)d 0.88( 24.78%)
                                                  f 1.67( 46.84%)
  89. (0.00000) RY (20) O  1            s(  0.71%)p 9.38(  6.66%)d75.87( 53.83%)
                                                  f54.68( 38.80%)
  90. (0.00000) RY (21) O  1            s( 13.31%)p 0.04(  0.52%)d 3.10( 41.25%)
                                                  f 3.38( 44.93%)
  91. (0.00000) RY (22) O  1            s(  3.25%)p 0.53(  1.72%)d11.03( 35.84%)
                                                  f18.22( 59.20%)
  92. (0.00000) RY (23) O  1            s(  3.69%)p 1.38(  5.08%)d13.54( 49.97%)
                                                  f11.18( 41.26%)
  93. (0.00000) RY (24) O  1            s(  0.87%)p 2.69(  2.35%)d71.15( 62.23%)
                                                  f39.49( 34.54%)
  94. (0.00000) RY (25) O  1            s(  4.39%)p 0.32(  1.40%)d 6.97( 30.60%)
                                                  f14.48( 63.61%)
  95. (0.00000) RY (26) O  1            s( 19.37%)p 0.11(  2.12%)d 1.84( 35.58%)
                                                  f 2.22( 42.93%)
  96. (0.01724) RY ( 1) C  2            s(  9.04%)p10.01( 90.50%)d 0.04(  0.32%)
                                                  f 0.02(  0.14%)
                                         0.0000  0.0191  0.2996  0.0168 -0.0006
                                         0.0021  0.0185 -0.0384  0.0698  0.9274
                                         0.0525  0.0155  0.1869  0.0177 -0.0207
                                         0.0140  0.0019 -0.0050  0.0167 -0.0178
                                        -0.0174  0.0380 -0.0079  0.0103  0.0135
                                        -0.0003  0.0192  0.0149  0.0075 -0.0173
                                         0.0173
  97. (0.00620) RY ( 2) C  2            s(  6.18%)p13.94( 86.13%)d 1.20(  7.43%)
                                                  f 0.04(  0.26%)
                                         0.0000  0.0020  0.2436  0.0493  0.0054
                                        -0.0153 -0.9166 -0.0429 -0.0031 -0.0903
                                         0.0606  0.0055  0.0847  0.0094 -0.2239
                                        -0.1004 -0.0368 -0.0267  0.0728 -0.0029
                                        -0.0093  0.0506  0.0613 -0.0180  0.0156
                                         0.0102  0.0321  0.0120 -0.0066  0.0280
                                        -0.0145
  98. (0.00542) RY ( 3) C  2            s(  0.06%)p99.99( 35.30%)d99.99( 64.36%)
                                                  f 4.83(  0.28%)
                                         0.0000 -0.0001  0.0066  0.0227  0.0056
                                        -0.0109  0.0430 -0.0766  0.0135 -0.1172
                                         0.0755 -0.0624  0.5385 -0.1780 -0.2162
                                         0.0363  0.4784 -0.1508 -0.4785  0.0578
                                        -0.0334 -0.0113 -0.3245  0.0714  0.0224
                                         0.0243  0.0007 -0.0376  0.0134 -0.0020
                                         0.0124
  99. (0.00228) RY ( 4) C  2            s(  8.06%)p 1.01(  8.17%)d10.31( 83.07%)
                                                  f 0.09(  0.70%)
                                         0.0000  0.0038  0.2363  0.1572  0.0061
                                         0.0214 -0.1701  0.1796  0.0078 -0.0631
                                        -0.1123 -0.0038  0.0243 -0.0532  0.7568
                                         0.2539  0.2940  0.0371  0.1045 -0.0799
                                        -0.2247 -0.0585 -0.1678  0.0797  0.0276
                                        -0.0422 -0.0059  0.0011  0.0247 -0.0616
                                         0.0014
 100. (0.00197) RY ( 5) C  2            s(  0.89%)p 7.54(  6.71%)d99.99( 91.74%)
                                                  f 0.74(  0.66%)
                                         0.0000  0.0010  0.0613  0.0715  0.0058
                                         0.0046 -0.0788  0.0401 -0.0019  0.0238
                                        -0.0365  0.0129 -0.1674  0.1708  0.1124
                                         0.0176 -0.4903  0.1734 -0.7071  0.1084
                                        -0.2901  0.0544 -0.1868  0.0182 -0.0393
                                        -0.0044  0.0187 -0.0027  0.0665  0.0083
                                         0.0121
 101. (0.00078) RY ( 6) C  2            s( 54.95%)p 0.32( 17.50%)d 0.44( 24.42%)
                                                  f 0.06(  3.13%)
                                         0.0000 -0.0052  0.7213  0.1659 -0.0402
                                        -0.0234  0.3080 -0.1301  0.0030 -0.2453
                                        -0.0365  0.0006 -0.0054 -0.0335 -0.2287
                                        -0.1227 -0.0748  0.0249  0.1635  0.0721
                                        -0.3164 -0.1960  0.0138 -0.0030  0.0064
                                        -0.0403  0.0048 -0.0059 -0.0466  0.1320
                                         0.0999
 102. (0.00057) RY ( 7) C  2            s(  3.74%)p14.95( 55.89%)d10.58( 39.55%)
                                                  f 0.22(  0.82%)
                                         0.0000 -0.0017  0.1626 -0.1042 -0.0096
                                        -0.0001 -0.0451 -0.0141 -0.0001  0.0939
                                        -0.1316  0.0236 -0.6993  0.2023 -0.1813
                                         0.0103  0.4860 -0.1584 -0.1979 -0.1135
                                         0.1221 -0.0571 -0.1747 -0.0220  0.0226
                                         0.0333 -0.0604  0.0065  0.0303  0.0448
                                         0.0033
 103. (0.00038) RY ( 8) C  2            s( 13.74%)p 0.37(  5.07%)d 5.70( 78.35%)
                                                  f 0.21(  2.85%)
                                         0.0000  0.0038  0.3462  0.1320 -0.0127
                                        -0.0084  0.1016 -0.1196  0.0284 -0.1499
                                         0.0320  0.0047  0.0100 -0.0393  0.0493
                                         0.2325 -0.1514 -0.0024 -0.0622 -0.1688
                                         0.5633  0.5881 -0.0776  0.0501  0.0266
                                        -0.0817  0.0003  0.0137  0.0507 -0.1256
                                         0.0504
 104. (0.00011) RY ( 9) C  2            s( 31.89%)p 0.99( 31.67%)d 0.63( 20.08%)
                                                  f 0.51( 16.37%)
                                         0.0000  0.0055 -0.2225  0.5187 -0.0164
                                         0.0214 -0.0356 -0.4346 -0.0109  0.0465
                                         0.3045 -0.0018 -0.0794  0.1572  0.0986
                                        -0.1692  0.0457  0.1804  0.0853 -0.0520
                                         0.1013 -0.1179 -0.2410  0.1887 -0.0361
                                         0.0125 -0.0820  0.0801 -0.1144  0.1781
                                         0.3229
 105. (0.00008) RY (10) C  2            s(  0.56%)p99.99( 79.00%)d22.58( 12.73%)
                                                  f13.67(  7.71%)
 106. (0.00005) RY (11) C  2            s(  2.06%)p 9.10( 18.75%)d32.79( 67.53%)
                                                  f 5.66( 11.66%)
 107. (0.00003) RY (12) C  2            s( 26.56%)p 0.27(  7.13%)d 1.29( 34.21%)
                                                  f 1.21( 32.10%)
 108. (0.00002) RY (13) C  2            s(  7.71%)p 6.00( 46.28%)d 2.28( 17.57%)
                                                  f 3.69( 28.45%)
 109. (0.00001) RY (14) C  2            s(  3.07%)p 7.43( 22.77%)d15.10( 46.31%)
                                                  f 9.09( 27.85%)
 110. (0.00001) RY (15) C  2            s( 21.51%)p 1.26( 27.15%)d 1.53( 32.93%)
                                                  f 0.86( 18.40%)
 111. (0.00000) RY (16) C  2            s( 16.10%)p 1.37( 22.00%)d 2.16( 34.82%)
                                                  f 1.68( 27.09%)
 112. (0.00000) RY (17) C  2            s(  7.91%)p 1.86( 14.67%)d 5.04( 39.87%)
                                                  f 4.75( 37.55%)
 113. (0.00000) RY (18) C  2            s( 19.10%)p 0.03(  0.67%)d 1.89( 36.17%)
                                                  f 2.31( 44.06%)
 114. (0.00000) RY (19) C  2            s( 26.89%)p 0.05(  1.44%)d 0.81( 21.68%)
                                                  f 1.86( 49.99%)
 115. (0.00000) RY (20) C  2            s( 12.95%)p 0.13(  1.73%)d 1.87( 24.23%)
                                                  f 4.72( 61.09%)
 116. (0.00000) RY (21) C  2            s(  2.54%)p 2.16(  5.49%)d20.54( 52.15%)
                                                  f15.68( 39.82%)
 117. (0.00000) RY (22) C  2            s(  0.22%)p42.58(  9.24%)d99.99( 68.58%)
                                                  f99.99( 21.96%)
 118. (0.00000) RY (23) C  2            s(  2.49%)p 0.51(  1.26%)d12.14( 30.24%)
                                                  f26.50( 66.01%)
 119. (0.00000) RY (24) C  2            s(  8.80%)p 0.51(  4.45%)d 5.67( 49.89%)
                                                  f 4.19( 36.86%)
 120. (0.00000) RY (25) C  2            s(  0.90%)p 0.39(  0.35%)d 5.03(  4.51%)
                                                  f99.99( 94.25%)
 121. (0.00000) RY (26) C  2            s( 12.00%)p 0.11(  1.26%)d 1.41( 16.89%)
                                                  f 5.82( 69.84%)
 122. (0.00601) RY ( 1) C  3            s(  0.58%)p99.99( 92.97%)d10.72(  6.19%)
                                                  f 0.47(  0.27%)
                                         0.0000 -0.0019  0.0739  0.0172 -0.0033
                                        -0.0154  0.0451 -0.0173  0.0082 -0.1884
                                        -0.0050 -0.0551  0.9416 -0.0445  0.0282
                                        -0.0190 -0.2284  0.0319 -0.0414 -0.0522
                                        -0.0293  0.0135  0.0386 -0.0236 -0.0358
                                        -0.0178  0.0098  0.0277  0.0118  0.0072
                                        -0.0066
 123. (0.00513) RY ( 2) C  3            s( 37.94%)p 1.39( 52.78%)d 0.24(  9.24%)
                                                  f 0.00(  0.04%)
                                         0.0000 -0.0176  0.6157  0.0012  0.0039
                                        -0.0556 -0.6675 -0.1549 -0.0294  0.1612
                                        -0.1676  0.0074  0.0109 -0.0056 -0.1748
                                        -0.0488 -0.0303 -0.0367  0.0145 -0.0419
                                         0.1119  0.2020 -0.0254  0.0357  0.0104
                                        -0.0026  0.0042 -0.0007  0.0062 -0.0139
                                        -0.0005
 124. (0.00296) RY ( 3) C  3            s(  1.70%)p55.41( 94.46%)d 1.57(  2.68%)
                                                  f 0.68(  1.16%)
                                         0.0000 -0.0177  0.1287  0.0078  0.0109
                                        -0.0304 -0.0699 -0.0850 -0.0267 -0.9020
                                        -0.2810 -0.0015 -0.1895 -0.0492  0.0445
                                         0.0277  0.0021  0.0260  0.0175  0.0226
                                        -0.0586 -0.1249 -0.0543  0.0234  0.0050
                                        -0.0348 -0.0122 -0.0203 -0.0181  0.0939
                                         0.0251
 125. (0.00097) RY ( 4) C  3            s( 43.94%)p 1.19( 52.27%)d 0.03(  1.31%)
                                                  f 0.06(  2.48%)
                                         0.0000  0.0012  0.6473 -0.1427 -0.0035
                                         0.0116  0.6483  0.2010 -0.0043  0.1064
                                        -0.1982 -0.0029 -0.0687 -0.0808 -0.0197
                                         0.0643 -0.0446  0.0161 -0.0012 -0.0081
                                         0.0103  0.0668 -0.0405 -0.0022  0.0178
                                        -0.0407  0.0051 -0.0427  0.0137  0.1061
                                        -0.0977
 126. (0.00029) RY ( 5) C  3            s( 12.50%)p 1.48( 18.52%)d 4.88( 60.95%)
                                                  f 0.64(  8.02%)
                                         0.0000  0.0131  0.2494  0.2472 -0.0388
                                        -0.0284 -0.0679  0.0741  0.0061 -0.0535
                                         0.4062  0.0054 -0.0123  0.0790  0.4857
                                        -0.3045  0.1719 -0.0281  0.0084  0.0303
                                        -0.4807  0.0603 -0.0705  0.0995 -0.0087
                                         0.0067 -0.0014 -0.0529  0.0438  0.0148
                                        -0.2742
 127. (0.00023) RY ( 6) C  3            s(  8.12%)p 8.00( 64.96%)d 3.07( 24.92%)
                                                  f 0.25(  2.00%)
                                         0.0000  0.0021  0.1016  0.2660 -0.0096
                                        -0.0049  0.2015 -0.7488 -0.0025  0.0281
                                         0.1425  0.0004 -0.0173  0.1639  0.1683
                                         0.2907  0.0233  0.1965 -0.1321  0.0036
                                         0.2579 -0.0231 -0.1024  0.0477 -0.0073
                                        -0.0321  0.0140  0.0432  0.0245 -0.0447
                                        -0.1194
 128. (0.00021) RY ( 7) C  3            s(  0.14%)p34.33(  4.64%)d99.99( 83.77%)
                                                  f84.69( 11.45%)
                                         0.0000  0.0009  0.0109  0.0291  0.0197
                                        -0.0008 -0.0141 -0.0863 -0.0016  0.0324
                                         0.0627  0.0043 -0.1633 -0.0843  0.1950
                                         0.1206 -0.7303 -0.4386 -0.0702  0.0299
                                        -0.0766 -0.0621  0.1648  0.1289  0.0996
                                         0.1634 -0.0847 -0.0987  0.2372  0.0156
                                         0.0671
 129. (0.00015) RY ( 8) C  3            s(  0.30%)p15.59(  4.65%)d99.99( 79.96%)
                                                  f50.55( 15.09%)
                                         0.0000  0.0004 -0.0356  0.0409 -0.0066
                                         0.0029 -0.0391  0.1437  0.0001  0.0216
                                        -0.1096  0.0059 -0.0720  0.0815 -0.0239
                                        -0.1199 -0.2413  0.3542 -0.5892  0.4638
                                        -0.0855  0.1379 -0.1058  0.0351 -0.0851
                                        -0.0464 -0.0784  0.3624  0.0622  0.0012
                                         0.0125
 130. (0.00013) RY ( 9) C  3            s(  1.40%)p15.60( 21.83%)d49.45( 69.19%)
                                                  f 5.42(  7.58%)
                                         0.0000  0.0046  0.0162  0.1101  0.0399
                                        -0.0167 -0.1102  0.2534  0.0089  0.1018
                                        -0.3308  0.0032  0.0507 -0.1388  0.6129
                                        -0.0086  0.1288 -0.0259 -0.0926  0.0130
                                         0.4433 -0.3018 -0.0483 -0.0162  0.0404
                                         0.0980  0.1080  0.0402  0.0444 -0.2214
                                        -0.0177
 131. (0.00004) RY (10) C  3            s(  6.42%)p 7.71( 49.50%)d 3.89( 24.99%)
                                                  f 2.97( 19.09%)
 132. (0.00004) RY (11) C  3            s(  1.02%)p 9.78( 10.00%)d59.30( 60.64%)
                                                  f27.71( 28.34%)
 133. (0.00001) RY (12) C  3            s( 21.40%)p 0.36(  7.72%)d 2.96( 63.39%)
                                                  f 0.35(  7.50%)
 134. (0.00001) RY (13) C  3            s(  1.59%)p11.07( 17.62%)d45.42( 72.31%)
                                                  f 5.32(  8.48%)
 135. (0.00001) RY (14) C  3            s(  2.44%)p 2.28(  5.57%)d25.36( 61.99%)
                                                  f12.27( 29.99%)
 136. (0.00001) RY (15) C  3            s( 36.53%)p 0.33( 12.09%)d 1.15( 42.13%)
                                                  f 0.25(  9.25%)
 137. (0.00000) RY (16) C  3            s( 17.05%)p 2.24( 38.18%)d 1.42( 24.30%)
                                                  f 1.20( 20.47%)
 138. (0.00000) RY (17) C  3            s(  0.68%)p 2.87(  1.96%)d99.99( 77.92%)
                                                  f28.46( 19.44%)
 139. (0.00000) RY (18) C  3            s(  1.35%)p 0.59(  0.80%)d18.48( 24.99%)
                                                  f53.87( 72.86%)
 140. (0.00000) RY (19) C  3            s(  8.98%)p 0.02(  0.17%)d 1.14( 10.26%)
                                                  f 8.98( 80.60%)
 141. (0.00000) RY (20) C  3            s( 26.19%)p 0.01(  0.21%)d 1.68( 44.09%)
                                                  f 1.13( 29.52%)
 142. (0.00000) RY (21) C  3            s( 10.30%)p 1.10( 11.35%)d 2.78( 28.60%)
                                                  f 4.83( 49.75%)
 143. (0.00000) RY (22) C  3            s(  9.91%)p 0.74(  7.33%)d 0.74(  7.34%)
                                                  f 7.61( 75.42%)
 144. (0.00000) RY (23) C  3            s( 26.06%)p 0.13(  3.36%)d 0.91( 23.65%)
                                                  f 1.80( 46.93%)
 145. (0.00000) RY (24) C  3            s( 16.22%)p 0.36(  5.85%)d 4.11( 66.70%)
                                                  f 0.69( 11.23%)
 146. (0.00000) RY (25) C  3            s(  6.59%)p 3.21( 21.14%)d 2.90( 19.09%)
                                                  f 8.07( 53.18%)
 147. (0.00000) RY (26) C  3            s(  0.57%)p 1.03(  0.58%)d16.01(  9.11%)
                                                  f99.99( 89.74%)
 148. (0.00730) RY ( 1) N  4            s(  7.60%)p11.71( 88.99%)d 0.44(  3.32%)
                                                  f 0.01(  0.09%)
                                         0.0000  0.0088  0.2673 -0.0669 -0.0024
                                         0.0110  0.0276 -0.0093  0.0399 -0.9180
                                         0.0263  0.0062 -0.2095  0.0080  0.0186
                                         0.0026 -0.0059 -0.0160  0.0391 -0.0313
                                        -0.0666  0.1401 -0.0770  0.0038  0.0094
                                         0.0025  0.0159  0.0012  0.0088 -0.0033
                                        -0.0223
 149. (0.00226) RY ( 2) N  4            s(  6.55%)p13.87( 90.92%)d 0.37(  2.42%)
                                                  f 0.02(  0.10%)
                                         0.0000 -0.0049  0.2558 -0.0096 -0.0007
                                        -0.0220 -0.9453  0.1081  0.0115  0.0408
                                        -0.0080  0.0079  0.0207 -0.0336 -0.0193
                                         0.1214 -0.0768 -0.0057  0.0263 -0.0198
                                         0.0239 -0.0229 -0.0313 -0.0011  0.0032
                                         0.0085 -0.0034  0.0020  0.0135 -0.0251
                                        -0.0097
 150. (0.00124) RY ( 3) N  4            s(  3.00%)p14.28( 42.88%)d17.87( 53.64%)
                                                  f 0.16(  0.47%)
                                         0.0000 -0.0036  0.1716  0.0237  0.0019
                                         0.0093  0.0876 -0.0464  0.0016  0.1822
                                         0.0046  0.0144 -0.6089 -0.1213  0.1712
                                         0.0275 -0.5678 -0.3596  0.0826 -0.0650
                                        -0.0254 -0.0890  0.1761  0.0635  0.0139
                                         0.0282 -0.0304 -0.0092  0.0445  0.0191
                                         0.0192
 151. (0.00069) RY ( 4) N  4            s( 78.10%)p 0.18( 14.07%)d 0.10(  7.56%)
                                                  f 0.00(  0.27%)
                                         0.0000 -0.0140  0.8790 -0.0890  0.0127
                                         0.0034  0.2384 -0.0376  0.0324  0.2446
                                        -0.1277  0.0015  0.0717 -0.0086 -0.1310
                                        -0.0434  0.1506  0.1175  0.0061  0.0429
                                         0.0133 -0.0579 -0.1171 -0.0314 -0.0132
                                        -0.0002 -0.0132 -0.0084 -0.0108 -0.0273
                                        -0.0380
 152. (0.00032) RY ( 5) N  4            s(  1.03%)p55.48( 57.35%)d40.01( 41.36%)
                                                  f 0.25(  0.26%)
                                         0.0000 -0.0012  0.1007 -0.0134  0.0044
                                        -0.0038  0.0928 -0.0006  0.0011 -0.1284
                                        -0.0300  0.0254  0.7395 -0.0048  0.0184
                                         0.1020 -0.5366 -0.2764  0.0716 -0.0169
                                        -0.1024 -0.0112  0.1338  0.0677 -0.0344
                                         0.0057  0.0159 -0.0073  0.0153 -0.0083
                                        -0.0273
 153. (0.00018) RY ( 6) N  4            s(  2.20%)p 2.18(  4.79%)d39.48( 86.74%)
                                                  f 2.86(  6.28%)
                                         0.0000 -0.0069  0.0858  0.1173 -0.0281
                                         0.0367 -0.0036 -0.1210 -0.0247 -0.1347
                                        -0.0696 -0.0084  0.0903  0.0098  0.5109
                                         0.0376  0.0527  0.0638 -0.2875  0.0991
                                         0.5730 -0.3759  0.1886 -0.0214 -0.0505
                                         0.0039 -0.0483  0.0388 -0.0783  0.0290
                                         0.2222
 154. (0.00014) RY ( 7) N  4            s(  0.47%)p11.50(  5.39%)d99.99( 84.97%)
                                                  f19.60(  9.18%)
                                         0.0000 -0.0129 -0.0223  0.0630 -0.0067
                                        -0.0277  0.1028 -0.0405 -0.0076 -0.0250
                                         0.1716  0.0012 -0.0777  0.0687 -0.4904
                                         0.6529 -0.1196  0.1314 -0.0164 -0.0937
                                         0.3722 -0.0068  0.0504 -0.0338 -0.0101
                                         0.0258 -0.0154  0.0727  0.0597 -0.2766
                                         0.0736
 155. (0.00006) RY ( 8) N  4            s(  1.25%)p16.82( 21.03%)d49.47( 61.86%)
                                                  f12.69( 15.87%)
 156. (0.00003) RY ( 9) N  4            s( 12.28%)p 0.26(  3.21%)d 6.76( 83.01%)
                                                  f 0.12(  1.50%)
 157. (0.00002) RY (10) N  4            s(  6.21%)p 1.03(  6.38%)d13.72( 85.20%)
                                                  f 0.36(  2.21%)
 158. (0.00001) RY (11) N  4            s( 51.25%)p 0.39( 20.10%)d 0.40( 20.30%)
                                                  f 0.16(  8.35%)
 159. (0.00001) RY (12) N  4            s(  6.58%)p 8.54( 56.21%)d 4.87( 32.04%)
                                                  f 0.79(  5.17%)
 160. (0.00001) RY (13) N  4            s( 10.41%)p 2.65( 27.62%)d 5.56( 57.92%)
                                                  f 0.39(  4.05%)
 161. (0.00000) RY (14) N  4            s(  3.12%)p21.82( 68.00%)d 7.73( 24.10%)
                                                  f 1.54(  4.78%)
 162. (0.00000) RY (15) N  4            s( 10.93%)p 0.05(  0.58%)d 6.50( 71.06%)
                                                  f 1.60( 17.43%)
 163. (0.00000) RY (16) N  4            s( 13.74%)p 0.03(  0.35%)d 0.96( 13.18%)
                                                  f 5.29( 72.73%)
 164. (0.00000) RY (17) N  4            s(  0.38%)p 9.82(  3.78%)d50.67( 19.49%)
                                                  f99.99( 76.35%)
 165. (0.00000) RY (18) N  4            s(  7.12%)p 0.11(  0.81%)d 0.36(  2.55%)
                                                  f12.57( 89.52%)
 166. (0.00000) RY (19) N  4            s(  8.96%)p 0.29(  2.58%)d 1.45( 13.03%)
                                                  f 8.42( 75.44%)
 167. (0.00000) RY (20) N  4            s( 32.50%)p 0.01(  0.49%)d 0.65( 21.23%)
                                                  f 1.41( 45.79%)
 168. (0.00000) RY (21) N  4            s(  2.49%)p 0.77(  1.91%)d21.67( 53.86%)
                                                  f16.79( 41.75%)
 169. (0.00000) RY (22) N  4            s( 18.96%)p 0.14(  2.72%)d 1.23( 23.25%)
                                                  f 2.91( 55.08%)
 170. (0.00000) RY (23) N  4            s(  6.26%)p 1.12(  6.99%)d10.48( 65.61%)
                                                  f 3.38( 21.14%)
 171. (0.00000) RY (24) N  4            s(  2.23%)p 1.03(  2.28%)d10.55( 23.48%)
                                                  f32.35( 72.01%)
 172. (0.00000) RY (25) N  4            s(  2.62%)p 2.81(  7.38%)d 9.25( 24.25%)
                                                  f25.08( 65.75%)
 173. (0.00000) RY (26) N  4            s(  3.89%)p16.58( 64.50%)d 5.99( 23.28%)
                                                  f 2.14(  8.32%)
 174. (0.00846) RY ( 1) C  5            s( 60.93%)p 0.51( 31.30%)d 0.13(  7.71%)
                                                  f 0.00(  0.06%)
                                         0.0000 -0.0195  0.7793  0.0395  0.0055
                                         0.0504  0.4993  0.0609 -0.0471  0.1157
                                        -0.0993 -0.0071 -0.1785 -0.0089  0.1415
                                         0.0111  0.0180 -0.0128 -0.0503 -0.0341
                                         0.1484  0.1740 -0.0113  0.0187 -0.0003
                                         0.0105  0.0025  0.0051 -0.0108  0.0183
                                        -0.0022
 175. (0.00388) RY ( 2) C  5            s(  0.90%)p99.99( 96.15%)d 3.06(  2.77%)
                                                  f 0.20(  0.18%)
                                         0.0000  0.0032  0.0896  0.0316 -0.0020
                                         0.0031 -0.4049 -0.0034 -0.0030  0.0017
                                        -0.0228  0.0287 -0.8848  0.1152 -0.0534
                                         0.0045 -0.0579  0.0719  0.0520  0.0869
                                        -0.0404 -0.0456 -0.0100  0.0473  0.0310
                                         0.0050 -0.0188  0.0156  0.0063 -0.0096
                                        -0.0084
 176. (0.00330) RY ( 3) C  5            s(  3.23%)p28.16( 90.90%)d 1.62(  5.22%)
                                                  f 0.20(  0.65%)
                                         0.0000 -0.0232  0.1414 -0.1077  0.0126
                                         0.0279  0.0257  0.1677 -0.0082 -0.9116
                                        -0.1933 -0.0085  0.0098 -0.1044 -0.0126
                                        -0.0313  0.0212  0.0223  0.0194  0.0463
                                        -0.0501 -0.1912 -0.0828  0.0414 -0.0162
                                         0.0315 -0.0027  0.0181 -0.0145 -0.0641
                                         0.0233
 177. (0.00082) RY ( 4) C  5            s( 17.58%)p 2.46( 43.18%)d 2.10( 36.86%)
                                                  f 0.14(  2.38%)
                                         0.0000  0.0089  0.4013  0.1210  0.0058
                                        -0.0075 -0.5610 -0.0153 -0.0044  0.0658
                                         0.0781  0.0121  0.2728 -0.1781 -0.1707
                                        -0.0293  0.4789  0.1310 -0.0567  0.0750
                                         0.1002  0.0479 -0.2414  0.1126  0.0395
                                        -0.0792  0.0137  0.0079 -0.1176 -0.0122
                                        -0.0414
 178. (0.00033) RY ( 5) C  5            s( 22.19%)p 0.65( 14.47%)d 2.34( 52.03%)
                                                  f 0.51( 11.32%)
                                         0.0000 -0.0054 -0.1578  0.4434  0.0179
                                        -0.0076  0.2829 -0.1101  0.0058 -0.0767
                                         0.1984  0.0097 -0.0817  0.0219  0.1783
                                         0.4075  0.1470  0.2409 -0.0527  0.2194
                                        -0.1670 -0.1363 -0.2952  0.2414  0.1121
                                        -0.1972 -0.0566 -0.0982 -0.1163  0.1826
                                         0.0442
 179. (0.00017) RY ( 6) C  5            s(  3.25%)p 5.12( 16.63%)d20.15( 65.45%)
                                                  f 4.52( 14.68%)
                                         0.0000  0.0134  0.1449 -0.0486 -0.0946
                                         0.0260  0.1973 -0.2460  0.0038  0.0183
                                         0.2420  0.0006 -0.0564 -0.0638 -0.4497
                                         0.1726  0.2341 -0.0207  0.1391 -0.0582
                                        -0.3611 -0.3521  0.1655 -0.2504 -0.0398
                                         0.1268  0.1655  0.0677  0.1043 -0.0804
                                        -0.2825
 180. (0.00011) RY ( 7) C  5            s( 25.77%)p 1.05( 27.13%)d 1.49( 38.34%)
                                                  f 0.34(  8.76%)
                                         0.0000  0.0019  0.1830  0.4731 -0.0210
                                         0.0107 -0.1301 -0.1905  0.0011 -0.1974
                                         0.1802 -0.0066  0.1589  0.3481 -0.2325
                                        -0.0642 -0.4205 -0.1479  0.0072 -0.0595
                                        -0.1569  0.2933  0.0048  0.1104 -0.1179
                                        -0.0896 -0.0866  0.0358  0.1784 -0.1330
                                        -0.0861
 181. (0.00009) RY ( 8) C  5            s(  3.71%)p 6.62( 24.56%)d17.68( 65.60%)
                                                  f 1.65(  6.14%)
 182. (0.00006) RY ( 9) C  5            s(  6.74%)p 2.70( 18.24%)d10.55( 71.16%)
                                                  f 0.57(  3.86%)
 183. (0.00005) RY (10) C  5            s(  3.57%)p 3.93( 14.04%)d15.35( 54.76%)
                                                  f 7.74( 27.63%)
 184. (0.00004) RY (11) C  5            s(  7.87%)p 1.52( 11.98%)d 7.02( 55.25%)
                                                  f 3.17( 24.91%)
 185. (0.00002) RY (12) C  5            s(  4.75%)p 3.54( 16.82%)d13.78( 65.50%)
                                                  f 2.72( 12.93%)
 186. (0.00001) RY (13) C  5            s(  2.87%)p 1.85(  5.31%)d24.94( 71.68%)
                                                  f 7.01( 20.14%)
 187. (0.00001) RY (14) C  5            s(  4.92%)p 7.51( 36.97%)d 9.18( 45.15%)
                                                  f 2.63( 12.96%)
 188. (0.00000) RY (15) C  5            s(  2.87%)p18.20( 52.27%)d 9.61( 27.58%)
                                                  f 6.02( 17.28%)
 189. (0.00000) RY (16) C  5            s(  0.68%)p 0.34(  0.23%)d32.99( 22.48%)
                                                  f99.99( 76.61%)
 190. (0.00000) RY (17) C  5            s(  4.24%)p 0.60(  2.54%)d 5.26( 22.30%)
                                                  f16.71( 70.91%)
 191. (0.00000) RY (18) C  5            s( 31.74%)p 0.07(  2.34%)d 0.59( 18.76%)
                                                  f 1.49( 47.16%)
 192. (0.00000) RY (19) C  5            s(  5.19%)p 1.78(  9.26%)d 6.57( 34.15%)
                                                  f 9.89( 51.40%)
 193. (0.00000) RY (20) C  5            s( 53.97%)p 0.04(  2.10%)d 0.15(  7.91%)
                                                  f 0.67( 36.02%)
 194. (0.00000) RY (21) C  5            s(  1.91%)p 9.37( 17.90%)d 7.31( 13.97%)
                                                  f34.66( 66.22%)
 195. (0.00000) RY (22) C  5            s(  4.63%)p 1.67(  7.74%)d 7.26( 33.62%)
                                                  f11.66( 54.01%)
 196. (0.00000) RY (23) C  5            s(  7.29%)p 0.31(  2.25%)d 4.41( 32.15%)
                                                  f 8.00( 58.31%)
 197. (0.00000) RY (24) C  5            s( 12.15%)p 2.98( 36.17%)d 3.17( 38.52%)
                                                  f 1.08( 13.16%)
 198. (0.00000) RY (25) C  5            s(  6.02%)p 3.25( 19.58%)d 7.22( 43.47%)
                                                  f 5.14( 30.93%)
 199. (0.00000) RY (26) C  5            s(  0.86%)p 0.65(  0.56%)d78.54( 67.32%)
                                                  f36.48( 31.27%)
 200. (0.00289) RY ( 1) C  6            s(  5.26%)p16.48( 86.63%)d 1.44(  7.55%)
                                                  f 0.11(  0.57%)
                                         0.0000  0.0000  0.2252  0.0416 -0.0112
                                         0.0104 -0.6298 -0.0166  0.0029  0.2320
                                        -0.0157 -0.0342  0.6343  0.1080 -0.0190
                                         0.0622  0.1314  0.0415  0.0205 -0.0007
                                         0.0161 -0.0760 -0.1543 -0.1482 -0.0139
                                         0.0173 -0.0065 -0.0128  0.0110 -0.0167
                                         0.0678
 201. (0.00182) RY ( 2) C  6            s(  4.24%)p17.87( 75.72%)d 4.63( 19.61%)
                                                  f 0.10(  0.43%)
                                         0.0000  0.0001  0.2036 -0.0291  0.0098
                                         0.0076  0.6320 -0.0110 -0.0032 -0.0858
                                         0.0644 -0.0098  0.5878  0.0217  0.0708
                                        -0.2616  0.0501 -0.2101 -0.0139 -0.1919
                                        -0.0641  0.0577  0.0072 -0.1774  0.0090
                                         0.0236  0.0335 -0.0311  0.0120  0.0342
                                        -0.0166
 202. (0.00126) RY ( 3) C  6            s( 14.35%)p 4.60( 66.00%)d 1.32( 18.98%)
                                                  f 0.05(  0.66%)
                                         0.0000  0.0008  0.3759  0.0465  0.0076
                                        -0.0011 -0.1466 -0.0615 -0.0070 -0.7856
                                         0.0483 -0.0197 -0.0628  0.1047  0.0118
                                        -0.0494  0.1817  0.1617 -0.0132  0.1297
                                        -0.0223  0.2954 -0.1525  0.0090 -0.0145
                                         0.0106 -0.0177 -0.0568  0.0170  0.0011
                                         0.0495
 203. (0.00070) RY ( 4) C  6            s( 11.15%)p 3.30( 36.83%)d 4.54( 50.55%)
                                                  f 0.13(  1.47%)
                                         0.0000  0.0006  0.3310 -0.0309  0.0309
                                        -0.0048  0.0066 -0.2366  0.0068  0.4326
                                        -0.2304 -0.0130 -0.2624  0.0543  0.0472
                                        -0.3712  0.2978 -0.0745 -0.0468  0.3155
                                        -0.1390  0.3510  0.0925 -0.1360  0.0457
                                         0.0584 -0.0060 -0.0119  0.0534  0.0171
                                        -0.0768
 204. (0.00048) RY ( 5) C  6            s( 12.74%)p 0.86( 10.97%)d 5.86( 74.66%)
                                                  f 0.13(  1.62%)
                                         0.0000  0.0014  0.3562  0.0216  0.0069
                                        -0.0042 -0.0108 -0.1289 -0.0051  0.0180
                                        -0.0175 -0.0146 -0.2995  0.0489 -0.1264
                                        -0.0932  0.3078  0.0069  0.2961 -0.5617
                                         0.0618 -0.4678 -0.0199 -0.0316 -0.0114
                                         0.0016  0.0986  0.0245  0.0684  0.0172
                                         0.0286
 205. (0.00030) RY ( 6) C  6            s( 12.35%)p 2.15( 26.56%)d 4.75( 58.58%)
                                                  f 0.20(  2.51%)
                                         0.0000  0.0008  0.3228 -0.1385  0.0090
                                         0.0062  0.2828 -0.3049  0.0042  0.1587
                                        -0.2268 -0.0084  0.0943 -0.0843 -0.0722
                                         0.5855 -0.0529  0.4112 -0.1135  0.0076
                                         0.0463  0.0616 -0.0514  0.2105  0.0068
                                        -0.0583  0.0604 -0.0700 -0.0008  0.1132
                                        -0.0167
 206. (0.00014) RY ( 7) C  6            s(  4.43%)p11.61( 51.44%)d 4.16( 18.44%)
                                                  f 5.80( 25.69%)
                                         0.0000 -0.0072 -0.1407  0.0376  0.1518
                                         0.0051  0.0028 -0.4092 -0.0005  0.0239
                                         0.5443  0.0026  0.0086  0.2237  0.2856
                                         0.0942  0.1660  0.0204  0.0188  0.1248
                                        -0.1253 -0.1662 -0.0345  0.0743 -0.0700
                                         0.1248 -0.0070 -0.1162 -0.0256  0.1753
                                        -0.4376
 207. (0.00010) RY ( 8) C  6            s( 15.69%)p 1.46( 22.91%)d 2.51( 39.41%)
                                                  f 1.40( 21.99%)
 208. (0.00008) RY ( 9) C  6            s(  7.02%)p 1.13(  7.93%)d10.43( 73.29%)
                                                  f 1.67( 11.75%)
 209. (0.00006) RY (10) C  6            s( 18.21%)p 1.74( 31.65%)d 1.78( 32.43%)
                                                  f 0.97( 17.72%)
 210. (0.00004) RY (11) C  6            s( 10.65%)p 4.59( 48.91%)d 2.97( 31.61%)
                                                  f 0.83(  8.83%)
 211. (0.00001) RY (12) C  6            s(  6.68%)p 3.11( 20.76%)d10.41( 69.57%)
                                                  f 0.45(  2.99%)
 212. (0.00000) RY (13) C  6            s( 40.58%)p 0.86( 34.76%)d 0.44( 17.78%)
                                                  f 0.17(  6.88%)
 213. (0.00000) RY (14) C  6            s( 10.36%)p 0.52(  5.36%)d 4.36( 45.14%)
                                                  f 3.78( 39.14%)
 214. (0.00000) RY (15) C  6            s( 11.97%)p 1.93( 23.15%)d 4.49( 53.77%)
                                                  f 0.93( 11.10%)
 215. (0.00000) RY (16) C  6            s(  0.36%)p 0.83(  0.30%)d58.42( 21.09%)
                                                  f99.99( 78.25%)
 216. (0.00000) RY (17) C  6            s(  0.63%)p 1.69(  1.07%)d54.80( 34.58%)
                                                  f99.99( 63.72%)
 217. (0.00000) RY (18) C  6            s(  3.08%)p 0.21(  0.64%)d17.56( 54.13%)
                                                  f13.67( 42.15%)
 218. (0.00000) RY (19) C  6            s(  3.12%)p 0.21(  0.65%)d 5.37( 16.74%)
                                                  f25.48( 79.49%)
 219. (0.00000) RY (20) C  6            s( 19.96%)p 0.36(  7.15%)d 1.91( 38.21%)
                                                  f 1.74( 34.67%)
 220. (0.00000) RY (21) C  6            s( 14.29%)p 0.06(  0.88%)d 4.22( 60.27%)
                                                  f 1.72( 24.55%)
 221. (0.00000) RY (22) C  6            s(  7.19%)p 0.77(  5.51%)d 5.76( 41.38%)
                                                  f 6.39( 45.92%)
 222. (0.00000) RY (23) C  6            s(  8.10%)p 0.59(  4.78%)d 4.18( 33.81%)
                                                  f 6.59( 53.31%)
 223. (0.00000) RY (24) C  6            s( 40.21%)p 0.14(  5.43%)d 0.47( 18.82%)
                                                  f 0.88( 35.54%)
 224. (0.00000) RY (25) C  6            s( 11.13%)p 1.47( 16.31%)d 2.71( 30.21%)
                                                  f 3.80( 42.35%)
 225. (0.00000) RY (26) C  6            s(  6.19%)p 1.30(  8.06%)d 6.32( 39.13%)
                                                  f 7.53( 46.62%)
 226. (0.00224) RY ( 1) C  7            s(  6.36%)p14.25( 90.66%)d 0.45(  2.89%)
                                                  f 0.01(  0.09%)
                                         0.0000 -0.0007  0.2518 -0.0143  0.0018
                                        -0.0065  0.8617  0.0167 -0.0006  0.4040
                                        -0.0013  0.0022  0.0231 -0.0012  0.0720
                                         0.1276  0.0614  0.0067  0.0020 -0.0026
                                        -0.0379 -0.0187  0.0090 -0.0415  0.0053
                                        -0.0149 -0.0108 -0.0059  0.0111 -0.0041
                                        -0.0187
 227. (0.00138) RY ( 2) C  7            s( 16.95%)p 4.27( 72.40%)d 0.61( 10.28%)
                                                  f 0.02(  0.37%)
                                         0.0000  0.0024  0.4116 -0.0083 -0.0018
                                         0.0050 -0.3545 -0.0281  0.0038  0.5505
                                        -0.0109  0.0190 -0.5416 -0.0254 -0.1341
                                        -0.0692  0.1052  0.0262 -0.1025 -0.1651
                                         0.0038 -0.0457 -0.1475 -0.0817  0.0248
                                        -0.0249 -0.0325  0.0206 -0.0136  0.0049
                                        -0.0272
 228. (0.00028) RY ( 3) C  7            s(  9.13%)p 6.85( 62.55%)d 2.63( 24.01%)
                                                  f 0.47(  4.32%)
                                         0.0000  0.0019  0.2995  0.0394 -0.0018
                                         0.0076 -0.2077 -0.0857  0.0113  0.2444
                                        -0.0842  0.0145  0.7126 -0.0043 -0.2428
                                        -0.0574  0.3401 -0.1778  0.1569 -0.0074
                                         0.0434 -0.0283 -0.0110  0.0554  0.0459
                                        -0.0730  0.1129 -0.0298 -0.1352 -0.0585
                                         0.0212
 229. (0.00022) RY ( 4) C  7            s(  0.50%)p14.28(  7.16%)d99.99( 85.42%)
                                                  f13.78(  6.91%)
                                         0.0000 -0.0060  0.0251  0.0646 -0.0132
                                        -0.0224  0.0386  0.1042 -0.0018 -0.2300
                                         0.0679  0.0207 -0.0274  0.0085  0.0904
                                         0.3207  0.1601  0.0674  0.3301 -0.3427
                                         0.2266 -0.2444 -0.6122 -0.0277  0.1541
                                        -0.0479  0.0221  0.1524  0.0371 -0.1257
                                        -0.0470
 230. (0.00015) RY ( 5) C  7            s( 34.36%)p 0.75( 25.68%)d 0.85( 29.08%)
                                                  f 0.32( 10.89%)
                                         0.0000  0.0041  0.5852 -0.0224 -0.0249
                                        -0.0019  0.0664 -0.2562 -0.0143 -0.4141
                                        -0.0115 -0.0047 -0.0410  0.1150 -0.1387
                                         0.0650 -0.1918  0.1154 -0.1944  0.1184
                                         0.3782  0.0813 -0.0245  0.1229 -0.1516
                                         0.0064  0.0646 -0.2092 -0.0682 -0.0335
                                        -0.1791
 231. (0.00007) RY ( 6) C  7            s(  7.17%)p 2.25( 16.17%)d 8.65( 62.06%)
                                                  f 2.03( 14.60%)
 232. (0.00005) RY ( 7) C  7            s(  9.84%)p 3.24( 31.90%)d 4.23( 41.60%)
                                                  f 1.69( 16.67%)
 233. (0.00004) RY ( 8) C  7            s(  8.76%)p 2.60( 22.80%)d 5.80( 50.80%)
                                                  f 2.01( 17.64%)
 234. (0.00002) RY ( 9) C  7            s(  7.71%)p 1.94( 14.94%)d 8.66( 66.78%)
                                                  f 1.37( 10.57%)
 235. (0.00001) RY (10) C  7            s(  9.13%)p 5.18( 47.33%)d 4.25( 38.80%)
                                                  f 0.52(  4.74%)
 236. (0.00000) RY (11) C  7            s( 22.43%)p 0.74( 16.62%)d 1.55( 34.85%)
                                                  f 1.16( 26.10%)
 237. (0.00000) RY (12) C  7            s( 15.02%)p 2.42( 36.34%)d 1.99( 29.85%)
                                                  f 1.25( 18.79%)
 238. (0.00000) RY (13) C  7            s( 34.62%)p 0.31( 10.73%)d 1.16( 40.22%)
                                                  f 0.42( 14.43%)
 239. (0.00000) RY (14) C  7            s(  7.36%)p 2.30( 16.92%)d 3.90( 28.75%)
                                                  f 6.38( 46.96%)
 240. (0.00000) RY (15) C  7            s(  9.79%)p 3.36( 32.93%)d 4.57( 44.75%)
                                                  f 1.28( 12.53%)
 241. (0.00000) RY (16) C  7            s(  2.85%)p 9.07( 25.85%)d12.14( 34.61%)
                                                  f12.87( 36.69%)
 242. (0.00000) RY (17) C  7            s(  0.57%)p 3.57(  2.04%)d48.17( 27.54%)
                                                  f99.99( 69.85%)
 243. (0.00000) RY (18) C  7            s( 13.65%)p 0.11(  1.45%)d 4.43( 60.52%)
                                                  f 1.79( 24.38%)
 244. (0.00000) RY (19) C  7            s(  7.80%)p 0.27(  2.12%)d 4.01( 31.24%)
                                                  f 7.55( 58.85%)
 245. (0.00000) RY (20) C  7            s(  0.20%)p 8.88(  1.74%)d86.64( 16.99%)
                                                  f99.99( 81.07%)
 246. (0.00000) RY (21) C  7            s(  3.69%)p 1.17(  4.31%)d15.09( 55.67%)
                                                  f 9.85( 36.34%)
 247. (0.00000) RY (22) C  7            s(  4.29%)p 2.89( 12.38%)d11.86( 50.85%)
                                                  f 7.57( 32.48%)
 248. (0.00000) RY (23) C  7            s( 13.47%)p 0.05(  0.66%)d 2.71( 36.50%)
                                                  f 3.66( 49.37%)
 249. (0.00000) RY (24) C  7            s( 23.01%)p 1.16( 26.62%)d 1.72( 39.50%)
                                                  f 0.47( 10.88%)
 250. (0.00000) RY (25) C  7            s(  0.26%)p38.86(  9.91%)d99.99( 47.96%)
                                                  f99.99( 41.88%)
 251. (0.00000) RY (26) C  7            s( 31.16%)p 0.27(  8.35%)d 0.26(  7.95%)
                                                  f 1.69( 52.54%)
 252. (0.00154) RY ( 1) C  8            s(  0.98%)p94.16( 92.51%)d 6.28(  6.17%)
                                                  f 0.34(  0.34%)
                                         0.0000  0.0018  0.0959  0.0236 -0.0083
                                         0.0044 -0.3250 -0.0070  0.0112 -0.8868
                                        -0.0321  0.0043 -0.1786 -0.0025 -0.0469
                                        -0.0914 -0.0721 -0.0475 -0.0093 -0.0424
                                        -0.1306 -0.1388 -0.0631 -0.0382 -0.0128
                                        -0.0053 -0.0148 -0.0291 -0.0372 -0.0270
                                        -0.0032
 253. (0.00090) RY ( 2) C  8            s( 16.44%)p 3.97( 65.31%)d 1.04( 17.02%)
                                                  f 0.07(  1.23%)
                                         0.0000  0.0011  0.4035 -0.0404  0.0011
                                        -0.0034  0.7452  0.0140 -0.0021 -0.1663
                                        -0.0071  0.0204 -0.2548 -0.0669 -0.0410
                                        -0.0694  0.0785 -0.0470 -0.0032  0.1104
                                        -0.0076  0.0995 -0.3217 -0.1723  0.0257
                                        -0.0742  0.0355  0.0356  0.0304  0.0234
                                        -0.0457
 254. (0.00021) RY ( 3) C  8            s(  2.57%)p 4.75( 12.20%)d29.50( 75.72%)
                                                  f 3.71(  9.51%)
                                         0.0000 -0.0061  0.1292 -0.0861  0.0390
                                         0.0198 -0.1817 -0.1889  0.0138  0.1768
                                        -0.1415  0.0170 -0.0073 -0.0328 -0.3396
                                        -0.0823  0.3643 -0.2139 -0.2244  0.0868
                                        -0.6288  0.0060 -0.0582  0.0086  0.1576
                                        -0.1101 -0.0349 -0.0396  0.1547  0.1660
                                         0.0622
 255. (0.00015) RY ( 4) C  8            s(  8.93%)p 0.65(  5.81%)d 8.28( 73.95%)
                                                  f 1.27( 11.30%)
                                         0.0000  0.0054  0.2982 -0.0019 -0.0191
                                         0.0126  0.1501 -0.0510  0.0132  0.0184
                                        -0.1188 -0.0162  0.1310 -0.0274 -0.4050
                                         0.2124 -0.5203  0.2547  0.1010 -0.0608
                                        -0.2552 -0.1406  0.2481  0.1858 -0.1477
                                         0.1628 -0.1050  0.1397 -0.1129  0.1453
                                         0.0182
 256. (0.00011) RY ( 5) C  8            s(  6.08%)p10.92( 66.38%)d 2.74( 16.63%)
                                                  f 1.80( 10.91%)
                                         0.0000  0.0006  0.1944 -0.1417 -0.0543
                                        -0.0183 -0.3054  0.0719  0.0103  0.2808
                                        -0.0516 -0.0058 -0.6070  0.3391  0.2092
                                         0.0404 -0.2086  0.0023  0.0949  0.1171
                                        -0.1236  0.0502 -0.1767 -0.0751 -0.0315
                                         0.0739 -0.1039  0.0933 -0.2119  0.0316
                                        -0.1931
 257. (0.00006) RY ( 6) C  8            s( 16.97%)p 1.07( 18.13%)d 2.94( 49.95%)
                                                  f 0.88( 14.95%)
 258. (0.00002) RY ( 7) C  8            s( 40.27%)p 0.49( 19.58%)d 0.80( 32.40%)
                                                  f 0.19(  7.75%)
 259. (0.00001) RY ( 8) C  8            s( 19.66%)p 2.05( 40.31%)d 1.55( 30.41%)
                                                  f 0.49(  9.62%)
 260. (0.00001) RY ( 9) C  8            s(  0.11%)p99.99( 15.10%)d99.99( 64.94%)
                                                  f99.99( 19.85%)
 261. (0.00000) RY (10) C  8            s(  3.87%)p12.24( 47.36%)d 9.59( 37.13%)
                                                  f 3.01( 11.65%)
 262. (0.00000) RY (11) C  8            s( 30.59%)p 0.80( 24.54%)d 0.82( 25.02%)
                                                  f 0.65( 19.85%)
 263. (0.00000) RY (12) C  8            s( 12.24%)p 3.87( 47.34%)d 1.88( 23.02%)
                                                  f 1.42( 17.40%)
 264. (0.00000) RY (13) C  8            s( 18.28%)p 1.41( 25.85%)d 1.35( 24.61%)
                                                  f 1.71( 31.26%)
 265. (0.00000) RY (14) C  8            s( 27.53%)p 0.50( 13.75%)d 0.93( 25.62%)
                                                  f 1.20( 33.10%)
 266. (0.00000) RY (15) C  8            s( 14.71%)p 0.63(  9.28%)d 2.46( 36.17%)
                                                  f 2.71( 39.84%)
 267. (0.00000) RY (16) C  8            s( 11.47%)p 4.10( 47.03%)d 1.73( 19.85%)
                                                  f 1.89( 21.65%)
 268. (0.00000) RY (17) C  8            s( 30.21%)p 0.54( 16.20%)d 1.46( 44.23%)
                                                  f 0.31(  9.35%)
 269. (0.00000) RY (18) C  8            s(  0.79%)p 0.97(  0.77%)d17.37( 13.69%)
                                                  f99.99( 84.76%)
 270. (0.00000) RY (19) C  8            s(  9.82%)p 0.19(  1.84%)d 2.17( 21.29%)
                                                  f 6.83( 67.06%)
 271. (0.00000) RY (20) C  8            s(  2.44%)p 2.23(  5.44%)d22.79( 55.56%)
                                                  f14.99( 36.56%)
 272. (0.00000) RY (21) C  8            s(  4.16%)p 0.29(  1.21%)d18.54( 77.12%)
                                                  f 4.21( 17.50%)
 273. (0.00000) RY (22) C  8            s(  1.26%)p 2.71(  3.41%)d15.12( 19.06%)
                                                  f60.48( 76.26%)
 274. (0.00000) RY (23) C  8            s(  4.48%)p 0.79(  3.56%)d14.17( 63.51%)
                                                  f 6.34( 28.45%)
 275. (0.00000) RY (24) C  8            s(  0.54%)p13.81(  7.44%)d53.63( 28.88%)
                                                  f99.99( 63.14%)
 276. (0.00000) RY (25) C  8            s( 10.40%)p 0.52(  5.37%)d 5.54( 57.66%)
                                                  f 2.55( 26.57%)
 277. (0.00000) RY (26) C  8            s(  5.27%)p 0.91(  4.81%)d11.36( 59.85%)
                                                  f 5.71( 30.07%)
 278. (0.00358) RY ( 1) O  9            s(  2.76%)p34.75( 95.75%)d 0.52(  1.43%)
                                                  f 0.02(  0.06%)
                                         0.0000  0.0000  0.1636  0.0279  0.0010
                                         0.0026  0.1755  0.0115 -0.0001  0.0267
                                         0.0037 -0.0086  0.9616  0.0332 -0.0170
                                        -0.0044  0.0321  0.0447 -0.0537 -0.0470
                                         0.0399  0.0255 -0.0540 -0.0268  0.0146
                                         0.0054 -0.0092  0.0053  0.0140  0.0062
                                         0.0077
 279. (0.00224) RY ( 2) O  9            s(  2.25%)p40.07( 90.30%)d 3.23(  7.29%)
                                                  f 0.07(  0.16%)
                                         0.0000 -0.0052  0.1482  0.0236  0.0005
                                         0.0096 -0.0626  0.0165 -0.0059  0.9463
                                         0.0137 -0.0012 -0.0534 -0.0100  0.0542
                                         0.0420 -0.0882 -0.0108 -0.0374 -0.0068
                                         0.2096  0.1106 -0.0486 -0.0175 -0.0022
                                         0.0047  0.0142  0.0125 -0.0120  0.0065
                                         0.0324
 280. (0.00101) RY ( 3) O  9            s( 46.57%)p 1.05( 48.83%)d 0.08(  3.78%)
                                                  f 0.02(  0.82%)
                                         0.0000 -0.0014  0.6785 -0.0729 -0.0047
                                        -0.0138 -0.6668 -0.1616 -0.0058 -0.1284
                                        -0.0227  0.0000  0.0165  0.0055  0.0037
                                         0.0542  0.0027 -0.0078  0.0785 -0.0088
                                        -0.1198  0.0843 -0.0772 -0.0337 -0.0084
                                         0.0218  0.0000 -0.0204  0.0092 -0.0074
                                        -0.0845
 281. (0.00039) RY ( 4) O  9            s( 35.92%)p 1.35( 48.34%)d 0.40( 14.28%)
                                                  f 0.04(  1.46%)
                                         0.0000 -0.0019  0.5990  0.0183  0.0003
                                         0.0022  0.6470  0.0704 -0.0047 -0.0665
                                         0.0264  0.0006 -0.2264 -0.0579  0.2472
                                         0.1448  0.1574  0.0052 -0.0848  0.0198
                                        -0.0926  0.0811 -0.1147  0.0087  0.0227
                                        -0.0528  0.0039 -0.0209  0.0661 -0.0563
                                        -0.0579
 282. (0.00019) RY ( 5) O  9            s(  0.02%)p86.27(  1.83%)d99.99( 96.73%)
                                                  f67.21(  1.42%)
                                         0.0000  0.0003  0.0125  0.0037  0.0064
                                        -0.0047  0.0997 -0.0669 -0.0064 -0.0190
                                        -0.0396 -0.0095  0.0420  0.0035  0.2920
                                         0.1232 -0.8445 -0.0593  0.2178 -0.1515
                                        -0.2424 -0.0377  0.1392 -0.0167  0.0077
                                         0.0205 -0.0099 -0.0407 -0.0470 -0.0966
                                        -0.0215
 283. (0.00010) RY ( 6) O  9            s(  7.70%)p 1.33( 10.22%)d 9.76( 75.12%)
                                                  f 0.90(  6.96%)
                                         0.0000 -0.0003  0.2753 -0.0347 -0.0007
                                         0.0135  0.0505  0.2696  0.0282 -0.1267
                                         0.0670 -0.0103 -0.0337 -0.0644 -0.1232
                                        -0.3187 -0.1590 -0.1083  0.1237  0.0166
                                         0.5629 -0.1064  0.5003 -0.0584  0.0935
                                        -0.0554  0.0803 -0.1051 -0.0089  0.1967
                                         0.0395
 284. (0.00008) RY ( 7) O  9            s(  4.96%)p 1.04(  5.17%)d17.32( 85.97%)
                                                  f 0.78(  3.89%)
 285. (0.00006) RY ( 8) O  9            s(  3.25%)p 2.15(  7.00%)d26.76( 87.02%)
                                                  f 0.84(  2.73%)
 286. (0.00002) RY ( 9) O  9            s(  0.78%)p50.03( 38.82%)d72.06( 55.92%)
                                                  f 5.79(  4.49%)
 287. (0.00002) RY (10) O  9            s(  6.20%)p 2.80( 17.36%)d11.54( 71.57%)
                                                  f 0.78(  4.87%)
 288. (0.00001) RY (11) O  9            s( 12.12%)p 2.22( 26.91%)d 4.33( 52.44%)
                                                  f 0.70(  8.53%)
 289. (0.00000) RY (12) O  9            s( 23.82%)p 0.90( 21.38%)d 1.48( 35.18%)
                                                  f 0.82( 19.62%)
 290. (0.00000) RY (13) O  9            s(  6.07%)p 8.63( 52.37%)d 3.53( 21.44%)
                                                  f 3.32( 20.13%)
 291. (0.00000) RY (14) O  9            s(  8.78%)p 2.62( 23.00%)d 2.46( 21.59%)
                                                  f 5.31( 46.62%)
 292. (0.00000) RY (15) O  9            s(  1.97%)p25.97( 51.27%)d16.22( 32.01%)
                                                  f 7.47( 14.75%)
 293. (0.00000) RY (16) O  9            s( 17.67%)p 1.72( 30.37%)d 1.16( 20.48%)
                                                  f 1.78( 31.47%)
 294. (0.00000) RY (17) O  9            s( 69.74%)p 0.01(  0.93%)d 0.16( 11.08%)
                                                  f 0.26( 18.26%)
 295. (0.00000) RY (18) O  9            s(  5.88%)p 0.44(  2.58%)d 2.00( 11.76%)
                                                  f13.57( 79.78%)
 296. (0.00000) RY (19) O  9            s( 14.02%)p 0.33(  4.59%)d 1.47( 20.60%)
                                                  f 4.34( 60.79%)
 297. (0.00000) RY (20) O  9            s(  3.64%)p 0.72(  2.61%)d10.01( 36.44%)
                                                  f15.73( 57.30%)
 298. (0.00000) RY (21) O  9            s(  2.95%)p 1.97(  5.81%)d12.09( 35.63%)
                                                  f18.86( 55.61%)
 299. (0.00000) RY (22) O  9            s(  4.43%)p 0.37(  1.65%)d 9.91( 43.96%)
                                                  f11.26( 49.95%)
 300. (0.00000) RY (23) O  9            s(  2.86%)p 1.24(  3.55%)d20.31( 58.14%)
                                                  f12.38( 35.45%)
 301. (0.00000) RY (24) O  9            s( 11.80%)p 0.67(  7.95%)d 2.11( 24.89%)
                                                  f 4.69( 55.36%)
 302. (0.00000) RY (25) O  9            s(  0.13%)p 2.35(  0.31%)d99.99( 23.11%)
                                                  f99.99( 76.44%)
 303. (0.00000) RY (26) O  9            s(  3.78%)p 0.47(  1.77%)d13.59( 51.41%)
                                                  f11.37( 43.03%)
 304. (0.00359) RY ( 1) C 10            s(  8.56%)p 9.17( 78.51%)d 1.48( 12.65%)
                                                  f 0.03(  0.28%)
                                         0.0000 -0.0146  0.2891 -0.0418  0.0076
                                        -0.0191 -0.8587  0.0304  0.0383 -0.0932
                                         0.1675  0.0052  0.0314 -0.0847  0.2141
                                         0.0284 -0.1612 -0.0300 -0.0850 -0.0170
                                         0.1954 -0.0151  0.0347 -0.0764  0.0119
                                        -0.0004  0.0063 -0.0274  0.0035  0.0293
                                         0.0315
 305. (0.00293) RY ( 2) C 10            s(  3.44%)p27.03( 93.08%)d 0.95(  3.28%)
                                                  f 0.06(  0.20%)
                                         0.0000 -0.0158  0.1831 -0.0212  0.0142
                                        -0.0494 -0.0224 -0.1425  0.0040  0.9469
                                         0.0545  0.0111  0.0649  0.0597 -0.0098
                                        -0.0776 -0.0077  0.0688  0.0461  0.0760
                                         0.1024 -0.0491  0.0324 -0.0050  0.0028
                                        -0.0058  0.0269  0.0131  0.0109  0.0236
                                        -0.0199
 306. (0.00218) RY ( 3) C 10            s( 39.83%)p 0.27( 10.87%)d 1.20( 47.91%)
                                                  f 0.03(  1.39%)
                                         0.0000 -0.0024  0.6311  0.0089  0.0002
                                        -0.0078  0.1162 -0.1435  0.0023 -0.1298
                                         0.0439  0.0383 -0.0899  0.2149 -0.0315
                                        -0.1012  0.5627 -0.0130 -0.2040 -0.1793
                                         0.0833  0.0149 -0.2645  0.0139 -0.0674
                                        -0.0335  0.0261  0.0389 -0.0727 -0.0181
                                        -0.0208
 307. (0.00085) RY ( 4) C 10            s(  0.19%)p99.99( 69.10%)d99.99( 29.44%)
                                                  f 6.74(  1.27%)
                                         0.0000  0.0036  0.0401  0.0108 -0.0121
                                        -0.0084  0.0463  0.2282  0.0113  0.0461
                                        -0.0802  0.0079 -0.7924 -0.0047 -0.0269
                                        -0.2123 -0.2199  0.2659 -0.0648 -0.0176
                                         0.1049  0.0211 -0.0664 -0.3304 -0.0621
                                         0.0261 -0.0026  0.0101 -0.0503 -0.0552
                                         0.0498
 308. (0.00046) RY ( 5) C 10            s(  5.66%)p 4.26( 24.07%)d12.18( 68.91%)
                                                  f 0.24(  1.36%)
                                         0.0000  0.0049  0.2359 -0.0280  0.0095
                                        -0.0223 -0.0759 -0.0093 -0.0130 -0.1148
                                        -0.3906  0.0150  0.2495 -0.0775 -0.6788
                                        -0.0589 -0.0632  0.1699  0.1195  0.0959
                                         0.1445 -0.1514  0.2219 -0.2748 -0.0428
                                         0.0447  0.0616  0.0041 -0.0205  0.0656
                                        -0.0354
 309. (0.00026) RY ( 6) C 10            s(  2.09%)p 2.05(  4.28%)d43.19( 90.27%)
                                                  f 1.61(  3.36%)
                                         0.0000  0.0009  0.1425  0.0240 -0.0046
                                        -0.0036  0.0510  0.1223 -0.0036 -0.0135
                                        -0.1317  0.0018  0.0825 -0.0289  0.1209
                                         0.1982  0.0378  0.3560  0.1029  0.1926
                                         0.1589  0.7892  0.0996  0.1221  0.0184
                                         0.0928  0.0034  0.1271 -0.0386  0.0786
                                         0.0294
 310. (0.00021) RY ( 7) C 10            s(  4.81%)p 4.13( 19.88%)d15.14( 72.89%)
                                                  f 0.50(  2.42%)
                                         0.0000 -0.0008 -0.1487  0.1585  0.0301
                                         0.0023  0.2424  0.1920  0.0116 -0.0043
                                         0.0435  0.0070  0.2982 -0.1104  0.1438
                                        -0.1166 -0.0907 -0.1087 -0.3140 -0.0859
                                         0.7004 -0.0110 -0.1665 -0.2238 -0.0461
                                         0.0076  0.0998 -0.0657 -0.0157  0.0787
                                        -0.0358
 311. (0.00015) RY ( 8) C 10            s( 28.60%)p 0.53( 15.03%)d 1.73( 49.45%)
                                                  f 0.24(  6.91%)
                                         0.0000 -0.0047  0.4460  0.2951 -0.0006
                                        -0.0004  0.2548 -0.0902  0.0062 -0.1193
                                        -0.0237  0.0096  0.1603  0.1914  0.2881
                                        -0.1109 -0.4776 -0.0796  0.0240  0.3043
                                        -0.2078 -0.0589  0.0298 -0.1549  0.0126
                                        -0.0456  0.0427 -0.0372  0.1840 -0.0763
                                         0.1550
 312. (0.00005) RY ( 9) C 10            s( 16.09%)p 1.52( 24.50%)d 2.50( 40.27%)
                                                  f 1.19( 19.14%)
 313. (0.00004) RY (10) C 10            s(  3.62%)p 2.09(  7.56%)d21.14( 76.43%)
                                                  f 3.43( 12.40%)
 314. (0.00002) RY (11) C 10            s(  2.37%)p29.20( 69.26%)d10.94( 25.94%)
                                                  f 1.02(  2.42%)
 315. (0.00001) RY (12) C 10            s( 34.60%)p 0.54( 18.74%)d 1.22( 42.10%)
                                                  f 0.13(  4.56%)
 316. (0.00000) RY (13) C 10            s( 22.14%)p 0.69( 15.20%)d 2.63( 58.19%)
                                                  f 0.20(  4.47%)
 317. (0.00000) RY (14) C 10            s( 14.83%)p 0.17(  2.51%)d 2.11( 31.28%)
                                                  f 3.46( 51.37%)
 318. (0.00000) RY (15) C 10            s( 16.83%)p 1.99( 33.48%)d 1.86( 31.30%)
                                                  f 1.09( 18.39%)
 319. (0.00000) RY (16) C 10            s(  0.43%)p 0.49(  0.21%)d13.77(  5.90%)
                                                  f99.99( 93.46%)
 320. (0.00000) RY (17) C 10            s(  1.17%)p 1.44(  1.68%)d11.23( 13.14%)
                                                  f71.84( 84.01%)
 321. (0.00000) RY (18) C 10            s( 11.97%)p 0.14(  1.67%)d 0.36(  4.35%)
                                                  f 6.85( 82.02%)
 322. (0.00000) RY (19) C 10            s(  2.49%)p 0.83(  2.06%)d 3.85(  9.58%)
                                                  f34.50( 85.87%)
 323. (0.00000) RY (20) C 10            s(  8.94%)p 0.35(  3.15%)d 7.43( 66.39%)
                                                  f 2.41( 21.52%)
 324. (0.00000) RY (21) C 10            s(  7.02%)p 0.32(  2.22%)d 0.89(  6.26%)
                                                  f12.04( 84.50%)
 325. (0.00000) RY (22) C 10            s( 29.82%)p 0.15(  4.50%)d 1.08( 32.20%)
                                                  f 1.12( 33.48%)
 326. (0.00000) RY (23) C 10            s(  7.97%)p 3.43( 27.38%)d 4.27( 34.01%)
                                                  f 3.84( 30.64%)
 327. (0.00000) RY (24) C 10            s(  6.06%)p 3.19( 19.37%)d 9.34( 56.63%)
                                                  f 2.96( 17.93%)
 328. (0.00000) RY (25) C 10            s( 13.75%)p 2.34( 32.20%)d 2.24( 30.77%)
                                                  f 1.69( 23.28%)
 329. (0.00000) RY (26) C 10            s(  6.56%)p 3.06( 20.09%)d 9.16( 60.06%)
                                                  f 2.03( 13.29%)
 330. (0.00132) RY ( 1) C 11            s( 19.71%)p 3.78( 74.43%)d 0.28(  5.49%)
                                                  f 0.02(  0.36%)
                                         0.0000 -0.0016  0.4419 -0.0412  0.0120
                                         0.0028 -0.8283 -0.0223  0.0038  0.2241
                                         0.0267 -0.0215  0.0282 -0.0747 -0.0612
                                        -0.0826 -0.0531  0.0962 -0.1257  0.0370
                                         0.0273  0.0454 -0.0502 -0.0991  0.0005
                                        -0.0103 -0.0546 -0.0136 -0.0179  0.0067
                                         0.0004
 331. (0.00050) RY ( 2) C 11            s(  0.29%)p99.99( 74.32%)d81.25( 23.59%)
                                                  f 6.22(  1.81%)
                                         0.0000 -0.0001  0.0535  0.0066 -0.0016
                                        -0.0009 -0.1990 -0.0397  0.0184 -0.6425
                                         0.0740  0.0056 -0.5221  0.1040 -0.0690
                                         0.0641  0.0113  0.1409  0.1675  0.1514
                                        -0.1427  0.1869  0.2811  0.1475 -0.0436
                                        -0.0397 -0.0215 -0.1065 -0.0244 -0.0348
                                         0.0311
 332. (0.00035) RY ( 3) C 11            s(  3.15%)p 9.61( 30.30%)d17.20( 54.22%)
                                                  f 3.91( 12.33%)
                                         0.0000  0.0051  0.1677  0.0133 -0.0567
                                         0.0154  0.1070  0.0028 -0.0092  0.1686
                                        -0.0389 -0.0059 -0.5110 -0.0108 -0.2889
                                         0.0279 -0.0362  0.0088  0.1898 -0.0998
                                         0.2655 -0.0608 -0.5476  0.1911 -0.1419
                                        -0.1640  0.2146  0.0967 -0.0190  0.0016
                                        -0.1430
 333. (0.00023) RY ( 4) C 11            s(  2.72%)p13.18( 35.86%)d20.93( 56.93%)
                                                  f 1.65(  4.49%)
                                         0.0000  0.0010 -0.0866  0.1319 -0.0481
                                         0.0267 -0.1449  0.2383  0.0070 -0.1363
                                         0.0501  0.0174  0.5080  0.0227 -0.2879
                                        -0.0070  0.1781  0.1061  0.6053  0.0632
                                         0.2230  0.1273 -0.0324  0.0782 -0.0286
                                        -0.1426  0.1064 -0.0808  0.0577 -0.0484
                                         0.0147
 334. (0.00009) RY ( 5) C 11            s(  7.61%)p 5.41( 41.18%)d 5.09( 38.72%)
                                                  f 1.64( 12.49%)
 335. (0.00006) RY ( 6) C 11            s(  9.21%)p 2.41( 22.17%)d 6.25( 57.49%)
                                                  f 1.21( 11.14%)
 336. (0.00003) RY ( 7) C 11            s( 15.55%)p 1.94( 30.15%)d 3.30( 51.28%)
                                                  f 0.19(  3.02%)
 337. (0.00001) RY ( 8) C 11            s( 25.51%)p 0.28(  7.10%)d 2.33( 59.55%)
                                                  f 0.31(  7.84%)
 338. (0.00001) RY ( 9) C 11            s( 40.67%)p 0.50( 20.41%)d 0.82( 33.49%)
                                                  f 0.13(  5.43%)
 339. (0.00000) RY (10) C 11            s(  7.77%)p 5.52( 42.86%)d 5.68( 44.15%)
                                                  f 0.67(  5.23%)
 340. (0.00000) RY (11) C 11            s(  2.01%)p 5.20( 10.46%)d18.23( 36.64%)
                                                  f25.31( 50.89%)
 341. (0.00000) RY (12) C 11            s( 36.09%)p 0.15(  5.56%)d 0.40( 14.41%)
                                                  f 1.22( 43.93%)
 342. (0.00000) RY (13) C 11            s( 10.50%)p 0.92(  9.68%)d 5.47( 57.36%)
                                                  f 2.14( 22.46%)
 343. (0.00000) RY (14) C 11            s( 11.10%)p 4.00( 44.39%)d 2.30( 25.57%)
                                                  f 1.71( 18.95%)
 344. (0.00000) RY (15) C 11            s( 11.23%)p 3.42( 38.37%)d 0.68(  7.65%)
                                                  f 3.81( 42.75%)
 345. (0.00000) RY (16) C 11            s(  3.37%)p 4.89( 16.47%)d10.43( 35.12%)
                                                  f13.39( 45.05%)
 346. (0.00000) RY (17) C 11            s(  5.28%)p 1.24(  6.55%)d12.52( 66.15%)
                                                  f 4.17( 22.01%)
 347. (0.00000) RY (18) C 11            s( 49.67%)p 0.49( 24.42%)d 0.28( 14.10%)
                                                  f 0.24( 11.80%)
 348. (0.00000) RY (19) C 11            s( 24.70%)p 1.68( 41.58%)d 0.71( 17.42%)
                                                  f 0.66( 16.29%)
 349. (0.00000) RY (20) C 11            s(  2.21%)p 0.33(  0.73%)d13.79( 30.45%)
                                                  f30.17( 66.60%)
 350. (0.00000) RY (21) C 11            s(  1.62%)p 0.76(  1.24%)d 9.83( 15.89%)
                                                  f50.25( 81.25%)
 351. (0.00000) RY (22) C 11            s(  3.49%)p 0.66(  2.30%)d15.10( 52.68%)
                                                  f11.90( 41.53%)
 352. (0.00000) RY (23) C 11            s(  0.62%)p 8.68(  5.38%)d99.99( 74.31%)
                                                  f31.74( 19.69%)
 353. (0.00000) RY (24) C 11            s(  1.46%)p 4.74(  6.94%)d32.99( 48.30%)
                                                  f29.57( 43.29%)
 354. (0.00000) RY (25) C 11            s(  1.76%)p 1.23(  2.18%)d35.68( 62.91%)
                                                  f18.81( 33.16%)
 355. (0.00000) RY (26) C 11            s(  2.73%)p 2.04(  5.58%)d 5.70( 15.57%)
                                                  f27.89( 76.12%)
 356. (0.00275) RY ( 1) H 12            s( 97.42%)p 0.02(  2.05%)d 0.01(  0.52%)
                                         0.0081  0.9870 -0.0001 -0.1285  0.0532
                                        -0.0228  0.0247  0.0082 -0.0013 -0.0429
                                         0.0039  0.0113 -0.0529  0.0210
 357. (0.00028) RY ( 2) H 12            s(  0.27%)p99.99( 90.99%)d32.06(  8.74%)
                                        -0.0001 -0.0112  0.0510 -0.1503  0.0533
                                         0.1939 -0.0150 -0.9178  0.0656  0.0193
                                         0.0554  0.2672  0.0592  0.0949
 358. (0.00019) RY ( 3) H 12            s( 10.52%)p 7.67( 80.67%)d 0.84(  8.82%)
                                        -0.0001 -0.1200  0.3013 -0.4495  0.7560
                                        -0.0987  0.0576  0.1042 -0.0953 -0.2787
                                        -0.0554  0.0419 -0.0744 -0.0111
 359. (0.00014) RY ( 4) H 12            s( 77.47%)p 0.23( 17.76%)d 0.06(  4.78%)
                                         0.0008  0.0171  0.8800  0.0406 -0.2787
                                        -0.2171  0.2093 -0.0218  0.0825  0.1795
                                         0.0606 -0.0702  0.0020  0.0833
 360. (0.00002) RY ( 5) H 12            s(  2.66%)p31.97( 84.92%)d 4.68( 12.43%)
 361. (0.00001) RY ( 6) H 12            s(  5.07%)p12.40( 62.91%)d 6.31( 32.01%)
 362. (0.00001) RY ( 7) H 12            s(  0.03%)p99.99( 40.06%)d99.99( 59.91%)
 363. (0.00000) RY ( 8) H 12            s(  0.56%)p48.39( 27.18%)d99.99( 72.26%)
 364. (0.00000) RY ( 9) H 12            s(  0.00%)p 1.00( 27.54%)d 2.63( 72.46%)
 365. (0.00000) RY (10) H 12            s(  0.15%)p99.99( 41.41%)d99.99( 58.44%)
 366. (0.00000) RY (11) H 12            s(  1.41%)p 7.20( 10.14%)d62.80( 88.46%)
 367. (0.00000) RY (12) H 12            s(  0.09%)p99.99( 42.64%)d99.99( 57.26%)
 368. (0.00000) RY (13) H 12            s(  4.37%)p16.40( 71.71%)d 5.47( 23.92%)
 369. (0.00405) RY ( 1) H 13            s( 98.25%)p 0.01(  1.24%)d 0.01(  0.51%)
                                         0.0113  0.9911 -0.0010  0.0862 -0.0699
                                        -0.0081  0.0039 -0.0042  0.0046  0.0393
                                         0.0199 -0.0026 -0.0528  0.0180
 370. (0.00018) RY ( 2) H 13            s(  0.66%)p99.99( 90.86%)d12.85(  8.48%)
                                         0.0000  0.0051  0.0811  0.0441  0.0565
                                        -0.2051  0.0676  0.8990 -0.2205 -0.0750
                                        -0.1034 -0.2456 -0.0669 -0.0607
 371. (0.00013) RY ( 3) H 13            s( 88.70%)p 0.11(  9.34%)d 0.02(  1.96%)
                                         0.0001 -0.0076  0.9418 -0.0034 -0.0389
                                        -0.1373  0.2243 -0.1108  0.1021 -0.0605
                                        -0.0053 -0.0050 -0.0713  0.1040
 372. (0.00008) RY ( 4) H 13            s(  1.37%)p69.10( 94.82%)d 2.77(  3.81%)
 373. (0.00005) RY ( 5) H 13            s(  0.03%)p99.99( 72.04%)d99.99( 27.93%)
 374. (0.00001) RY ( 6) H 13            s(  0.37%)p99.99( 61.65%)d99.99( 37.98%)
 375. (0.00001) RY ( 7) H 13            s(  2.87%)p23.37( 67.09%)d10.46( 30.04%)
 376. (0.00000) RY ( 8) H 13            s(  0.69%)p25.79( 17.80%)d99.99( 81.51%)
 377. (0.00000) RY ( 9) H 13            s(  0.37%)p99.20( 36.36%)d99.99( 63.27%)
 378. (0.00000) RY (10) H 13            s(  0.01%)p99.99( 20.51%)d99.99( 79.48%)
 379. (0.00000) RY (11) H 13            s(  0.49%)p99.99( 58.07%)d84.26( 41.44%)
 380. (0.00000) RY (12) H 13            s(  1.35%)p33.73( 45.66%)d39.14( 52.99%)
 381. (0.00000) RY (13) H 13            s(  4.87%)p 5.04( 24.52%)d14.50( 70.61%)
 382. (0.00159) RY ( 1) H 14            s( 96.87%)p 0.03(  2.45%)d 0.01(  0.68%)
                                         0.0028  0.9842  0.0000  0.0523 -0.0878
                                        -0.0083  0.0923 -0.0716 -0.0183  0.0045
                                        -0.0420  0.0178 -0.0052  0.0684
 383. (0.00010) RY ( 2) H 14            s(  0.83%)p99.99( 96.09%)d 3.73(  3.08%)
                                         0.0004  0.0835 -0.0361  0.4265  0.3833
                                         0.4791 -0.5717  0.1263  0.2444  0.0914
                                         0.0761  0.0201  0.1223  0.0368
 384. (0.00009) RY ( 3) H 14            s(  0.08%)p99.99( 86.18%)d99.99( 13.74%)
 385. (0.00007) RY ( 4) H 14            s(  4.28%)p12.15( 52.04%)d10.20( 43.68%)
 386. (0.00003) RY ( 5) H 14            s(  2.73%)p11.04( 30.15%)d24.56( 67.11%)
 387. (0.00002) RY ( 6) H 14            s( 53.91%)p 0.49( 26.16%)d 0.37( 19.94%)
 388. (0.00001) RY ( 7) H 14            s(  4.69%)p 5.65( 26.49%)d14.69( 68.82%)
 389. (0.00001) RY ( 8) H 14            s(  0.05%)p99.99( 40.14%)d99.99( 59.82%)
 390. (0.00000) RY ( 9) H 14            s(  0.02%)p99.99( 31.88%)d99.99( 68.10%)
 391. (0.00000) RY (10) H 14            s( 17.25%)p 3.43( 59.22%)d 1.36( 23.53%)
 392. (0.00000) RY (11) H 14            s( 18.31%)p 2.04( 37.43%)d 2.42( 44.25%)
 393. (0.00000) RY (12) H 14            s(  0.29%)p99.99( 84.76%)d51.31( 14.95%)
 394. (0.00000) RY (13) H 14            s(  0.75%)p35.94( 26.97%)d96.29( 72.28%)
 395. (0.00066) RY ( 1) H 15            s( 93.80%)p 0.06(  5.55%)d 0.01(  0.65%)
                                         0.0007  0.9685 -0.0002 -0.1405 -0.1194
                                        -0.0010  0.0450  0.0795  0.1149  0.0100
                                         0.0479 -0.0459  0.0429  0.0107
 396. (0.00017) RY ( 2) H 15            s(  3.18%)p26.73( 84.94%)d 3.74( 11.88%)
                                         0.0064 -0.0399  0.1736 -0.3665 -0.1149
                                        -0.7011 -0.4331  0.1407 -0.0546  0.0081
                                        -0.1220 -0.1258 -0.2967  0.0059
 397. (0.00012) RY ( 3) H 15            s(  6.80%)p10.83( 73.60%)d 2.88( 19.61%)
                                         0.0013  0.1454  0.2164  0.4346  0.0351
                                        -0.3111 -0.0401 -0.6687 -0.0172 -0.1647
                                        -0.1730  0.1473  0.0337 -0.3409
 398. (0.00006) RY ( 4) H 15            s(  5.55%)p14.47( 80.24%)d 2.56( 14.21%)
 399. (0.00004) RY ( 5) H 15            s( 52.07%)p 0.68( 35.58%)d 0.24( 12.35%)
 400. (0.00001) RY ( 6) H 15            s( 27.76%)p 2.09( 58.09%)d 0.51( 14.14%)
 401. (0.00000) RY ( 7) H 15            s(  5.71%)p12.36( 70.57%)d 4.15( 23.72%)
 402. (0.00000) RY ( 8) H 15            s(  0.50%)p51.54( 25.63%)d99.99( 73.87%)
 403. (0.00000) RY ( 9) H 15            s(  2.18%)p27.36( 59.52%)d17.60( 38.30%)
 404. (0.00000) RY (10) H 15            s(  0.01%)p99.99( 17.13%)d99.99( 82.85%)
 405. (0.00000) RY (11) H 15            s(  0.00%)p 1.00( 38.54%)d 1.59( 61.46%)
 406. (0.00000) RY (12) H 15            s(  0.49%)p41.76( 20.33%)d99.99( 79.18%)
 407. (0.00000) RY (13) H 15            s(  2.02%)p14.95( 30.22%)d33.51( 67.76%)
 408. (0.00043) RY ( 1) H 16            s( 94.50%)p 0.05(  4.67%)d 0.01(  0.83%)
                                        -0.0008  0.9721 -0.0012  0.0451 -0.1109
                                         0.0209  0.1519  0.0078  0.0936  0.0619
                                        -0.0058 -0.0122  0.0577 -0.0308
 409. (0.00011) RY ( 2) H 16            s(  1.14%)p71.91( 82.25%)d14.52( 16.61%)
                                         0.0017  0.0975  0.0440  0.2372  0.0775
                                        -0.5251 -0.4937  0.4872 -0.0584  0.0449
                                        -0.2416 -0.1807 -0.2702 -0.0009
 410. (0.00009) RY ( 3) H 16            s(  7.80%)p 8.79( 68.59%)d 3.03( 23.61%)
 411. (0.00008) RY ( 4) H 16            s( 12.63%)p 6.14( 77.53%)d 0.78(  9.83%)
 412. (0.00003) RY ( 5) H 16            s( 41.29%)p 0.96( 39.75%)d 0.46( 18.96%)
 413. (0.00001) RY ( 6) H 16            s( 25.60%)p 2.65( 67.81%)d 0.26(  6.59%)
 414. (0.00001) RY ( 7) H 16            s(  1.23%)p57.83( 71.16%)d22.44( 27.61%)
 415. (0.00000) RY ( 8) H 16            s(  0.09%)p99.99( 15.70%)d99.99( 84.21%)
 416. (0.00000) RY ( 9) H 16            s(  0.51%)p30.11( 15.25%)d99.99( 84.25%)
 417. (0.00000) RY (10) H 16            s(  0.46%)p78.24( 35.83%)d99.99( 63.71%)
 418. (0.00000) RY (11) H 16            s(  4.94%)p 3.35( 16.53%)d15.90( 78.54%)
 419. (0.00000) RY (12) H 16            s(  9.10%)p 7.93( 72.11%)d 2.07( 18.79%)
 420. (0.00000) RY (13) H 16            s(  0.76%)p43.32( 32.78%)d87.83( 66.46%)
 421. (0.00117) RY ( 1) H 17            s( 98.46%)p 0.01(  1.07%)d 0.00(  0.47%)
                                         0.0026  0.9923  0.0000 -0.0673 -0.0620
                                        -0.0137  0.0434 -0.0122 -0.0108  0.0268
                                        -0.0165 -0.0318  0.0270  0.0439
 422. (0.00017) RY ( 2) H 17            s(  4.47%)p18.91( 84.62%)d 2.44( 10.91%)
                                         0.0049 -0.0224  0.2103 -0.4194 -0.2054
                                        -0.6104 -0.3992 -0.2805 -0.1323 -0.0153
                                         0.1879  0.2510 -0.1022 -0.0097
 423. (0.00015) RY ( 3) H 17            s(  2.50%)p33.79( 84.33%)d 5.28( 13.17%)
                                        -0.0003  0.0777  0.1375  0.7088  0.1996
                                        -0.4766 -0.2063  0.1740  0.0350 -0.1323
                                        -0.2339  0.1359  0.0280 -0.2006
 424. (0.00007) RY ( 4) H 17            s(  6.15%)p12.90( 79.26%)d 2.37( 14.59%)
 425. (0.00003) RY ( 5) H 17            s(  6.19%)p12.12( 74.99%)d 3.04( 18.82%)
 426. (0.00003) RY ( 6) H 17            s( 62.89%)p 0.33( 21.02%)d 0.26( 16.10%)
 427. (0.00001) RY ( 7) H 17            s(  8.32%)p 8.63( 71.82%)d 2.38( 19.85%)
 428. (0.00000) RY ( 8) H 17            s(  0.57%)p18.05( 10.29%)d99.99( 89.14%)
 429. (0.00000) RY ( 9) H 17            s(  0.38%)p73.55( 28.01%)d99.99( 71.61%)
 430. (0.00000) RY (10) H 17            s(  0.89%)p32.96( 29.43%)d78.03( 69.67%)
 431. (0.00000) RY (11) H 17            s(  1.74%)p20.67( 35.98%)d35.78( 62.28%)
 432. (0.00000) RY (12) H 17            s(  0.08%)p99.99( 10.22%)d99.99( 89.70%)
 433. (0.00000) RY (13) H 17            s(  7.41%)p 9.31( 68.92%)d 3.20( 23.68%)
 434. (0.00063) RY ( 1) H 18            s( 96.65%)p 0.03(  2.81%)d 0.01(  0.53%)
                                         0.0002  0.9831 -0.0022  0.0243  0.0096
                                         0.0176 -0.1287 -0.0118  0.1022  0.0465
                                        -0.0038  0.0000  0.0447 -0.0342
 435. (0.00012) RY ( 2) H 18            s(  3.75%)p21.62( 81.16%)d 4.02( 15.08%)
                                         0.0042  0.0745  0.1788 -0.4582 -0.3191
                                         0.5793  0.3227 -0.1159 -0.2161 -0.3248
                                         0.0730  0.0147  0.1995  0.0051
 436. (0.00010) RY ( 3) H 18            s(  3.13%)p23.09( 72.17%)d 7.90( 24.70%)
                                         0.0019 -0.0003  0.1768 -0.0201  0.0097
                                        -0.2410 -0.0349 -0.8116 -0.0564  0.0461
                                         0.4540  0.1839 -0.0701  0.0075
 437. (0.00006) RY ( 4) H 18            s(  5.97%)p13.83( 82.61%)d 1.91( 11.41%)
 438. (0.00003) RY ( 5) H 18            s( 34.38%)p 1.45( 49.78%)d 0.46( 15.84%)
 439. (0.00001) RY ( 6) H 18            s( 10.20%)p 6.05( 61.69%)d 2.76( 28.11%)
 440. (0.00000) RY ( 7) H 18            s( 21.35%)p 3.24( 69.26%)d 0.44(  9.39%)
 441. (0.00000) RY ( 8) H 18            s(  1.65%)p10.81( 17.78%)d48.97( 80.58%)
 442. (0.00000) RY ( 9) H 18            s(  0.81%)p31.99( 25.78%)d91.09( 73.41%)
 443. (0.00000) RY (10) H 18            s(  1.39%)p18.09( 25.07%)d53.05( 73.54%)
 444. (0.00000) RY (11) H 18            s(  0.19%)p99.99( 20.39%)d99.99( 79.42%)
 445. (0.00000) RY (12) H 18            s(  2.57%)p14.34( 36.84%)d23.59( 60.60%)
 446. (0.00000) RY (13) H 18            s( 18.02%)p 3.03( 54.62%)d 1.52( 27.36%)
 447. (0.00047) RY ( 1) H 19            s( 93.07%)p 0.07(  6.14%)d 0.01(  0.78%)
                                        -0.0010  0.9647 -0.0081 -0.0103  0.1079
                                        -0.0719 -0.0983  0.0042  0.1867  0.0142
                                        -0.0126  0.0391 -0.0674 -0.0376
 448. (0.00011) RY ( 2) H 19            s(  4.02%)p18.80( 75.56%)d 5.08( 20.42%)
                                         0.0024  0.0464  0.1950 -0.7808 -0.2573
                                        -0.0713  0.0029  0.2636 -0.0717 -0.3709
                                        -0.1159  0.0950  0.2011  0.0611
 449. (0.00009) RY ( 3) H 19            s( 11.29%)p 5.63( 63.54%)d 2.23( 25.17%)
 450. (0.00005) RY ( 4) H 19            s( 18.16%)p 3.76( 68.26%)d 0.75( 13.58%)
 451. (0.00002) RY ( 5) H 19            s( 33.87%)p 1.69( 57.28%)d 0.26(  8.85%)
 452. (0.00001) RY ( 6) H 19            s( 21.87%)p 3.22( 70.37%)d 0.36(  7.76%)
 453. (0.00000) RY ( 7) H 19            s(  2.27%)p33.24( 75.54%)d 9.76( 22.19%)
 454. (0.00000) RY ( 8) H 19            s(  1.70%)p 5.32(  9.07%)d52.37( 89.23%)
 455. (0.00000) RY ( 9) H 19            s(  0.18%)p99.99( 23.59%)d99.99( 76.23%)
 456. (0.00000) RY (10) H 19            s(  0.65%)p47.03( 30.44%)d99.99( 68.91%)
 457. (0.00000) RY (11) H 19            s(  0.37%)p71.57( 26.53%)d99.99( 73.10%)
 458. (0.00000) RY (12) H 19            s(  0.15%)p99.99( 34.97%)d99.99( 64.87%)
 459. (0.00000) RY (13) H 19            s( 12.46%)p 4.71( 58.67%)d 2.32( 28.88%)
 460. (0.00112) RY ( 1) H 20            s( 99.19%)p 0.01(  0.59%)d 0.00(  0.23%)
                                         0.0020  0.9959  0.0009 -0.0664  0.0151
                                         0.0189 -0.0266 -0.0085 -0.0090  0.0075
                                        -0.0193  0.0085  0.0122  0.0402
 461. (0.00017) RY ( 2) H 20            s(  1.13%)p79.68( 89.65%)d 8.20(  9.22%)
                                         0.0035 -0.0304  0.1016 -0.6289 -0.5173
                                         0.2612  0.2484 -0.2843 -0.1504 -0.0185
                                         0.2799 -0.1139 -0.0150  0.0192
 462. (0.00012) RY ( 3) H 20            s(  0.31%)p99.99( 80.96%)d59.55( 18.73%)
                                         0.0003  0.0170  0.0534  0.3467  0.0232
                                         0.8036  0.1946  0.0698  0.0152  0.0443
                                        -0.1832 -0.3757 -0.0204 -0.1011
 463. (0.00007) RY ( 4) H 20            s( 12.73%)p 5.68( 72.32%)d 1.17( 14.95%)
 464. (0.00003) RY ( 5) H 20            s( 35.29%)p 1.30( 45.83%)d 0.54( 18.89%)
 465. (0.00002) RY ( 6) H 20            s( 16.68%)p 3.83( 63.91%)d 1.16( 19.41%)
 466. (0.00000) RY ( 7) H 20            s( 10.29%)p 7.63( 78.59%)d 1.08( 11.12%)
 467. (0.00000) RY ( 8) H 20            s(  0.23%)p26.97(  6.27%)d99.99( 93.50%)
 468. (0.00000) RY ( 9) H 20            s(  0.40%)p68.37( 27.26%)d99.99( 72.34%)
 469. (0.00000) RY (10) H 20            s(  0.09%)p99.99( 23.89%)d99.99( 76.02%)
 470. (0.00000) RY (11) H 20            s(  2.23%)p 4.33(  9.64%)d39.60( 88.13%)
 471. (0.00000) RY (12) H 20            s(  3.28%)p18.66( 61.18%)d10.84( 35.54%)
 472. (0.00000) RY (13) H 20            s( 18.20%)p 2.19( 39.89%)d 2.30( 41.91%)
 473. (0.00102) RY ( 1) H 21            s( 92.74%)p 0.06(  6.02%)d 0.01(  1.24%)
                                         0.0007  0.9630 -0.0006 -0.0923 -0.0504
                                        -0.0443  0.0068 -0.0106  0.2167  0.0738
                                        -0.0244  0.0117 -0.0754 -0.0234
 474. (0.00010) RY ( 2) H 21            s(  6.27%)p10.31( 64.62%)d 4.64( 29.11%)
                                         0.0033 -0.0109  0.2501 -0.0317  0.2433
                                        -0.0861 -0.4185 -0.5999  0.2087 -0.2201
                                        -0.3219 -0.1817  0.2176  0.2423
 475. (0.00006) RY ( 3) H 21            s(  0.38%)p99.99( 71.18%)d74.33( 28.43%)
 476. (0.00005) RY ( 4) H 21            s(  4.00%)p22.41( 89.62%)d 1.60(  6.38%)
 477. (0.00005) RY ( 5) H 21            s(  0.75%)p99.99( 90.41%)d11.83(  8.84%)
 478. (0.00002) RY ( 6) H 21            s( 79.30%)p 0.17( 13.73%)d 0.09(  6.98%)
 479. (0.00001) RY ( 7) H 21            s(  0.00%)p 1.00( 47.04%)d 1.13( 52.96%)
 480. (0.00001) RY ( 8) H 21            s(  1.56%)p30.57( 47.83%)d32.35( 50.61%)
 481. (0.00000) RY ( 9) H 21            s(  4.20%)p 8.84( 37.12%)d13.98( 58.68%)
 482. (0.00000) RY (10) H 21            s(  7.75%)p 6.81( 52.79%)d 5.09( 39.46%)
 483. (0.00000) RY (11) H 21            s(  0.01%)p99.99( 20.56%)d99.99( 79.43%)
 484. (0.00000) RY (12) H 21            s(  0.40%)p77.02( 31.04%)d99.99( 68.55%)
 485. (0.00000) RY (13) H 21            s(  2.69%)p10.42( 28.00%)d25.80( 69.32%)
 486. (0.00191) RY ( 1) H 22            s( 98.03%)p 0.01(  0.96%)d 0.01(  1.01%)
                                         0.0045  0.9901 -0.0036  0.0200  0.0643
                                         0.0499 -0.0461 -0.0175 -0.0127  0.0801
                                         0.0377  0.0352 -0.0052  0.0313
 487. (0.00029) RY ( 2) H 22            s( 17.82%)p 4.42( 78.72%)d 0.19(  3.46%)
                                         0.0083  0.0665  0.4168 -0.2248 -0.7330
                                        -0.0992 -0.2095 -0.0235  0.3810 -0.0959
                                        -0.0765 -0.0936  0.0941  0.0437
 488. (0.00011) RY ( 3) H 22            s(  3.93%)p22.68( 89.18%)d 1.75(  6.89%)
                                        -0.0013 -0.0309  0.1959  0.4143  0.3549
                                        -0.3583 -0.3777  0.3271  0.4650  0.0875
                                         0.1543 -0.1309 -0.0812  0.1171
 489. (0.00008) RY ( 4) H 22            s(  5.63%)p 9.82( 55.28%)d 6.95( 39.09%)
 490. (0.00004) RY ( 5) H 22            s( 11.90%)p 6.12( 72.82%)d 1.28( 15.27%)
 491. (0.00002) RY ( 6) H 22            s( 46.61%)p 0.89( 41.33%)d 0.26( 12.06%)
 492. (0.00001) RY ( 7) H 22            s(  3.39%)p20.11( 68.15%)d 8.40( 28.46%)
 493. (0.00001) RY ( 8) H 22            s(  0.29%)p93.46( 27.15%)d99.99( 72.56%)
 494. (0.00001) RY ( 9) H 22            s(  2.40%)p12.86( 30.87%)d27.80( 66.73%)
 495. (0.00000) RY (10) H 22            s(  1.48%)p15.61( 23.04%)d51.14( 75.49%)
 496. (0.00000) RY (11) H 22            s(  6.92%)p 5.66( 39.22%)d 7.78( 53.86%)
 497. (0.00000) RY (12) H 22            s(  1.34%)p30.29( 40.52%)d43.47( 58.15%)
 498. (0.00000) RY (13) H 22            s(  0.31%)p99.99( 32.72%)d99.99( 66.97%)
 499. (0.00100) RY ( 1) H 23            s( 95.99%)p 0.04(  3.88%)d 0.00(  0.14%)
                                         0.0021  0.9797  0.0043  0.1307  0.0628
                                        -0.0310 -0.0201  0.1175  0.0506  0.0200
                                        -0.0066 -0.0222 -0.0011 -0.0215
 500. (0.00013) RY ( 2) H 23            s(  2.87%)p26.48( 76.11%)d 7.31( 21.01%)
                                         0.0021 -0.0301  0.1668 -0.3381  0.0401
                                         0.4329  0.0476  0.6618  0.1329 -0.0301
                                        -0.2165 -0.1805  0.3047  0.1920
 501. (0.00013) RY ( 3) H 23            s(  7.82%)p10.05( 78.52%)d 1.75( 13.66%)
                                         0.0078 -0.1603  0.2289  0.4534  0.2581
                                        -0.4422 -0.1494  0.4301  0.3319 -0.1813
                                         0.0338 -0.1356 -0.2577  0.1333
 502. (0.00006) RY ( 4) H 23            s(  0.02%)p99.99( 80.80%)d99.99( 19.18%)
 503. (0.00003) RY ( 5) H 23            s( 61.46%)p 0.46( 28.22%)d 0.17( 10.32%)
 504. (0.00001) RY ( 6) H 23            s(  1.15%)p70.16( 80.76%)d15.71( 18.08%)
 505. (0.00001) RY ( 7) H 23            s(  0.82%)p99.99( 93.61%)d 6.76(  5.56%)
 506. (0.00000) RY ( 8) H 23            s( 24.74%)p 2.18( 53.95%)d 0.86( 21.31%)
 507. (0.00000) RY ( 9) H 23            s(  0.78%)p 8.23(  6.44%)d99.99( 92.77%)
 508. (0.00000) RY (10) H 23            s(  1.69%)p13.36( 22.60%)d44.75( 75.71%)
 509. (0.00000) RY (11) H 23            s(  1.63%)p15.89( 25.90%)d44.47( 72.47%)
 510. (0.00000) RY (12) H 23            s(  0.94%)p10.07(  9.44%)d95.62( 89.62%)
 511. (0.00000) RY (13) H 23            s(  0.14%)p99.99( 39.71%)d99.99( 60.15%)
 512. (0.00039) RY ( 1) H 24            s( 90.87%)p 0.07(  6.53%)d 0.03(  2.61%)
                                        -0.0006  0.9531  0.0142 -0.0186  0.0992
                                        -0.0708  0.0015  0.1963 -0.1074 -0.1063
                                         0.0948 -0.0376  0.0321 -0.0580
 513. (0.00009) RY ( 2) H 24            s(  0.10%)p99.99( 66.04%)d99.99( 33.86%)
 514. (0.00008) RY ( 3) H 24            s( 21.67%)p 2.45( 53.16%)d 1.16( 25.17%)
 515. (0.00003) RY ( 4) H 24            s(  7.69%)p11.39( 87.54%)d 0.62(  4.77%)
 516. (0.00001) RY ( 5) H 24            s( 31.12%)p 1.57( 48.75%)d 0.65( 20.14%)
 517. (0.00001) RY ( 6) H 24            s(  3.50%)p22.56( 78.95%)d 5.01( 17.55%)
 518. (0.00000) RY ( 7) H 24            s( 20.26%)p 2.91( 58.96%)d 1.03( 20.78%)
 519. (0.00000) RY ( 8) H 24            s(  5.08%)p 3.96( 20.13%)d14.73( 74.79%)
 520. (0.00000) RY ( 9) H 24            s(  0.66%)p26.39( 17.44%)d99.99( 81.90%)
 521. (0.00000) RY (10) H 24            s(  0.21%)p99.99( 39.76%)d99.99( 60.03%)
 522. (0.00000) RY (11) H 24            s(  0.88%)p14.95( 13.15%)d97.72( 85.97%)
 523. (0.00000) RY (12) H 24            s(  6.50%)p 7.29( 47.40%)d 7.09( 46.09%)
 524. (0.00000) RY (13) H 24            s( 11.52%)p 5.39( 62.15%)d 2.29( 26.33%)
 525. (0.00077) RY ( 1) H 25            s( 97.81%)p 0.02(  1.70%)d 0.01(  0.49%)
                                         0.0003  0.9890  0.0024  0.0559  0.0002
                                        -0.0941  0.0511  0.0043 -0.0491 -0.0127
                                         0.0130  0.0555  0.0076  0.0382
 526. (0.00010) RY ( 2) H 25            s(  1.17%)p60.25( 70.31%)d24.44( 28.52%)
                                         0.0027 -0.0361  0.1018  0.8300  0.0926
                                         0.0572  0.0225  0.0076  0.0420  0.3221
                                         0.4084 -0.0602  0.0656 -0.0819
 527. (0.00009) RY ( 3) H 25            s(  9.01%)p 6.98( 62.87%)d 3.12( 28.11%)
 528. (0.00003) RY ( 4) H 25            s(  1.06%)p88.28( 93.99%)d 4.64(  4.94%)
 529. (0.00002) RY ( 5) H 25            s( 21.78%)p 2.93( 63.84%)d 0.66( 14.38%)
 530. (0.00001) RY ( 6) H 25            s( 32.56%)p 1.75( 56.92%)d 0.32( 10.51%)
 531. (0.00000) RY ( 7) H 25            s(  2.81%)p30.04( 84.53%)d 4.50( 12.66%)
 532. (0.00000) RY ( 8) H 25            s( 12.39%)p 1.59( 19.65%)d 5.49( 67.97%)
 533. (0.00000) RY ( 9) H 25            s(  1.52%)p14.94( 22.72%)d49.80( 75.76%)
 534. (0.00000) RY (10) H 25            s(  4.51%)p 1.56(  7.04%)d19.62( 88.45%)
 535. (0.00000) RY (11) H 25            s(  1.14%)p38.33( 43.64%)d48.51( 55.22%)
 536. (0.00000) RY (12) H 25            s(  1.19%)p17.26( 20.59%)d65.58( 78.22%)
 537. (0.00000) RY (13) H 25            s( 13.09%)p 3.98( 52.15%)d 2.65( 34.75%)


 NHO DIRECTIONALITY AND BOND BENDING (deviation from line of nuclear centers at
                                      the position of maximum hybrid amplitude)

         [Thresholds for printing:  angular deviation  >  1.0 degree]
                                    p- or d-character  > 25.0%
                                    orbital occupancy  >  0.10e

                        Line of Centers        Hybrid 1             Hybrid 2
                        ---------------  -------------------  ------------------
           NBO            Theta   Phi    Theta   Phi    Dev   Theta   Phi    Dev
 ===============================================================================
  12. LP ( 1) O  1          --     --     76.9   98.9   --      --     --    --
  13. LP ( 2) O  1          --     --     85.8  191.2   --      --     --    --
  14. LP ( 3) O  1          --     --     14.7  297.1   --      --     --    --
  15. LP ( 1) N  4          --     --     78.1   90.0   --      --     --    --
  16. LP ( 1) O  9          --     --    103.5  275.5   --      --     --    --
  17. LP ( 2) O  9          --     --    164.8  120.0   --      --     --    --
  18. BD ( 1) O  1- C  2  103.2  278.7     --     --    --     77.0   97.4   1.3
  19. BD ( 1) C  2- C  3  102.9  328.9   102.5  330.3   1.5    76.8  147.7   1.2
  20. BD ( 2) C  2- C  3  102.9  328.9    15.9  304.6  88.4   165.0  123.6  89.3
  21. BD ( 1) C  2- O  9   91.4  217.6    90.5  214.7   3.1    88.1   38.5   1.1
  22. BD ( 1) C  3- N  4   91.5   27.7    91.2   28.7   1.1     --     --    --
  24. BD ( 1) N  4- C  5  102.6  332.3   102.0  333.2   1.0    76.9  151.4   1.0
  25. BD ( 2) N  4- C  5  102.6  332.3   167.6  122.6  88.2   163.7  128.4  87.7
  26. BD ( 1) C  5- C  6   91.4   29.4    92.1   30.7   1.5     --     --    --
  29. BD ( 1) C  6- C  8   56.7  325.7     --     --    --    124.4  145.3   1.2
  38. BD ( 1) C 10- C 11  142.3  127.3     --     --    --     37.0  305.7   1.2
  39. BD ( 1) C 10- H 21   74.1  230.0    74.3  231.2   1.1     --     --    --
  40. BD ( 1) C 10- H 22   40.4   81.7    39.6   80.4   1.1     --     --    --


 3-Center, 4-Electron A:-B-:C Hyperbonds (A-B :C <=> A: B-C)
              [threshold for detection: 33.3%]

                                                  NBOs       3-center hybrids
                                              -------------  ----------------
       Hyperbond A:-B-:C   %A-B/%B-C   occ    BD(A-B) LP(C)  h(A)  h(B)  h(C)
      -------------------  ---------  ------  ------- -----  ----  ----  ----
   1.  C  3:- C  2-: O  1  52.8/47.2  3.8445      20     14    22    23    14


 SECOND ORDER PERTURBATION THEORY ANALYSIS OF FOCK MATRIX IN NBO BASIS

     Threshold for printing:   0.50 kcal/mol
                                                          E(2) E(NL)-E(L) F(L,NL)
      Donor (L) NBO              Acceptor (NL) NBO      kcal/mol   a.u.    a.u.
 ===============================================================================

 within unit  1
   12. LP ( 1) O  1            45. BD*( 1) C  2- C  3      3.72    1.21   0.060
   12. LP ( 1) O  1            47. BD*( 1) C  2- O  9      1.47    1.02   0.035
   12. LP ( 1) O  1            72. RY ( 3) O  1            0.63    2.73   0.037
   12. LP ( 1) O  1            96. RY ( 1) C  2           14.61    1.89   0.148
   13. LP ( 2) O  1            45. BD*( 1) C  2- C  3     18.95    0.88   0.115
   13. LP ( 2) O  1            47. BD*( 1) C  2- O  9     45.23    0.69   0.158
   13. LP ( 2) O  1            65. BD*( 1) C 10- H 21      0.84    0.71   0.022
   13. LP ( 2) O  1            97. RY ( 2) C  2            0.83    1.82   0.035
   13. LP ( 2) O  1            99. RY ( 4) C  2            1.69    3.61   0.070
   14. LP ( 3) O  1            46. BD*( 2) C  2- C  3    138.95    0.34   0.193
   14. LP ( 3) O  1            70. RY ( 1) O  1            0.51    1.09   0.021
   14. LP ( 3) O  1            98. RY ( 3) C  2            4.62    1.87   0.083
   14. LP ( 3) O  1           100. RY ( 5) C  2            1.45    2.26   0.051
   15. LP ( 1) N  4            45. BD*( 1) C  2- C  3      5.30    0.91   0.062
   15. LP ( 1) N  4            47. BD*( 1) C  2- O  9      0.56    0.72   0.018
   15. LP ( 1) N  4            49. BD*( 1) C  3- H 12     13.73    0.79   0.093
   15. LP ( 1) N  4            52. BD*( 1) C  5- C  6      6.29    0.78   0.063
   15. LP ( 1) N  4            53. BD*( 1) C  5- H 13     17.40    0.76   0.103
   15. LP ( 1) N  4            58. BD*( 1) C  7- H 16      0.97    0.78   0.024
   15. LP ( 1) N  4           123. RY ( 2) C  3            3.44    1.78   0.070
   15. LP ( 1) N  4           174. RY ( 1) C  5            5.56    1.51   0.082
   16. LP ( 1) O  9            44. BD*( 1) O  1- C  2      7.21    1.26   0.085
   16. LP ( 1) O  9            48. BD*( 1) C  3- N  4      0.64    1.18   0.025
   16. LP ( 1) O  9            64. BD*( 1) C 10- C 11      0.65    0.98   0.022
   16. LP ( 1) O  9            65. BD*( 1) C 10- H 21      2.81    0.99   0.047
   16. LP ( 1) O  9            66. BD*( 1) C 10- H 22      2.83    0.99   0.047
   16. LP ( 1) O  9            96. RY ( 1) C  2            1.25    1.84   0.043
   16. LP ( 1) O  9            97. RY ( 2) C  2            1.20    2.10   0.045
   16. LP ( 1) O  9           304. RY ( 1) C 10            2.01    1.91   0.055
   16. LP ( 1) O  9           305. RY ( 2) C 10            0.52    1.74   0.027
   17. LP ( 2) O  9            46. BD*( 2) C  2- C  3     37.11    0.43   0.113
   17. LP ( 2) O  9            64. BD*( 1) C 10- C 11      9.73    0.77   0.077
   17. LP ( 2) O  9            65. BD*( 1) C 10- H 21      1.29    0.78   0.028
   17. LP ( 2) O  9            66. BD*( 1) C 10- H 22      5.06    0.78   0.056
   17. LP ( 2) O  9            68. BD*( 1) C 11- H 24      0.89    0.79   0.024
   17. LP ( 2) O  9           100. RY ( 5) C  2            1.57    2.35   0.054
   17. LP ( 2) O  9           306. RY ( 3) C 10            1.11    2.00   0.042
   18. BD ( 1) O  1- C  2      45. BD*( 1) C  2- C  3      1.15    1.54   0.038
   18. BD ( 1) O  1- C  2      49. BD*( 1) C  3- H 12      0.82    1.42   0.030
   19. BD ( 1) C  2- C  3      44. BD*( 1) O  1- C  2      0.66    1.33   0.027
   19. BD ( 1) C  2- C  3      48. BD*( 1) C  3- N  4      0.68    1.26   0.026
   19. BD ( 1) C  2- C  3      50. BD*( 1) N  4- C  5      3.60    1.35   0.062
   19. BD ( 1) C  2- C  3      63. BD*( 1) O  9- C 10      3.16    1.04   0.051
   19. BD ( 1) C  2- C  3      71. RY ( 2) O  1            0.75    1.61   0.031
   19. BD ( 1) C  2- C  3     148. RY ( 1) N  4            1.16    1.53   0.038
   19. BD ( 1) C  2- C  3     279. RY ( 2) O  9            0.53    1.50   0.025
   20. BD ( 2) C  2- C  3      46. BD*( 2) C  2- C  3      9.89    0.32   0.050
   20. BD ( 2) C  2- C  3      51. BD*( 2) N  4- C  5     44.27    0.34   0.110
   20. BD ( 2) C  2- C  3      70. RY ( 1) O  1            1.90    1.08   0.040
   20. BD ( 2) C  2- C  3     150. RY ( 3) N  4            1.37    2.06   0.047
   21. BD ( 1) C  2- O  9      48. BD*( 1) C  3- N  4      1.97    1.41   0.047
   21. BD ( 1) C  2- O  9      65. BD*( 1) C 10- H 21      1.40    1.22   0.037
   21. BD ( 1) C  2- O  9      66. BD*( 1) C 10- H 22      0.66    1.22   0.025
   21. BD ( 1) C  2- O  9     124. RY ( 3) C  3            0.64    2.18   0.033
   21. BD ( 1) C  2- O  9     305. RY ( 2) C 10            2.09    1.97   0.057
   22. BD ( 1) C  3- N  4      45. BD*( 1) C  2- C  3      0.73    1.32   0.028
   22. BD ( 1) C  3- N  4      47. BD*( 1) C  2- O  9      2.11    1.13   0.044
   22. BD ( 1) C  3- N  4      50. BD*( 1) N  4- C  5      0.76    1.44   0.030
   22. BD ( 1) C  3- N  4      52. BD*( 1) C  5- C  6      3.58    1.19   0.058
   22. BD ( 1) C  3- N  4      96. RY ( 1) C  2            1.24    2.01   0.045
   22. BD ( 1) C  3- N  4     176. RY ( 3) C  5            2.58    2.19   0.067
   23. BD ( 1) C  3- H 12      44. BD*( 1) O  1- C  2      5.60    1.20   0.073
   23. BD ( 1) C  3- H 12      47. BD*( 1) C  2- O  9      0.52    0.91   0.019
   23. BD ( 1) C  3- H 12      97. RY ( 2) C  2            0.94    2.04   0.039
   23. BD ( 1) C  3- H 12     148. RY ( 1) N  4            0.98    1.40   0.033
   24. BD ( 1) N  4- C  5      45. BD*( 1) C  2- C  3      1.45    1.38   0.040
   24. BD ( 1) N  4- C  5      48. BD*( 1) C  3- N  4      0.92    1.41   0.032
   24. BD ( 1) N  4- C  5      52. BD*( 1) C  5- C  6      0.55    1.26   0.023
   24. BD ( 1) N  4- C  5      55. BD*( 1) C  6- C  8      0.53    1.20   0.023
   24. BD ( 1) N  4- C  5     124. RY ( 3) C  3            2.16    2.18   0.061
   25. BD ( 2) N  4- C  5      46. BD*( 2) C  2- C  3     12.88    0.41   0.065
   25. BD ( 2) N  4- C  5      51. BD*( 2) N  4- C  5      1.40    0.43   0.022
   25. BD ( 2) N  4- C  5      55. BD*( 1) C  6- C  8      2.35    0.75   0.037
   25. BD ( 2) N  4- C  5      56. BD*( 1) C  6- H 14      3.58    0.75   0.046
   25. BD ( 2) N  4- C  5     122. RY ( 1) C  3            2.68    0.93   0.044
   26. BD ( 1) C  5- C  6      48. BD*( 1) C  3- N  4      4.53    1.20   0.066
   26. BD ( 1) C  5- C  6      50. BD*( 1) N  4- C  5      0.76    1.29   0.028
   26. BD ( 1) C  5- C  6      58. BD*( 1) C  7- H 16      1.86    1.03   0.039
   26. BD ( 1) C  5- C  6      60. BD*( 1) C  8- H 18      2.00    1.02   0.040
   26. BD ( 1) C  5- C  6     148. RY ( 1) N  4            0.93    1.47   0.033
   26. BD ( 1) C  5- C  6     226. RY ( 1) C  7            0.54    1.78   0.028
   27. BD ( 1) C  5- H 13      54. BD*( 1) C  6- C  7      3.02    0.94   0.048
   27. BD ( 1) C  5- H 13     148. RY ( 1) N  4            1.53    1.41   0.041
   27. BD ( 1) C  5- H 13     149. RY ( 2) N  4            0.86    1.78   0.035
   27. BD ( 1) C  5- H 13     200. RY ( 1) C  6            0.69    1.68   0.030
   27. BD ( 1) C  5- H 13     201. RY ( 2) C  6            0.57    1.98   0.030
   28. BD ( 1) C  6- C  7      53. BD*( 1) C  5- H 13      2.55    1.01   0.045
   28. BD ( 1) C  6- C  7      61. BD*( 1) C  8- H 19      1.91    1.02   0.039
   28. BD ( 1) C  6- C  7     176. RY ( 3) C  5            0.69    2.02   0.033
   28. BD ( 1) C  6- C  7     252. RY ( 1) C  8            0.65    1.61   0.029
   29. BD ( 1) C  6- C  8      50. BD*( 1) N  4- C  5      1.32    1.28   0.037
   29. BD ( 1) C  6- C  8      51. BD*( 2) N  4- C  5      2.51    0.66   0.036
   29. BD ( 1) C  6- C  8      57. BD*( 1) C  7- H 15      1.93    1.04   0.040
   29. BD ( 1) C  6- C  8     227. RY ( 2) C  7            0.66    1.85   0.031
   30. BD ( 1) C  6- H 14      50. BD*( 1) N  4- C  5      1.08    1.21   0.032
   30. BD ( 1) C  6- H 14      51. BD*( 2) N  4- C  5      5.27    0.59   0.050
   30. BD ( 1) C  6- H 14      59. BD*( 1) C  7- H 17      3.56    0.95   0.052
   30. BD ( 1) C  6- H 14      62. BD*( 1) C  8- H 20      3.68    0.94   0.052
   30. BD ( 1) C  6- H 14     175. RY ( 2) C  5            0.65    1.26   0.025
   31. BD ( 1) C  7- H 15      55. BD*( 1) C  6- C  8      3.60    0.92   0.051
   31. BD ( 1) C  7- H 15     201. RY ( 2) C  6            0.71    1.97   0.034
   32. BD ( 1) C  7- H 16      52. BD*( 1) C  5- C  6      3.51    0.98   0.052
   33. BD ( 1) C  7- H 17      56. BD*( 1) C  6- H 14      3.27    0.92   0.049
   34. BD ( 1) C  8- H 18      52. BD*( 1) C  5- C  6      3.07    0.98   0.049
   35. BD ( 1) C  8- H 19      54. BD*( 1) C  6- C  7      3.34    0.94   0.050
   36. BD ( 1) C  8- H 20      56. BD*( 1) C  6- H 14      2.94    0.93   0.047
   36. BD ( 1) C  8- H 20     200. RY ( 1) C  6            0.72    1.68   0.031
   37. BD ( 1) O  9- C 10      45. BD*( 1) C  2- C  3      1.80    1.40   0.045
   37. BD ( 1) O  9- C 10      68. BD*( 1) C 11- H 24      0.96    1.25   0.031
   37. BD ( 1) O  9- C 10      96. RY ( 1) C  2            1.04    2.09   0.042
   38. BD ( 1) C 10- C 11     278. RY ( 1) O  9            1.06    1.37   0.034
   39. BD ( 1) C 10- H 21      47. BD*( 1) C  2- O  9      3.85    0.93   0.053
   39. BD ( 1) C 10- H 21      67. BD*( 1) C 11- H 23      2.79    0.98   0.047
   40. BD ( 1) C 10- H 22      69. BD*( 1) C 11- H 25      3.07    0.96   0.049
   40. BD ( 1) C 10- H 22     278. RY ( 1) O  9            0.72    1.31   0.027
   41. BD ( 1) C 11- H 23      65. BD*( 1) C 10- H 21      2.78    0.94   0.046
   42. BD ( 1) C 11- H 24      63. BD*( 1) O  9- C 10      4.26    0.92   0.056
   42. BD ( 1) C 11- H 24     307. RY ( 4) C 10            0.56    2.10   0.031
   43. BD ( 1) C 11- H 25      63. BD*( 1) O  9- C 10      0.59    0.92   0.021
   43. BD ( 1) C 11- H 25      66. BD*( 1) C 10- H 22      2.57    0.95   0.044


 NATURAL BOND ORBITALS (Summary):

                                                     Principal Delocalizations
           NBO                 Occupancy    Energy   (geminal,vicinal,remote)
 ===============================================================================
 Molecular unit  1  (C8H14NO2)
 ------ Lewis --------------------------------------
    1. CR ( 1) O  1             2.00000   -19.53763
    2. CR ( 1) C  2             1.99999   -10.59292
    3. CR ( 1) C  3             1.99999   -10.47713
    4. CR ( 1) N  4             1.99999   -14.70192
    5. CR ( 1) C  5             1.99999   -10.51218
    6. CR ( 1) C  6             1.99999   -10.51420
    7. CR ( 1) C  7             1.99999   -10.49725
    8. CR ( 1) C  8             1.99999   -10.50668
    9. CR ( 1) O  9             2.00000   -19.60213
   10. CR ( 1) C 10             1.99999   -10.55371
   11. CR ( 1) C 11             1.99999   -10.50157
   12. LP ( 1) O  1             1.97686    -0.60492  96(v),45(v),47(v),72(g)
   13. LP ( 2) O  1             1.85203    -0.27703  47(v),45(v),99(v),65(r)
                                                     97(v)
   14. LP ( 3) O  1             1.63598    -0.25336  46(v),98(v),100(v),70(g)
   15. LP ( 1) N  4             1.88245    -0.31088  53(v),49(v),52(v),174(v)
                                                     45(v),123(v),58(r),47(r)
   16. LP ( 1) O  9             1.96365    -0.55244  44(v),66(v),65(v),304(v)
                                                     96(v),97(v),64(v),48(r)
                                                     305(v)
   17. LP ( 2) O  9             1.86520    -0.34494  46(v),64(v),66(v),100(v)
                                                     65(v),306(v),68(r)
   18. BD ( 1) O  1- C  2       1.99642    -0.93685  45(g),49(v)
   19. BD ( 1) C  2- C  3       1.98278    -0.62444  50(v),63(v),148(v),71(v)
                                                     48(g),44(g),279(v)
   20. BD ( 2) C  2- C  3       1.77384    -0.23986  51(v),46(g),70(v),150(v)
   21. BD ( 1) C  2- O  9       1.98835    -0.78356  305(v),48(v),65(v),66(v)
                                                     124(v)
   22. BD ( 1) C  3- N  4       1.98292    -0.72114  52(v),176(v),47(v),96(v)
                                                     50(g),45(g)
   23. BD ( 1) C  3- H 12       1.98437    -0.49494  44(v),148(v),97(v),47(v)
   24. BD ( 1) N  4- C  5       1.99101    -0.78215  124(v),45(v),48(g),52(g)
                                                     55(v)
   25. BD ( 2) N  4- C  5       1.95209    -0.32967  46(v),56(v),122(v),55(v)
                                                     51(g)
   26. BD ( 1) C  5- C  6       1.97921    -0.56484  48(v),60(v),58(v),148(v)
                                                     50(g),226(v)
   27. BD ( 1) C  5- H 13       1.98701    -0.50912  54(v),148(v),149(v),200(v)
                                                     201(v)
   28. BD ( 1) C  6- C  7       1.98613    -0.55934  53(v),61(v),176(v),252(v)
   29. BD ( 1) C  6- C  8       1.98281    -0.55984  51(v),57(v),50(v),227(v)
   30. BD ( 1) C  6- H 14       1.96167    -0.48474  51(v),62(v),59(v),50(v)
                                                     175(v)
   31. BD ( 1) C  7- H 15       1.98913    -0.49813  55(v),201(v)
   32. BD ( 1) C  7- H 16       1.99016    -0.50407  52(v)
   33. BD ( 1) C  7- H 17       1.98971    -0.49868  56(v)
   34. BD ( 1) C  8- H 18       1.99072    -0.51059  52(v)
   35. BD ( 1) C  8- H 19       1.98995    -0.50976  54(v)
   36. BD ( 1) C  8- H 20       1.99107    -0.50861  56(v),200(v)
   37. BD ( 1) O  9- C 10       1.99263    -0.80091  45(v),96(v),68(v)
   38. BD ( 1) C 10- C 11       1.99488    -0.57777  278(v)
   39. BD ( 1) C 10- H 21       1.98354    -0.51431  47(v),67(v)
   40. BD ( 1) C 10- H 22       1.98743    -0.51216  69(v),278(v)
   41. BD ( 1) C 11- H 23       1.99026    -0.50652  65(v)
   42. BD ( 1) C 11- H 24       1.98747    -0.51192  63(v),307(v)
   43. BD ( 1) C 11- H 25       1.99097    -0.51014  66(v),63(v)
 ------ non-Lewis ----------------------------------
   44. BD*( 1) O  1- C  2       0.02031     0.70874
   45. BD*( 1) C  2- C  3       0.05324     0.60149
   46. BD*( 2) C  2- C  3       0.43467     0.08317
   47. BD*( 1) C  2- O  9       0.11617     0.41211
   48. BD*( 1) C  3- N  4       0.01222     0.63083
   49. BD*( 1) C  3- H 12       0.03653     0.47995
   50. BD*( 1) N  4- C  5       0.00922     0.72111
   51. BD*( 2) N  4- C  5       0.27020     0.10512
   52. BD*( 1) C  5- C  6       0.03271     0.47381
   53. BD*( 1) C  5- H 13       0.04943     0.45034
   54. BD*( 1) C  6- C  7       0.01368     0.43441
   55. BD*( 1) C  6- C  8       0.01670     0.41789
   56. BD*( 1) C  6- H 14       0.03173     0.41717
   57. BD*( 1) C  7- H 15       0.00653     0.47626
   58. BD*( 1) C  7- H 16       0.00715     0.46429
   59. BD*( 1) C  7- H 17       0.01013     0.46269
   60. BD*( 1) C  8- H 18       0.00794     0.45361
   61. BD*( 1) C  8- H 19       0.00657     0.45724
   62. BD*( 1) C  8- H 20       0.01023     0.45189
   63. BD*( 1) O  9- C 10       0.02256     0.41099
   64. BD*( 1) C 10- C 11       0.02083     0.42599
   65. BD*( 1) C 10- H 21       0.02103     0.43475
   66. BD*( 1) C 10- H 22       0.02939     0.43510
   67. BD*( 1) C 11- H 23       0.00885     0.46300
   68. BD*( 1) C 11- H 24       0.00478     0.44991
   69. BD*( 1) C 11- H 25       0.00834     0.45090
   70. RY ( 1) O  1             0.00264     0.83576
   71. RY ( 2) O  1             0.00208     0.98862
   72. RY ( 3) O  1             0.00028     2.12904
   73. RY ( 4) O  1             0.00014     2.17037
   74. RY ( 5) O  1             0.00012     1.78575
   75. RY ( 6) O  1             0.00007     2.23687
   76. RY ( 7) O  1             0.00005     2.56751
   77. RY ( 8) O  1             0.00001     3.66415
   78. RY ( 9) O  1             0.00001     3.93516
   79. RY (10) O  1             0.00000     3.86767
   80. RY (11) O  1             0.00000     3.06686
   81. RY (12) O  1             0.00000     8.06947
   82. RY (13) O  1             0.00000    11.88043
   83. RY (14) O  1             0.00000     5.85068
   84. RY (15) O  1             0.00000     5.61954
   85. RY (16) O  1             0.00000     4.30934
   86. RY (17) O  1             0.00000     2.93489
   87. RY (18) O  1             0.00000     5.15923
   88. RY (19) O  1             0.00000    16.43044
   89. RY (20) O  1             0.00000     5.74998
   90. RY (21) O  1             0.00000    10.67906
   91. RY (22) O  1             0.00000     6.61812
   92. RY (23) O  1             0.00000     7.00892
   93. RY (24) O  1             0.00000     6.32363
   94. RY (25) O  1             0.00000     7.76518
   95. RY (26) O  1             0.00000    12.47469
   96. RY ( 1) C  2             0.01724     1.28502
   97. RY ( 2) C  2             0.00620     1.54783
   98. RY ( 3) C  2             0.00542     1.61705
   99. RY ( 4) C  2             0.00228     3.33486
  100. RY ( 5) C  2             0.00197     2.00627
  101. RY ( 6) C  2             0.00078     2.11485
  102. RY ( 7) C  2             0.00057     1.30013
  103. RY ( 8) C  2             0.00038     3.39212
  104. RY ( 9) C  2             0.00011     1.90630
  105. RY (10) C  2             0.00008     1.69542
  106. RY (11) C  2             0.00005     2.72314
  107. RY (12) C  2             0.00003     3.15937
  108. RY (13) C  2             0.00002     2.73947
  109. RY (14) C  2             0.00001     2.94198
  110. RY (15) C  2             0.00001     3.09173
  111. RY (16) C  2             0.00000     5.99899
  112. RY (17) C  2             0.00000     2.75559
  113. RY (18) C  2             0.00000     6.52154
  114. RY (19) C  2             0.00000     7.79002
  115. RY (20) C  2             0.00000     5.30116
  116. RY (21) C  2             0.00000     3.43008
  117. RY (22) C  2             0.00000     2.85375
  118. RY (23) C  2             0.00000     4.22443
  119. RY (24) C  2             0.00000     5.28652
  120. RY (25) C  2             0.00000     3.44610
  121. RY (26) C  2             0.00000     5.29759
  122. RY ( 1) C  3             0.00601     0.59540
  123. RY ( 2) C  3             0.00513     1.46732
  124. RY ( 3) C  3             0.00296     1.39742
  125. RY ( 4) C  3             0.00097     1.29006
  126. RY ( 5) C  3             0.00029     2.40029
  127. RY ( 6) C  3             0.00023     2.36107
  128. RY ( 7) C  3             0.00021     3.01563
  129. RY ( 8) C  3             0.00015     1.63793
  130. RY ( 9) C  3             0.00013     2.91348
  131. RY (10) C  3             0.00004     2.61583
  132. RY (11) C  3             0.00004     3.66789
  133. RY (12) C  3             0.00001     2.47553
  134. RY (13) C  3             0.00001     1.94488
  135. RY (14) C  3             0.00001     3.87851
  136. RY (15) C  3             0.00001     2.91570
  137. RY (16) C  3             0.00000     2.22946
  138. RY (17) C  3             0.00000     3.56231
  139. RY (18) C  3             0.00000     3.63805
  140. RY (19) C  3             0.00000     4.92407
  141. RY (20) C  3             0.00000     7.48859
  142. RY (21) C  3             0.00000     4.11853
  143. RY (22) C  3             0.00000     4.18864
  144. RY (23) C  3             0.00000     7.29240
  145. RY (24) C  3             0.00000     6.59854
  146. RY (25) C  3             0.00000     4.20337
  147. RY (26) C  3             0.00000     3.22768
  148. RY ( 1) N  4             0.00730     0.90387
  149. RY ( 2) N  4             0.00226     1.27364
  150. RY ( 3) N  4             0.00124     1.81784
  151. RY ( 4) N  4             0.00069     1.37683
  152. RY ( 5) N  4             0.00032     1.47064
  153. RY ( 6) N  4             0.00018     2.61235
  154. RY ( 7) N  4             0.00014     4.14636
  155. RY ( 8) N  4             0.00006     3.31745
  156. RY ( 9) N  4             0.00003     2.06520
  157. RY (10) N  4             0.00002     2.02024
  158. RY (11) N  4             0.00001     5.19265
  159. RY (12) N  4             0.00001     3.97020
  160. RY (13) N  4             0.00001     3.75974
  161. RY (14) N  4             0.00000     3.25120
  162. RY (15) N  4             0.00000     7.50052
  163. RY (16) N  4             0.00000     7.92892
  164. RY (17) N  4             0.00000     4.73024
  165. RY (18) N  4             0.00000     5.68707
  166. RY (19) N  4             0.00000     6.72009
  167. RY (20) N  4             0.00000    12.82814
  168. RY (21) N  4             0.00000     4.93538
  169. RY (22) N  4             0.00000     8.70802
  170. RY (23) N  4             0.00000     4.77283
  171. RY (24) N  4             0.00000     4.93207
  172. RY (25) N  4             0.00000     4.52188
  173. RY (26) N  4             0.00000     3.29430
  174. RY ( 1) C  5             0.00846     1.20217
  175. RY ( 2) C  5             0.00388     0.77235
  176. RY ( 3) C  5             0.00330     1.46414
  177. RY ( 4) C  5             0.00082     1.68325
  178. RY ( 5) C  5             0.00033     3.02056
  179. RY ( 6) C  5             0.00017     3.37793
  180. RY ( 7) C  5             0.00011     2.16869
  181. RY ( 8) C  5             0.00009     3.31866
  182. RY ( 9) C  5             0.00006     2.31409
  183. RY (10) C  5             0.00005     2.67433
  184. RY (11) C  5             0.00004     2.31523
  185. RY (12) C  5             0.00002     1.83713
  186. RY (13) C  5             0.00001     2.16050
  187. RY (14) C  5             0.00001     2.49788
  188. RY (15) C  5             0.00000     2.87431
  189. RY (16) C  5             0.00000     3.48551
  190. RY (17) C  5             0.00000     3.67816
  191. RY (18) C  5             0.00000     8.73756
  192. RY (19) C  5             0.00000     3.24327
  193. RY (20) C  5             0.00000    12.31520
  194. RY (21) C  5             0.00000     3.11903
  195. RY (22) C  5             0.00000     3.25379
  196. RY (23) C  5             0.00000     5.14058
  197. RY (24) C  5             0.00000     2.70157
  198. RY (25) C  5             0.00000     3.07619
  199. RY (26) C  5             0.00000     3.49507
  200. RY ( 1) C  6             0.00289     1.16999
  201. RY ( 2) C  6             0.00182     1.47357
  202. RY ( 3) C  6             0.00126     1.56180
  203. RY ( 4) C  6             0.00070     2.27299
  204. RY ( 5) C  6             0.00048     2.42670
  205. RY ( 6) C  6             0.00030     2.82735
  206. RY ( 7) C  6             0.00014     3.01523
  207. RY ( 8) C  6             0.00010     4.08055
  208. RY ( 9) C  6             0.00008     3.46784
  209. RY (10) C  6             0.00006     3.58192
  210. RY (11) C  6             0.00004     2.54801
  211. RY (12) C  6             0.00001     2.30047
  212. RY (13) C  6             0.00000     2.14343
  213. RY (14) C  6             0.00000     4.37252
  214. RY (15) C  6             0.00000     3.69265
  215. RY (16) C  6             0.00000     3.65395
  216. RY (17) C  6             0.00000     3.24123
  217. RY (18) C  6             0.00000     3.37330
  218. RY (19) C  6             0.00000     3.56002
  219. RY (20) C  6             0.00000     4.01733
  220. RY (21) C  6             0.00000     3.98713
  221. RY (22) C  6             0.00000     3.98239
  222. RY (23) C  6             0.00000     3.79278
  223. RY (24) C  6             0.00000     9.14499
  224. RY (25) C  6             0.00000     3.70750
  225. RY (26) C  6             0.00000     3.24726
  226. RY ( 1) C  7             0.00224     1.21994
  227. RY ( 2) C  7             0.00138     1.29058
  228. RY ( 3) C  7             0.00028     1.13813
  229. RY ( 4) C  7             0.00022     2.16015
  230. RY ( 5) C  7             0.00015     2.01540
  231. RY ( 6) C  7             0.00007     2.10767
  232. RY ( 7) C  7             0.00005     2.20792
  233. RY ( 8) C  7             0.00004     2.76574
  234. RY ( 9) C  7             0.00002     1.87576
  235. RY (10) C  7             0.00001     2.17187
  236. RY (11) C  7             0.00000     2.72600
  237. RY (12) C  7             0.00000     3.90749
  238. RY (13) C  7             0.00000     2.27973
  239. RY (14) C  7             0.00000     4.25651
  240. RY (15) C  7             0.00000     3.82520
  241. RY (16) C  7             0.00000     2.54789
  242. RY (17) C  7             0.00000     3.42288
  243. RY (18) C  7             0.00000     5.39356
  244. RY (19) C  7             0.00000     4.91632
  245. RY (20) C  7             0.00000     3.67507
  246. RY (21) C  7             0.00000     3.40360
  247. RY (22) C  7             0.00000     3.20423
  248. RY (23) C  7             0.00000     5.83263
  249. RY (24) C  7             0.00000     5.58160
  250. RY (25) C  7             0.00000     3.11828
  251. RY (26) C  7             0.00000     9.01446
  252. RY ( 1) C  8             0.00154     1.05356
  253. RY ( 2) C  8             0.00090     1.40675
  254. RY ( 3) C  8             0.00021     1.90045
  255. RY ( 4) C  8             0.00015     2.20592
  256. RY ( 5) C  8             0.00011     1.85546
  257. RY ( 6) C  8             0.00006     1.68477
  258. RY ( 7) C  8             0.00002     2.04456
  259. RY ( 8) C  8             0.00001     2.21275
  260. RY ( 9) C  8             0.00001     1.84197
  261. RY (10) C  8             0.00000     2.09357
  262. RY (11) C  8             0.00000     2.74139
  263. RY (12) C  8             0.00000     4.71488
  264. RY (13) C  8             0.00000     5.19014
  265. RY (14) C  8             0.00000     8.19662
  266. RY (15) C  8             0.00000     4.18595
  267. RY (16) C  8             0.00000     3.82699
  268. RY (17) C  8             0.00000     3.66162
  269. RY (18) C  8             0.00000     3.49501
  270. RY (19) C  8             0.00000     5.33701
  271. RY (20) C  8             0.00000     3.73490
  272. RY (21) C  8             0.00000     4.15775
  273. RY (22) C  8             0.00000     3.45731
  274. RY (23) C  8             0.00000     3.90681
  275. RY (24) C  8             0.00000     3.35533
  276. RY (25) C  8             0.00000     3.92463
  277. RY (26) C  8             0.00000     3.59327
  278. RY ( 1) O  9             0.00358     0.79636
  279. RY ( 2) O  9             0.00224     0.88003
  280. RY ( 3) O  9             0.00101     2.18908
  281. RY ( 4) O  9             0.00039     2.01385
  282. RY ( 5) O  9             0.00019     2.34268
  283. RY ( 6) O  9             0.00010     3.11465
  284. RY ( 7) O  9             0.00008     3.83116
  285. RY ( 8) O  9             0.00006     3.01244
  286. RY ( 9) O  9             0.00002     4.09736
  287. RY (10) O  9             0.00002     3.65680
  288. RY (11) O  9             0.00001     4.06204
  289. RY (12) O  9             0.00000     5.18360
  290. RY (13) O  9             0.00000     4.54512
  291. RY (14) O  9             0.00000     4.78570
  292. RY (15) O  9             0.00000     3.96051
  293. RY (16) O  9             0.00000     4.97748
  294. RY (17) O  9             0.00000    31.02966
  295. RY (18) O  9             0.00000     7.39562
  296. RY (19) O  9             0.00000    10.50803
  297. RY (20) O  9             0.00000     6.67571
  298. RY (21) O  9             0.00000     6.49287
  299. RY (22) O  9             0.00000     7.13191
  300. RY (23) O  9             0.00000     6.91738
  301. RY (24) O  9             0.00000     5.72504
  302. RY (25) O  9             0.00000     5.67542
  303. RY (26) O  9             0.00000     5.72418
  304. RY ( 1) C 10             0.00359     1.35794
  305. RY ( 2) C 10             0.00293     1.18867
  306. RY ( 3) C 10             0.00218     1.65934
  307. RY ( 4) C 10             0.00085     1.58873
  308. RY ( 5) C 10             0.00046     1.99317
  309. RY ( 6) C 10             0.00026     3.34782
  310. RY ( 7) C 10             0.00021     2.49278
  311. RY ( 8) C 10             0.00015     2.00860
  312. RY ( 9) C 10             0.00005     3.26837
  313. RY (10) C 10             0.00004     2.76379
  314. RY (11) C 10             0.00002     1.74087
  315. RY (12) C 10             0.00001     2.06586
  316. RY (13) C 10             0.00000     3.13822
  317. RY (14) C 10             0.00000     4.77430
  318. RY (15) C 10             0.00000     5.64015
  319. RY (16) C 10             0.00000     3.68610
  320. RY (17) C 10             0.00000     3.55734
  321. RY (18) C 10             0.00000     5.26250
  322. RY (19) C 10             0.00000     4.01923
  323. RY (20) C 10             0.00000     4.32604
  324. RY (21) C 10             0.00000     4.66910
  325. RY (22) C 10             0.00000     7.52076
  326. RY (23) C 10             0.00000     3.19559
  327. RY (24) C 10             0.00000     2.88874
  328. RY (25) C 10             0.00000     3.97107
  329. RY (26) C 10             0.00000     4.05488
  330. RY ( 1) C 11             0.00132     1.18473
  331. RY ( 2) C 11             0.00050     1.29390
  332. RY ( 3) C 11             0.00035     1.88529
  333. RY ( 4) C 11             0.00023     1.63909
  334. RY ( 5) C 11             0.00009     2.23921
  335. RY ( 6) C 11             0.00006     1.70277
  336. RY ( 7) C 11             0.00003     1.56847
  337. RY ( 8) C 11             0.00001     2.04552
  338. RY ( 9) C 11             0.00001     1.93024
  339. RY (10) C 11             0.00000     2.12969
  340. RY (11) C 11             0.00000     3.16270
  341. RY (12) C 11             0.00000     6.75527
  342. RY (13) C 11             0.00000     2.47803
  343. RY (14) C 11             0.00000     4.06955
  344. RY (15) C 11             0.00000     4.16516
  345. RY (16) C 11             0.00000     2.66529
  346. RY (17) C 11             0.00000     3.94476
  347. RY (18) C 11             0.00000    10.12265
  348. RY (19) C 11             0.00000     3.64444
  349. RY (20) C 11             0.00000     3.94653
  350. RY (21) C 11             0.00000     3.66133
  351. RY (22) C 11             0.00000     3.90403
  352. RY (23) C 11             0.00000     3.52933
  353. RY (24) C 11             0.00000     3.73349
  354. RY (25) C 11             0.00000     3.90420
  355. RY (26) C 11             0.00000     3.68022
  356. RY ( 1) H 12             0.00275     0.59319
  357. RY ( 2) H 12             0.00028     1.77384
  358. RY ( 3) H 12             0.00019     2.59637
  359. RY ( 4) H 12             0.00014     2.84903
  360. RY ( 5) H 12             0.00002     3.02257
  361. RY ( 6) H 12             0.00001     3.21602
  362. RY ( 7) H 12             0.00001     3.45007
  363. RY ( 8) H 12             0.00000     4.62549
  364. RY ( 9) H 12             0.00000     4.33071
  365. RY (10) H 12             0.00000     3.74237
  366. RY (11) H 12             0.00000     3.94661
  367. RY (12) H 12             0.00000     3.41147
  368. RY (13) H 12             0.00000     4.07708
  369. RY ( 1) H 13             0.00405     0.54770
  370. RY ( 2) H 13             0.00018     1.80206
  371. RY ( 3) H 13             0.00013     2.72795
  372. RY ( 4) H 13             0.00008     1.84708
  373. RY ( 5) H 13             0.00005     3.90528
  374. RY ( 6) H 13             0.00001     3.44148
  375. RY ( 7) H 13             0.00001     3.36948
  376. RY ( 8) H 13             0.00000     4.41045
  377. RY ( 9) H 13             0.00000     3.71497
  378. RY (10) H 13             0.00000     4.32434
  379. RY (11) H 13             0.00000     3.99452
  380. RY (12) H 13             0.00000     3.53561
  381. RY (13) H 13             0.00000     3.61535
  382. RY ( 1) H 14             0.00159     0.86918
  383. RY ( 2) H 14             0.00010     2.11077
  384. RY ( 3) H 14             0.00009     3.34566
  385. RY ( 4) H 14             0.00007     3.85204
  386. RY ( 5) H 14             0.00003     3.85602
  387. RY ( 6) H 14             0.00002     3.14529
  388. RY ( 7) H 14             0.00001     3.24307
  389. RY ( 8) H 14             0.00001     3.02108
  390. RY ( 9) H 14             0.00000     3.66328
  391. RY (10) H 14             0.00000     3.78364
  392. RY (11) H 14             0.00000     3.87537
  393. RY (12) H 14             0.00000     3.25552
  394. RY (13) H 14             0.00000     3.59322
  395. RY ( 1) H 15             0.00066     0.81657
  396. RY ( 2) H 15             0.00017     2.67030
  397. RY ( 3) H 15             0.00012     3.51304
  398. RY ( 4) H 15             0.00006     2.62773
  399. RY ( 5) H 15             0.00004     2.16096
  400. RY ( 6) H 15             0.00001     2.51802
  401. RY ( 7) H 15             0.00000     3.27105
  402. RY ( 8) H 15             0.00000     3.94182
  403. RY ( 9) H 15             0.00000     3.43941
  404. RY (10) H 15             0.00000     3.86245
  405. RY (11) H 15             0.00000     4.54550
  406. RY (12) H 15             0.00000     3.82965
  407. RY (13) H 15             0.00000     4.27118
  408. RY ( 1) H 16             0.00043     0.85998
  409. RY ( 2) H 16             0.00011     3.03356
  410. RY ( 3) H 16             0.00009     3.55302
  411. RY ( 4) H 16             0.00008     2.38476
  412. RY ( 5) H 16             0.00003     2.42392
  413. RY ( 6) H 16             0.00001     2.47992
  414. RY ( 7) H 16             0.00001     2.30968
  415. RY ( 8) H 16             0.00000     3.43384
  416. RY ( 9) H 16             0.00000     3.96458
  417. RY (10) H 16             0.00000     4.36319
  418. RY (11) H 16             0.00000     3.96180
  419. RY (12) H 16             0.00000     4.09833
  420. RY (13) H 16             0.00000     4.45605
  421. RY ( 1) H 17             0.00117     0.82006
  422. RY ( 2) H 17             0.00017     2.64453
  423. RY ( 3) H 17             0.00015     3.07959
  424. RY ( 4) H 17             0.00007     2.66396
  425. RY ( 5) H 17             0.00003     2.32015
  426. RY ( 6) H 17             0.00003     2.60739
  427. RY ( 7) H 17             0.00001     3.49252
  428. RY ( 8) H 17             0.00000     3.73751
  429. RY ( 9) H 17             0.00000     4.42712
  430. RY (10) H 17             0.00000     4.14802
  431. RY (11) H 17             0.00000     4.32494
  432. RY (12) H 17             0.00000     3.61276
  433. RY (13) H 17             0.00000     3.57789
  434. RY ( 1) H 18             0.00063     0.79165
  435. RY ( 2) H 18             0.00012     2.87819
  436. RY ( 3) H 18             0.00010     3.72078
  437. RY ( 4) H 18             0.00006     2.49157
  438. RY ( 5) H 18             0.00003     2.29163
  439. RY ( 6) H 18             0.00001     2.52391
  440. RY ( 7) H 18             0.00000     2.51612
  441. RY ( 8) H 18             0.00000     3.59965
  442. RY ( 9) H 18             0.00000     4.19657
  443. RY (10) H 18             0.00000     4.25082
  444. RY (11) H 18             0.00000     3.78357
  445. RY (12) H 18             0.00000     4.11706
  446. RY (13) H 18             0.00000     3.85545
  447. RY ( 1) H 19             0.00047     0.79404
  448. RY ( 2) H 19             0.00011     3.49905
  449. RY ( 3) H 19             0.00009     3.66842
  450. RY ( 4) H 19             0.00005     2.37073
  451. RY ( 5) H 19             0.00002     1.94848
  452. RY ( 6) H 19             0.00001     2.98985
  453. RY ( 7) H 19             0.00000     2.38153
  454. RY ( 8) H 19             0.00000     3.62830
  455. RY ( 9) H 19             0.00000     4.00832
  456. RY (10) H 19             0.00000     4.38691
  457. RY (11) H 19             0.00000     3.54486
  458. RY (12) H 19             0.00000     3.84710
  459. RY (13) H 19             0.00000     3.96340
  460. RY ( 1) H 20             0.00112     0.82358
  461. RY ( 2) H 20             0.00017     2.39410
  462. RY ( 3) H 20             0.00012     3.43027
  463. RY ( 4) H 20             0.00007     2.70476
  464. RY ( 5) H 20             0.00003     2.42902
  465. RY ( 6) H 20             0.00002     2.60258
  466. RY ( 7) H 20             0.00000     2.79093
  467. RY ( 8) H 20             0.00000     3.49768
  468. RY ( 9) H 20             0.00000     4.16947
  469. RY (10) H 20             0.00000     4.23813
  470. RY (11) H 20             0.00000     3.85438
  471. RY (12) H 20             0.00000     4.18172
  472. RY (13) H 20             0.00000     3.99814
  473. RY ( 1) H 21             0.00102     0.74334
  474. RY ( 2) H 21             0.00010     3.17685
  475. RY ( 3) H 21             0.00006     2.81756
  476. RY ( 4) H 21             0.00005     2.01612
  477. RY ( 5) H 21             0.00005     3.70869
  478. RY ( 6) H 21             0.00002     2.51763
  479. RY ( 7) H 21             0.00001     3.15814
  480. RY ( 8) H 21             0.00001     3.20281
  481. RY ( 9) H 21             0.00000     3.85127
  482. RY (10) H 21             0.00000     4.18582
  483. RY (11) H 21             0.00000     3.64444
  484. RY (12) H 21             0.00000     3.78760
  485. RY (13) H 21             0.00000     4.15753
  486. RY ( 1) H 22             0.00191     0.70669
  487. RY ( 2) H 22             0.00029     2.02310
  488. RY ( 3) H 22             0.00011     2.02251
  489. RY ( 4) H 22             0.00008     3.77893
  490. RY ( 5) H 22             0.00004     3.66837
  491. RY ( 6) H 22             0.00002     2.49917
  492. RY ( 7) H 22             0.00001     2.98481
  493. RY ( 8) H 22             0.00001     3.99727
  494. RY ( 9) H 22             0.00001     3.74313
  495. RY (10) H 22             0.00000     3.78608
  496. RY (11) H 22             0.00000     3.73799
  497. RY (12) H 22             0.00000     4.11451
  498. RY (13) H 22             0.00000     4.14203
  499. RY ( 1) H 23             0.00100     1.00779
  500. RY ( 2) H 23             0.00013     3.37174
  501. RY ( 3) H 23             0.00013     2.51764
  502. RY ( 4) H 23             0.00006     2.94608
  503. RY ( 5) H 23             0.00003     2.24913
  504. RY ( 6) H 23             0.00001     2.63100
  505. RY ( 7) H 23             0.00001     2.76926
  506. RY ( 8) H 23             0.00000     3.50442
  507. RY ( 9) H 23             0.00000     3.92947
  508. RY (10) H 23             0.00000     4.22506
  509. RY (11) H 23             0.00000     3.95178
  510. RY (12) H 23             0.00000     3.55534
  511. RY (13) H 23             0.00000     4.39310
  512. RY ( 1) H 24             0.00039     1.06940
  513. RY ( 2) H 24             0.00009     3.94523
  514. RY ( 3) H 24             0.00008     3.24311
  515. RY ( 4) H 24             0.00003     1.79804
  516. RY ( 5) H 24             0.00001     3.19421
  517. RY ( 6) H 24             0.00001     1.89299
  518. RY ( 7) H 24             0.00000     2.91118
  519. RY ( 8) H 24             0.00000     3.30248
  520. RY ( 9) H 24             0.00000     3.89830
  521. RY (10) H 24             0.00000     4.45991
  522. RY (11) H 24             0.00000     3.99755
  523. RY (12) H 24             0.00000     4.17077
  524. RY (13) H 24             0.00000     2.84219
  525. RY ( 1) H 25             0.00077     0.78257
  526. RY ( 2) H 25             0.00010     3.76087
  527. RY ( 3) H 25             0.00009     3.58638
  528. RY ( 4) H 25             0.00003     1.76626
  529. RY ( 5) H 25             0.00002     2.49035
  530. RY ( 6) H 25             0.00001     2.48573
  531. RY ( 7) H 25             0.00000     2.38923
  532. RY ( 8) H 25             0.00000     3.69299
  533. RY ( 9) H 25             0.00000     4.26425
  534. RY (10) H 25             0.00000     3.71799
  535. RY (11) H 25             0.00000     4.30029
  536. RY (12) H 25             0.00000     3.83479
  537. RY (13) H 25             0.00000     3.67273
          -------------------------------
                 Total Lewis   84.59261  ( 98.3635%)
           Valence non-Lewis    1.26113  (  1.4664%)
           Rydberg non-Lewis    0.14626  (  0.1701%)
          -------------------------------
               Total unit  1   86.00000  (100.0000%)
              Charge unit  1   -1.00000

 $CHOOSE
   LONE 1 3 4 1 9 2 END
   BOND S 1 2 D 2 3 S 2 9 S 3 4 S 3 12 D 4 5 S 5 6 S 5 13 S 6 7 S 6 8 S 6 14
        S 7 15 S 7 16 S 7 17 S 8 18 S 8 19 S 8 20 S 9 10 S 10 11 S 10 21
        S 10 22 S 11 23 S 11 24 S 11 25 END
 $END

 NBO analysis completed in 11.52 CPU seconds (19 wall seconds)
 Maximum scratch memory used by NBO was 2830326 words (21.59 MB)
 Maximum scratch memory used by G16NBO was 444706 words (3.39 MB)

 Opening RunExU unformatted file "/scratch/general/vast/u6067110/5269608-notchpeak.peaks/Gau-1431661.EUF"
 Read unf file /scratch/general/vast/u6067110/5269608-notchpeak.peaks/Gau-1431661.EUF:
 Label Gaussian matrix elements                                         IVers= 2 NLab= 2 Version=ES64L-G16RevC.01
 Title A18_crest_conformers_censo-18                                   
 NAtoms=    25 NBasis=   537 NBsUse=   537 ICharg=    -1 Multip=     1 NE=    86 Len12L=8 Len4L=8 IOpCl= 0 ICGU=111
 GAUSSIAN SCALARS                    NI= 1 NR= 1 NTot=       1 LenBuf=    2 NRI=1 N=    1000
 NPA CHARGES                         NI= 0 NR= 1 NTot=      25 LenBuf= 4000 NRI=1 N=      25
 Recovered energy= -518.550016499     dipole=      0.805053318378     -0.672300515104     -0.366006933428

 ----------------------------------------------------------------------

 Electric dipole moment (input orientation):
 (Debye = 10**-18 statcoulomb cm , SI units = C m)
                  (au)            (Debye)         (10**-30 SI)
   Tot        0.111088D+01      0.282358D+01      0.941845D+01
   x         -0.791411D+00     -0.201156D+01     -0.670986D+01
   y          0.768304D+00      0.195283D+01      0.651395D+01
   z         -0.132054D+00     -0.335647D+00     -0.111960D+01

 Dipole polarizability, Alpha (input orientation).
 (esu units = cm**3 , SI units = C**2 m**2 J**-1)
 Alpha(0;0):
               (au)            (10**-24 esu)      (10**-40 SI)
   iso        0.173956D+03      0.257776D+02      0.286815D+02
   aniso      0.133986D+03      0.198547D+02      0.220913D+02
   xx         0.258135D+03      0.382516D+02      0.425607D+02
   yx        -0.215722D+02     -0.319666D+01     -0.355677D+01
   yy         0.145175D+03      0.215127D+02      0.239361D+02
   zx         0.476258D+01      0.705742D+00      0.785244D+00
   zy         0.210133D+01      0.311385D+00      0.346462D+00
   zz         0.118559D+03      0.175686D+02      0.195477D+02

 First dipole hyperpolarizability, Beta (input orientation).
 ||, _|_  parallel and perpendicular components, (z) with respect to z axis,
 vector components x,y,z.  Values do not include the 1/n! factor of 1/2.
 (esu units = statvolt**-1 cm**4 , SI units = C**3 m**3 J**-2)
 Beta(0;0,0):
               (au)            (10**-30 esu)      (10**-50 SI)
   || (z)    -0.900350D+02     -0.777832D+00     -0.288685D+00
   _|_(z)    -0.300117D+02     -0.259277D+00     -0.962282D-01
   x         -0.703170D+04     -0.607484D+02     -0.225462D+02
   y          0.151389D+02      0.130789D+00      0.485409D-01
   z         -0.450175D+03     -0.388916D+01     -0.144342D+01
   ||         0.140922D+04      0.121746D+02      0.451848D+01
   xxx       -0.235404D+04     -0.203371D+02     -0.754791D+01
   xxy       -0.301916D+03     -0.260832D+01     -0.968052D+00
   yxy        0.630286D+02      0.544518D+00      0.202092D+00
   yyy        0.301803D+03      0.260734D+01      0.967689D+00
   xxz       -0.201196D+03     -0.173818D+01     -0.645108D+00
   yxz       -0.191828D+02     -0.165724D+00     -0.615069D-01
   yyz        0.218209D+02      0.188516D+00      0.699658D-01
   zxz       -0.528880D+02     -0.456911D+00     -0.169578D+00
   zyz        0.515958D+01      0.445747D-01      0.165435D-01
   zzz        0.293169D+02      0.253275D+00      0.940006D-01

 ----------------------------------------------------------------------

 Dipole orientation:
     8          0.45083113          0.00505953         -3.85329195
     6          1.19932126         -1.28636846         -2.08142261
     6          0.74752255         -1.10590924          0.53918910
     7         -0.73183092          0.75080120          1.48380665
     6         -1.22021055          1.03375370          3.84205941
     6         -2.87619681          3.14679783          4.82041369
     6         -4.01345434          4.67212075          2.65808659
     6         -4.94148764          2.11577884          6.57050964
     8          2.80450886         -3.35165026         -2.60700277
     6          3.40959537         -3.69708133         -5.15742557
     6          5.49610734         -1.91419559         -6.02649927
     1          1.63355076         -2.51688385          1.78141443
     1         -0.42876161         -0.26430870          5.29328960
     1         -1.70642402          4.44930097          5.98015691
     1         -2.51973821          5.38613428          1.40931697
     1         -5.15537001          6.26114992          3.37453731
     1         -5.21268003          3.44427928          1.48476377
     1         -6.05990470          3.64745283          7.43712068
     1         -4.11868017          0.97385675          8.10452148
     1         -6.23312785          0.88578063          5.49602304
     1          4.02529659         -5.67945274         -5.34970327
     1          1.72571212         -3.40258501         -6.34559801
     1          4.79615663          0.03368919         -5.88764992
     1          6.04889881         -2.30023715         -7.99667660
     1          7.17072650         -2.11849921         -4.81088408

 Electric dipole moment (dipole orientation):
 (Debye = 10**-18 statcoulomb cm , SI units = C m)
                  (au)            (Debye)         (10**-30 SI)
   Tot        0.111088D+01      0.282358D+01      0.941845D+01
   x          0.000000D+00      0.000000D+00      0.000000D+00
   y          0.000000D+00      0.000000D+00      0.000000D+00
   z          0.111088D+01      0.282358D+01      0.941845D+01

 Dipole polarizability, Alpha (dipole orientation).
 (esu units = cm**3 , SI units = C**2 m**2 J**-1)
 Alpha(0;0):
               (au)            (10**-24 esu)      (10**-40 SI)
   iso        0.173956D+03      0.257776D+02      0.286815D+02
   aniso      0.133986D+03      0.198547D+02      0.220913D+02
   xx         0.149982D+03      0.222250D+02      0.247287D+02
   yx        -0.294510D+02     -0.436419D+01     -0.485582D+01
   yy         0.148038D+03      0.219369D+02      0.244081D+02
   zx        -0.466457D+02     -0.691218D+01     -0.769083D+01
   zy         0.327561D+02      0.485395D+01      0.540075D+01
   zz         0.223849D+03      0.331710D+02      0.369077D+02

 First dipole hyperpolarizability, Beta (dipole orientation).
 ||, _|_  parallel and perpendicular components, (z) with respect to z axis,
 vector components x,y,z.  Values do not include the 1/n! factor of 1/2.
 (esu units = statvolt**-1 cm**4 , SI units = C**3 m**3 J**-2)
 Beta(0;0,0):
               (au)            (10**-30 esu)      (10**-50 SI)
   || (z)     0.101470D+04      0.876619D+01      0.325348D+01
   _|_(z)     0.338232D+03      0.292206D+01      0.108449D+01
   x         -0.351464D+04     -0.303638D+02     -0.112692D+02
   y          0.339923D+04      0.293667D+02      0.108992D+02
   z          0.507348D+04      0.438309D+02      0.162674D+02
   ||         0.140922D+04      0.121746D+02      0.451848D+01
   xxx       -0.369332D+03     -0.319074D+01     -0.118421D+01
   xxy        0.312612D+03      0.270072D+01      0.100235D+01
   yxy       -0.335442D+03     -0.289796D+01     -0.107555D+01
   yyy        0.323342D+03      0.279342D+01      0.103675D+01
   xxz        0.497668D+03      0.429946D+01      0.159570D+01
   yxz       -0.519153D+03     -0.448508D+01     -0.166459D+01
   yyz        0.597201D+03      0.515936D+01      0.191484D+01
   zxz       -0.466774D+03     -0.403256D+01     -0.149664D+01
   zyz        0.497125D+03      0.429477D+01      0.159396D+01
   zzz        0.596292D+03      0.515149D+01      0.191193D+01

 ----------------------------------------------------------------------
 Unable to Open any file for archive entry.
 1\1\GINC-NOTCH108\SP\RM062X\def2TZVPP\C8H14N1O2(1-)\U6067110\18-Jul-20
 25\0\\#N Guess=Read Geom=Check Integral(Ultrafine) Density Pop=NBO7 Po
 p=Hirshfeld Pop=(ChelpG,ReadRadii) Polar Prop=(Potential,EFG) Volume M
 062X EmpiricalDispersion=GD3 def2TZVPP SCRF(IEFPCM,solvent=thf)\\A18_c
 rest_conformers_censo-18\\-1,1\O,0,1.581841293,-1.306730071,0.07057766
 21\C,0,1.4312176584,-0.0925902905,0.1495885428\C,0,0.2705779454,0.7065
 665137,0.0890195186\N,0,-0.9459467196,0.1450600435,-0.0922260537\C,0,-
 2.0421398189,0.8086221456,-0.1600119137\C,0,-3.3821881836,0.1406459102
 ,-0.3706050156\C,0,-3.2512758336,-1.3778502665,-0.3640937429\C,0,-4.39
 88495921,0.6122202857,0.6752486707\O,0,2.5747548243,0.7147882888,0.333
 3704211\C,0,3.7916986013,0.0270187383,0.3921132174\C,0,4.3071448798,-0
 .3449431932,-0.9923349115\H,0,0.3872525901,1.7951306024,0.1932489692\H
 ,0,-2.0579173704,1.9174327736,-0.0745984428\H,0,-3.7847102252,0.443104
 5456,-1.36125579\H,0,-2.5150007495,-1.7031059521,-1.1099827704\H,0,-4.
 221839044,-1.8631351998,-0.560230726\H,0,-2.8695489187,-1.7147609249,0
 .611189597\H,0,-5.4058624279,0.2047436937,0.4817983289\H,0,-4.47315450
 17,1.7113333047,0.6864874183\H,0,-4.0806010397,0.290600096,1.679943844
 3\H,0,4.5041667066,0.7006804426,0.8976154295\H,0,3.6841359718,-0.88945
 61427,0.9938874048\H,0,3.5984960578,-1.0473443625,-1.4500929787\H,0,5.
 299682686,-0.8202339071,-0.9355144196\H,0,4.3806652104,0.5520929258,-1
 .6253522598\\Version=ES64L-G16RevC.01\State=1-A\HF=-518.5500165\RMSD=5
 .028e-09\Dipole=-0.7914106,0.768304,-0.1320536\Polar=258.134677,-21.57
 2159,145.174898,4.7625808,2.1013284,118.5589644\HyperPolar=-2354.04151
 86,-301.9160606,63.028571,301.8027909,-201.196178,-19.1827648,21.82093
 35,-52.8880305,5.1595784,29.316921\Quadrupole=-2.0050611,-1.1227435,3.
 1278046,0.7315208,0.5412711,-0.3892167\PG=C01 [X(C8H14N1O2)]\\@
 The archive entry for this job was punched.


 IF NO USE IS MADE OF THE LABOR OF PAST AGES,
 THE WORLD MUST REMAIN ALWAYS IN THE INFANCY OF KNOWLEDGE.

                          -- CICERO
 Job cpu time:       0 days  4 hours 59 minutes 17.3 seconds.
 Elapsed time:       0 days  0 hours 18 minutes 52.1 seconds.
 File lengths (MBytes):  RWF=    228 Int=      0 D2E=      0 Chk=     22 Scr=      2
 Normal termination of Gaussian 16 at Fri Jul 18 12:18:57 2025.
 Initial command:
 /uufs/chpc.utah.edu/sys/installdir/gaussian16/C01/AVX/g16/l1.exe "/scratch/general/vast/u6067110/5269608-notchpeak.peaks/Gau-1425730.inp" -scrdir="/scratch/general/vast/u6067110/5269608-notchpeak.peaks/"
 Entering Link 1 = /uufs/chpc.utah.edu/sys/installdir/gaussian16/C01/AVX/g16/l1.exe PID=   1432537.
  
 Copyright (c) 1988-2019, Gaussian, Inc.  All Rights Reserved.
  
 This is part of the Gaussian(R) 16 program.  It is based on
 the Gaussian(R) 09 system (copyright 2009, Gaussian, Inc.),
 the Gaussian(R) 03 system (copyright 2003, Gaussian, Inc.),
 the Gaussian(R) 98 system (copyright 1998, Gaussian, Inc.),
 the Gaussian(R) 94 system (copyright 1995, Gaussian, Inc.),
 the Gaussian 92(TM) system (copyright 1992, Gaussian, Inc.),
 the Gaussian 90(TM) system (copyright 1990, Gaussian, Inc.),
 the Gaussian 88(TM) system (copyright 1988, Gaussian, Inc.),
 the Gaussian 86(TM) system (copyright 1986, Carnegie Mellon
 University), and the Gaussian 82(TM) system (copyright 1983,
 Carnegie Mellon University). Gaussian is a federally registered
 trademark of Gaussian, Inc.
  
 This software contains proprietary and confidential information,
 including trade secrets, belonging to Gaussian, Inc.
  
 This software is provided under written license and may be
 used, copied, transmitted, or stored only in accord with that
 written license.
  
 The following legend is applicable only to US Government
 contracts under FAR:
  
                    RESTRICTED RIGHTS LEGEND
  
 Use, reproduction and disclosure by the US Government is
 subject to restrictions as set forth in subparagraphs (a)
 and (c) of the Commercial Computer Software - Restricted
 Rights clause in FAR 52.227-19.
  
 Gaussian, Inc.
 340 Quinnipiac St., Bldg. 40, Wallingford CT 06492
  
  
 ---------------------------------------------------------------
 Warning -- This program may not be used in any manner that
 competes with the business of Gaussian, Inc. or will provide
 assistance to any competitor of Gaussian, Inc.  The licensee
 of this program is prohibited from giving any competitor of
 Gaussian, Inc. access to this program.  By using this program,
 the user acknowledges that Gaussian, Inc. is engaged in the
 business of creating and licensing software in the field of
 computational chemistry and represents and warrants to the
 licensee that it is not a competitor of Gaussian, Inc. and that
 it will not use this program in any manner prohibited above.
 ---------------------------------------------------------------
  

 Cite this work as:
 Gaussian 16, Revision C.01,
 M. J. Frisch, G. W. Trucks, H. B. Schlegel, G. E. Scuseria, 
 M. A. Robb, J. R. Cheeseman, G. Scalmani, V. Barone, 
 G. A. Petersson, H. Nakatsuji, X. Li, M. Caricato, A. V. Marenich, 
 J. Bloino, B. G. Janesko, R. Gomperts, B. Mennucci, H. P. Hratchian, 
 J. V. Ortiz, A. F. Izmaylov, J. L. Sonnenberg, D. Williams-Young, 
 F. Ding, F. Lipparini, F. Egidi, J. Goings, B. Peng, A. Petrone, 
 T. Henderson, D. Ranasinghe, V. G. Zakrzewski, J. Gao, N. Rega, 
 G. Zheng, W. Liang, M. Hada, M. Ehara, K. Toyota, R. Fukuda, 
 J. Hasegawa, M. Ishida, T. Nakajima, Y. Honda, O. Kitao, H. Nakai, 
 T. Vreven, K. Throssell, J. A. Montgomery, Jr., J. E. Peralta, 
 F. Ogliaro, M. J. Bearpark, J. J. Heyd, E. N. Brothers, K. N. Kudin, 
 V. N. Staroverov, T. A. Keith, R. Kobayashi, J. Normand, 
 K. Raghavachari, A. P. Rendell, J. C. Burant, S. S. Iyengar, 
 J. Tomasi, M. Cossi, J. M. Millam, M. Klene, C. Adamo, R. Cammi, 
 J. W. Ochterski, R. L. Martin, K. Morokuma, O. Farkas, 
 J. B. Foresman, and D. J. Fox, Gaussian, Inc., Wallingford CT, 2019.
 
 ******************************************
 Gaussian 16:  ES64L-G16RevC.01  3-Jul-2019
                18-Jul-2025 
 ******************************************
 %NProcShared=32
 Will use up to   32 processors via shared memory.
 %Mem=48GB
 %chk=A18_crest_conformers_censo-18.chk
 ----------------------------------------------------------------------
 #N Guess=Read Geom=Check Integral(Ultrafine) Density NMR M062X Empiric
 alDispersion=GD3 def2TZVPP SCRF(IEFPCM,solvent=thf)
 ----------------------------------------------------------------------
 1/29=2,38=1,172=1/1;
 2/12=2,40=1/2;
 3/5=44,7=202,11=2,14=-4,25=1,30=1,70=2201,72=20,74=-55,75=-5,116=-2,124=31/1,2,3,8;
 4/5=1/1;
 5/5=2,38=6,53=20/2;
 8/6=1,10=90,11=11/1;
 10/13=100,45=16/2;
 6/7=2,8=2,9=2,10=2,22=-1,28=1/1;
 99/9=1/99;
 -----------------------------
 A18_crest_conformers_censo-18
 -----------------------------
 Structure from the checkpoint file:  "A18_crest_conformers_censo-18.chk"
 Charge = -1 Multiplicity = 1
 Redundant internal coordinates found in file.  (old form).
 O,0,1.581841293,-1.306730071,0.0705776621
 C,0,1.4312176584,-0.0925902905,0.1495885428
 C,0,0.2705779454,0.7065665137,0.0890195186
 N,0,-0.9459467196,0.1450600435,-0.0922260537
 C,0,-2.0421398189,0.8086221456,-0.1600119137
 C,0,-3.3821881836,0.1406459102,-0.3706050156
 C,0,-3.2512758336,-1.3778502665,-0.3640937429
 C,0,-4.3988495921,0.6122202857,0.6752486707
 O,0,2.5747548243,0.7147882888,0.3333704211
 C,0,3.7916986013,0.0270187383,0.3921132174
 C,0,4.3071448798,-0.3449431932,-0.9923349115
 H,0,0.3872525901,1.7951306024,0.1932489692
 H,0,-2.0579173704,1.9174327736,-0.0745984428
 H,0,-3.7847102252,0.4431045456,-1.36125579
 H,0,-2.5150007495,-1.7031059521,-1.1099827704
 H,0,-4.221839044,-1.8631351998,-0.560230726
 H,0,-2.8695489187,-1.7147609249,0.611189597
 H,0,-5.4058624279,0.2047436937,0.4817983289
 H,0,-4.4731545017,1.7113333047,0.6864874183
 H,0,-4.0806010397,0.290600096,1.6799438443
 H,0,4.5041667066,0.7006804426,0.8976154295
 H,0,3.6841359718,-0.8894561427,0.9938874048
 H,0,3.5984960578,-1.0473443625,-1.4500929787
 H,0,5.299682686,-0.8202339071,-0.9355144196
 H,0,4.3806652104,0.5520929258,-1.6253522598
 Recover connectivity data from disk.
                           ----------------------------
                           !    Current Parameters    !
                           ! (Angstroms and Degrees)  !
 --------------------------                            --------------------------
 ! Name  Definition              Value                                          !
 --------------------------------------------------------------------------------
 ! R1    R(1,2)                  1.226                                          !
 ! R2    R(2,3)                  1.4105                                         !
 ! R3    R(2,9)                  1.4118                                         !
 ! R4    R(3,4)                  1.3521                                         !
 ! R5    R(3,12)                 1.0997                                         !
 ! R6    R(4,5)                  1.2832                                         !
 ! R7    R(5,6)                  1.512                                          !
 ! R8    R(5,13)                 1.1122                                         !
 ! R9    R(6,7)                  1.5241                                         !
 ! R10   R(6,8)                  1.5329                                         !
 ! R11   R(6,14)                 1.1113                                         !
 ! R12   R(7,15)                 1.0974                                         !
 ! R13   R(7,16)                 1.1027                                         !
 ! R14   R(7,17)                 1.1002                                         !
 ! R15   R(8,18)                 1.1034                                         !
 ! R16   R(8,19)                 1.1017                                         !
 ! R17   R(8,20)                 1.1019                                         !
 ! R18   R(9,10)                 1.3991                                         !
 ! R19   R(10,11)                1.5234                                         !
 ! R20   R(10,21)                1.1032                                         !
 ! R21   R(10,22)                1.1016                                         !
 ! R22   R(11,23)                1.0978                                         !
 ! R23   R(11,24)                1.1019                                         !
 ! R24   R(11,25)                1.1004                                         !
 ! A1    A(1,2,3)              131.2574                                         !
 ! A2    A(1,2,9)              118.3729                                         !
 ! A3    A(3,2,9)              110.3697                                         !
 ! A4    A(2,3,4)              120.7199                                         !
 ! A5    A(2,3,12)             117.9992                                         !
 ! A6    A(4,3,12)             121.2809                                         !
 ! A7    A(3,4,5)              124.1225                                         !
 ! A8    A(4,5,6)              122.4126                                         !
 ! A9    A(4,5,13)             121.5744                                         !
 ! A10   A(6,5,13)             116.0111                                         !
 ! A11   A(5,6,7)              111.3102                                         !
 ! A12   A(5,6,8)              110.9072                                         !
 ! A13   A(5,6,14)             108.962                                          !
 ! A14   A(7,6,8)              111.1338                                         !
 ! A15   A(7,6,14)             107.8237                                         !
 ! A16   A(8,6,14)             106.5144                                         !
 ! A17   A(6,7,15)             110.4885                                         !
 ! A18   A(6,7,16)             111.2289                                         !
 ! A19   A(6,7,17)             109.7968                                         !
 ! A20   A(15,7,16)            109.8282                                         !
 ! A21   A(15,7,17)            106.1992                                         !
 ! A22   A(16,7,17)            109.1654                                         !
 ! A23   A(6,8,18)             111.8427                                         !
 ! A24   A(6,8,19)             111.0149                                         !
 ! A25   A(6,8,20)             109.9224                                         !
 ! A26   A(18,8,19)            107.9785                                         !
 ! A27   A(18,8,20)            108.4005                                         !
 ! A28   A(19,8,20)            107.5407                                         !
 ! A29   A(2,9,10)             115.3953                                         !
 ! A30   A(9,10,11)            112.0971                                         !
 ! A31   A(9,10,21)            106.3085                                         !
 ! A32   A(9,10,22)            110.3018                                         !
 ! A33   A(11,10,21)           110.3049                                         !
 ! A34   A(11,10,22)           109.0466                                         !
 ! A35   A(21,10,22)           108.7095                                         !
 ! A36   A(10,11,23)           108.4674                                         !
 ! A37   A(10,11,24)           111.2978                                         !
 ! A38   A(10,11,25)           110.2654                                         !
 ! A39   A(23,11,24)           109.085                                          !
 ! A40   A(23,11,25)           108.9571                                         !
 ! A41   A(24,11,25)           108.7299                                         !
 ! D1    D(1,2,3,4)             -0.4057                                         !
 ! D2    D(1,2,3,12)           179.6083                                         !
 ! D3    D(9,2,3,4)            179.5661                                         !
 ! D4    D(9,2,3,12)            -0.4198                                         !
 ! D5    D(1,2,9,10)             0.7153                                         !
 ! D6    D(3,2,9,10)          -179.2606                                         !
 ! D7    D(2,3,4,5)           -179.8449                                         !
 ! D8    D(12,3,4,5)             0.1405                                         !
 ! D9    D(3,4,5,6)            179.693                                          !
 ! D10   D(3,4,5,13)             0.2038                                         !
 ! D11   D(4,5,6,7)              4.9071                                         !
 ! D12   D(4,5,6,8)            129.1915                                         !
 ! D13   D(4,5,6,14)          -113.8721                                         !
 ! D14   D(13,5,6,7)          -175.5772                                         !
 ! D15   D(13,5,6,8)           -51.2928                                         !
 ! D16   D(13,5,6,14)           65.6437                                         !
 ! D17   D(5,6,7,15)           -55.3469                                         !
 ! D18   D(5,6,7,16)          -177.5971                                         !
 ! D19   D(5,6,7,17)            61.4625                                         !
 ! D20   D(8,6,7,15)          -179.5033                                         !
 ! D21   D(8,6,7,16)            58.2465                                         !
 ! D22   D(8,6,7,17)           -62.6939                                         !
 ! D23   D(14,6,7,15)           64.1117                                         !
 ! D24   D(14,6,7,16)          -58.1384                                         !
 ! D25   D(14,6,7,17)         -179.0788                                         !
 ! D26   D(5,6,8,18)           174.8567                                         !
 ! D27   D(5,6,8,19)            54.1788                                         !
 ! D28   D(5,6,8,20)           -64.6793                                         !
 ! D29   D(7,6,8,18)           -60.7586                                         !
 ! D30   D(7,6,8,19)           178.5635                                         !
 ! D31   D(7,6,8,20)            59.7053                                         !
 ! D32   D(14,6,8,18)           56.4277                                         !
 ! D33   D(14,6,8,19)          -64.2502                                         !
 ! D34   D(14,6,8,20)          176.8917                                         !
 ! D35   D(2,9,10,11)           80.01                                           !
 ! D36   D(2,9,10,21)         -159.3918                                         !
 ! D37   D(2,9,10,22)          -41.7077                                         !
 ! D38   D(9,10,11,23)         -64.1181                                         !
 ! D39   D(9,10,11,24)         175.8698                                         !
 ! D40   D(9,10,11,25)          55.1177                                         !
 ! D41   D(21,10,11,23)        177.6284                                         !
 ! D42   D(21,10,11,24)         57.6162                                         !
 ! D43   D(21,10,11,25)        -63.1359                                         !
 ! D44   D(22,10,11,23)         58.3157                                         !
 ! D45   D(22,10,11,24)        -61.6964                                         !
 ! D46   D(22,10,11,25)        177.5515                                         !
 --------------------------------------------------------------------------------
                          Input orientation:                          
 ---------------------------------------------------------------------
 Center     Atomic      Atomic             Coordinates (Angstroms)
 Number     Number       Type             X           Y           Z
 ---------------------------------------------------------------------
      1          8           0        1.581841   -1.306730    0.070578
      2          6           0        1.431218   -0.092590    0.149589
      3          6           0        0.270578    0.706567    0.089020
      4          7           0       -0.945947    0.145060   -0.092226
      5          6           0       -2.042140    0.808622   -0.160012
      6          6           0       -3.382188    0.140646   -0.370605
      7          6           0       -3.251276   -1.377850   -0.364094
      8          6           0       -4.398850    0.612220    0.675249
      9          8           0        2.574755    0.714788    0.333370
     10          6           0        3.791699    0.027019    0.392113
     11          6           0        4.307145   -0.344943   -0.992335
     12          1           0        0.387253    1.795131    0.193249
     13          1           0       -2.057917    1.917433   -0.074598
     14          1           0       -3.784710    0.443105   -1.361256
     15          1           0       -2.515001   -1.703106   -1.109983
     16          1           0       -4.221839   -1.863135   -0.560231
     17          1           0       -2.869549   -1.714761    0.611190
     18          1           0       -5.405862    0.204744    0.481798
     19          1           0       -4.473155    1.711333    0.686487
     20          1           0       -4.080601    0.290600    1.679944
     21          1           0        4.504167    0.700680    0.897615
     22          1           0        3.684136   -0.889456    0.993887
     23          1           0        3.598496   -1.047344   -1.450093
     24          1           0        5.299683   -0.820234   -0.935514
     25          1           0        4.380665    0.552093   -1.625352
 ---------------------------------------------------------------------
                    Distance matrix (angstroms):
                    1          2          3          4          5
     1  O    0.000000
     2  C    1.225996   0.000000
     3  C    2.402731   1.410463   0.000000
     4  N    2.919574   2.401221   1.352062   0.000000
     5  C    4.202514   3.601701   2.328325   1.283179   0.000000
     6  C    5.189521   4.847048   3.724812   2.452098   1.512042
     7  C    4.853145   4.882777   4.117470   2.776276   2.506855
     8  C    6.310044   5.895995   4.707029   3.567884   2.508050
     9  O    2.267482   1.411847   2.317112   3.591805   4.644130
    10  C    2.601104   2.375920   3.598881   4.763801   5.911803
    11  C    3.079301   3.104614   4.309161   5.352128   6.506680
    12  H    3.326204   2.157605   1.099749   2.140479   2.645740
    13  H    4.864581   4.032929   2.629612   2.092390   1.112207
    14  H    5.823396   5.456695   4.314866   3.123755   2.147823
    15  H    4.281933   4.444426   3.873445   2.629349   2.726687
    16  H    5.864317   5.966215   5.216005   3.870833   3.471246
    17  H    4.502624   4.619644   3.999486   2.766581   2.765288
    18  H    7.161121   6.851601   5.712099   4.497101   3.477243
    19  H    6.793455   6.197097   4.885644   3.937106   2.727871
    20  H    6.099572   5.733146   4.651540   3.603863   2.794478
    21  H    3.640560   3.260650   4.310120   5.567067   6.632070
    22  H    2.333723   2.534458   3.875365   4.866984   6.083189
    23  H    2.539019   2.857907   4.064494   4.890561   6.076652
    24  H    3.882170   4.083128   5.354688   6.375799   7.560220
    25  H    3.763617   3.502181   4.455979   5.557783   6.592834
                    6          7          8          9         10
     6  C    0.000000
     7  C    1.524143   0.000000
     8  C    1.532903   2.521416   0.000000
     9  O    6.025810   6.229625   6.982733   0.000000
    10  C    7.215213   7.221426   8.216307   1.399082   0.000000
    11  C    7.729695   7.654496   8.915791   2.425222   1.523397
    12  H    4.154989   4.859766   4.953622   2.443755   3.841356
    13  H    2.235684   3.516646   2.783130   4.803587   6.165184
    14  H    1.111258   2.143539   2.133804   6.586985   7.787773
    15  H    2.167513   1.097380   3.478027   5.816794   6.709999
    16  H    2.180851   1.102708   2.772206   7.323790   8.288331
    17  H    2.160846   1.100183   2.785266   5.968277   6.888687
    18  H    2.196806   2.803994   1.103420   7.998277   9.199715
    19  H    2.185111   3.484216   1.101679   7.126768   8.439868
    20  H    2.171409   2.765790   1.101878   6.803452   7.981296
    21  H    8.007285   8.127674   8.906232   2.010274   1.103161
    22  H    7.270205   7.083966   8.227467   2.059274   1.101648
    23  H    7.162860   6.943198   8.439714   2.708117   2.141333
    24  H    8.753131   8.588152   9.935191   3.375144   2.180470
    25  H    7.874362   7.972577   9.076137   2.669153   2.166276
                   11         12         13         14         15
    11  C    0.000000
    12  H    4.620723   0.000000
    13  H    6.817228   2.462835   0.000000
    14  H    8.138504   4.652927   2.609779   0.000000
    15  H    6.957019   4.728546   3.793316   2.506296   0.000000
    16  H    8.673822   5.932484   4.383046   2.480215   1.800315
    17  H    7.480149   4.806326   3.784426   3.063404   1.757349
    18  H    9.839600   6.014381   3.801528   2.466130   3.811921
    19  H    9.172806   4.886089   2.540689   2.505117   4.326669
    20  H    8.826056   4.943237   3.133090   3.059363   3.769570
    21  H    2.168884   4.317747   6.744378   8.595017   7.686179
    22  H    2.151677   4.326369   6.480082   7.943934   6.596786
    23  H    1.097767   4.592638   6.532756   7.532667   6.157966
    24  H    1.101935   5.678574   7.897485   9.181692   7.866332
    25  H    1.100359   4.560679   6.761977   8.170372   7.273358
                   16         17         18         19         20
    16  H    0.000000
    17  H    1.795252   0.000000
    18  H    2.600742   3.183414   0.000000
    19  H    3.793981   3.783562   1.783719   0.000000
    20  H    3.110773   2.574948   1.788642   1.777509   0.000000
    21  H    9.210952   7.764540   9.931140   9.036498   8.630089
    22  H    8.115896   6.616523   9.169928   8.567379   7.883803
    23  H    7.912965   6.821286   9.293998   8.793567   8.399748
    24  H    9.585815   8.362345  10.847491  10.224875   9.801240
    25  H    8.998383   7.918734  10.016829   9.223804   9.087705
                   21         22         23         24         25
    21  H    0.000000
    22  H    1.791718   0.000000
    23  H    3.063913   2.450572   0.000000
    24  H    2.511253   2.517414   1.791761   0.000000
    25  H    2.530355   3.069794   1.789051   1.789902   0.000000
 Stoichiometry    C8H14NO2(1-)
 Framework group  C1[X(C8H14NO2)]
 Deg. of freedom    69
 Full point group                 C1      NOp   1
 Largest Abelian subgroup         C1      NOp   1
 Largest concise Abelian subgroup C1      NOp   1
                         Standard orientation:                         
 ---------------------------------------------------------------------
 Center     Atomic      Atomic             Coordinates (Angstroms)
 Number     Number       Type             X           Y           Z
 ---------------------------------------------------------------------
      1          8           0       -1.614825    1.157880    0.503781
      2          6           0       -1.433486   -0.021867    0.223818
      3          6           0       -0.256655   -0.732960   -0.090536
      4          7           0        0.940547   -0.105681   -0.126616
      5          6           0        2.049582   -0.686959   -0.407163
      6          6           0        3.366864    0.054494   -0.443024
      7          6           0        3.200567    1.501257    0.006679
      8          6           0        4.424370   -0.668009    0.399274
      9          8           0       -2.551903   -0.882840    0.189427
     10          6           0       -3.782436   -0.279520    0.470892
     11          6           0       -4.346605    0.461223   -0.734823
     12          1           0       -0.344642   -1.808141   -0.304292
     13          1           0        2.093881   -1.771965   -0.647588
     14          1           0        3.747338    0.064416   -1.487072
     15          1           0        2.435431    2.005604   -0.597012
     16          1           0        4.153336    2.052321   -0.060585
     17          1           0        2.839618    1.529387    1.045585
     18          1           0        5.415468   -0.191033    0.311229
     19          1           0        4.524766   -1.720452    0.089464
     20          1           0        4.128070   -0.661060    1.460543
     21          1           0       -4.463850   -1.092387    0.774021
     22          1           0       -3.678937    0.426337    1.310346
     23          1           0       -3.668291    1.287642   -0.983852
     24          1           0       -5.347955    0.868768   -0.521595
     25          1           0       -4.417453   -0.215939   -1.599244
 ---------------------------------------------------------------------
 Rotational constants (GHZ):           3.6078939           0.3681088           0.3495133
 Standard basis: def2TZVPP (5D, 7F)
 There are   606 symmetry adapted cartesian basis functions of A   symmetry.
 There are   537 symmetry adapted basis functions of A   symmetry.
   537 basis functions,   799 primitive gaussians,   606 cartesian basis functions
    43 alpha electrons       43 beta electrons
       nuclear repulsion energy       596.5237992240 Hartrees.
 NAtoms=   25 NActive=   25 NUniq=   25 SFac= 1.00D+00 NAtFMM=   60 NAOKFM=F Big=F
 Integral buffers will be    131072 words long.
 Raffenetti 2 integral format.
 Two-electron integral symmetry is turned on.
 Nuclear repulsion after empirical dispersion term =      596.5230015358 Hartrees.
 ------------------------------------------------------------------------------
 Polarizable Continuum Model (PCM)
 =================================
 Model                : PCM.
 Atomic radii         : UFF (Universal Force Field).
 Polarization charges : Total charges.
 Charge compensation  : None.
 Solution method      : On-the-fly selection.
 Cavity type          : Scaled VdW (van der Waals Surface) (Alpha=1.100).
 Cavity algorithm     : GePol (No added spheres)
                        Default sphere list used, NSphG=   25.
                        Lebedev-Laikov grids with approx.  5.0 points / Ang**2.
                        Smoothing algorithm: York/Karplus (Gamma=1.0000).
                        Polarization charges: spherical gaussians, with
                                              point-specific exponents (IZeta= 3).
                        Self-potential: point-specific (ISelfS= 7).
                        Self-field    : sphere-specific E.n sum rule (ISelfD= 2).
 Solvent              : TetraHydroFuran, Eps=   7.425700 Eps(inf)=   1.974025
 ------------------------------------------------------------------------------
 One-electron integrals computed using PRISM.
   1 Symmetry operations used in ECPInt.
 ECPInt:  NShTT=   21115 NPrTT=   55562 LenC2=   18180 LenP2D=   37127.
 LDataN:  DoStor=T MaxTD1= 6 Len=  172
 NBasis=   537 RedAO= T EigKep=  6.09D-05  NBF=   537
 NBsUse=   537 1.00D-06 EigRej= -1.00D+00 NBFU=   537
 Initial guess from the checkpoint file:  "A18_crest_conformers_censo-18.chk"
 B after Tr=     0.000000    0.000000    0.000000
         Rot=    1.000000   -0.000000   -0.000000    0.000000 Ang=   0.00 deg.
 Requested convergence on RMS density matrix=1.00D-08 within 128 cycles.
 Requested convergence on MAX density matrix=1.00D-06.
 Requested convergence on             energy=1.00D-06.
 No special actions if energy rises.
 Inv3:  Mode=1 IEnd=    11466075.
 Iteration    1 A*A^-1 deviation from unit magnitude is 3.33D-15 for    223.
 Iteration    1 A*A^-1 deviation from orthogonality  is 3.07D-15 for   1931   1522.
 Iteration    1 A^-1*A deviation from unit magnitude is 3.11D-15 for    223.
 Iteration    1 A^-1*A deviation from orthogonality  is 3.79D-15 for   1606   1551.
 Error on total polarization charges =  0.01340
 SCF Done:  E(RM062X) =  -518.550016499     A.U. after    1 cycles
            NFock=  1  Conv=0.13D-08     -V/T= 2.0053
 DoSCS=F DFT=T ScalE2(SS,OS)=  1.000000  1.000000
 Range of M.O.s used for correlation:     1   537
 NBasis=   537 NAE=    43 NBE=    43 NFC=     0 NFV=     0
 NROrb=    537 NOA=    43 NOB=    43 NVA=   494 NVB=   494

 **** Warning!!: The largest alpha MO coefficient is  0.24736803D+02

 NEqPCM:  Using equilibrium solvation (IEInf=0, Eps=   7.4257, EpsInf=   1.9740)
          Differentiating once with respect to magnetic field using GIAOs.
          Electric field/nuclear overlap derivatives assumed to be zero.
   1 Symmetry operations used in ECPInt.
 ECPInt:  NShTT=   21115 NPrTT=   55562 LenC2=   21116 LenP2D=   55562.
 LDataN:  DoStor=T MaxTD1= 7 Len=  274
 FoFJK:  IHMeth= 1 ICntrl=    6127 DoSepK=F KAlg= 0 I1Cent=           0 FoldK=F
 IRaf=         1 NMat=       1 IRICut=       1 DoRegI=T DoRafI=F ISym2E= 0 IDoP0=0 IntGTp=1.
          There are     3 degrees of freedom in the 1st order CPHF.  IDoFFX=0 NUNeed=     3.
      3 vectors produced by pass  0 Test12= 7.08D-13 3.33D-08 XBig12= 1.89D+01 6.84D-01.
 AX will form     3 AO Fock derivatives at one time.
      3 vectors produced by pass  1 Test12= 7.08D-13 3.33D-08 XBig12= 8.37D-02 1.30D-01.
      3 vectors produced by pass  2 Test12= 7.08D-13 3.33D-08 XBig12= 1.51D-03 1.27D-02.
      3 vectors produced by pass  3 Test12= 7.08D-13 3.33D-08 XBig12= 2.59D-05 1.72D-03.
      3 vectors produced by pass  4 Test12= 7.08D-13 3.33D-08 XBig12= 3.04D-07 1.89D-04.
      3 vectors produced by pass  5 Test12= 7.08D-13 3.33D-08 XBig12= 6.10D-09 2.70D-05.
      3 vectors produced by pass  6 Test12= 7.08D-13 3.33D-08 XBig12= 5.05D-11 1.69D-06.
      3 vectors produced by pass  7 Test12= 7.08D-13 3.33D-08 XBig12= 6.99D-13 1.77D-07.
 InvSVY:  IOpt=1 It=  1 EMax= 8.03D-17
 Solved reduced A of dimension    24 with     3 vectors.
 Calculating GIAO nuclear magnetic shielding tensors.
 SCF GIAO Magnetic shielding tensor (ppm):
      1  O    Isotropic =    45.2750   Anisotropy =   439.4563
   XX=   -45.4294   YX=   -61.8369   ZX=    39.9817
   XY=   -26.0427   YY=  -129.5870   ZY=   -99.4622
   XZ=    54.2794   YZ=   -89.7766   ZZ=   310.8415
   Eigenvalues:  -159.4828   -42.9380   338.2459
      2  C    Isotropic =     4.4585   Anisotropy =    93.3163
   XX=   -54.4501   YX=   -53.4430   ZX=     5.8414
   XY=   -75.5776   YY=     1.4040   ZY=    -4.9893
   XZ=    -2.1945   YZ=     1.7117   ZZ=    66.4215
   Eigenvalues:   -96.8212    43.5273    66.6694
      3  C    Isotropic =    91.9659   Anisotropy =    84.0194
   XX=   145.9535   YX=    24.0726   ZX=    -0.3150
   XY=     6.0059   YY=    29.7267   ZY=   -16.3082
   XZ=    -0.4104   YZ=   -13.7366   ZZ=   100.2175
   Eigenvalues:    24.8809   103.0379   147.9789
      4  N    Isotropic =  -157.4941   Anisotropy =   633.9814
   XX=  -505.0963   YX=   -56.5484   ZX=   104.0152
   XY=   -21.7661   YY=  -198.4023   ZY=   -95.8088
   XZ=    95.9274   YZ=   -91.7228   ZZ=   231.0161
   Eigenvalues:  -520.6849  -216.9577   265.1601
      5  C    Isotropic =    44.9119   Anisotropy =    85.3456
   XX=    57.0773   YX=   -59.0428   ZX=     1.0425
   XY=   -45.1762   YY=   -18.1069   ZY=   -21.5796
   XZ=    -1.6120   YZ=   -16.9121   ZZ=    95.7653
   Eigenvalues:   -46.8663    79.7931   101.8090
      6  C    Isotropic =   149.1374   Anisotropy =    20.0390
   XX=   147.3237   YX=    18.4474   ZX=     2.7932
   XY=     8.9494   YY=   149.5396   ZY=     1.6263
   XZ=     1.8465   YZ=    -0.5848   ZZ=   150.5488
   Eigenvalues:   134.5731   150.3424   162.4967
      7  C    Isotropic =   163.3237   Anisotropy =    21.7125
   XX=   155.7894   YX=    -0.7876   ZX=     2.0717
   XY=    -7.0216   YY=   176.8630   ZY=     1.0371
   XZ=    -2.5488   YZ=     3.3401   ZZ=   157.3188
   Eigenvalues:   155.0779   157.0945   177.7987
      8  C    Isotropic =   160.8598   Anisotropy =    35.7920
   XX=   167.4035   YX=   -13.3661   ZX=     9.1685
   XY=   -11.4575   YY=   158.6439   ZY=    -7.3807
   XZ=    15.7955   YZ=   -11.0456   ZZ=   156.5320
   Eigenvalues:   147.9580   149.9002   184.7212
      9  O    Isotropic =   169.6910   Anisotropy =   144.1059
   XX=   179.8072   YX=    48.4555   ZX=    30.6675
   XY=   148.5953   YY=   144.2337   ZY=   -26.0140
   XZ=    56.4103   YZ=   -28.8903   ZZ=   185.0320
   Eigenvalues:    44.6673   198.6441   265.7616
     10  C    Isotropic =   129.0703   Anisotropy =    54.1847
   XX=   154.3322   YX=   -26.7844   ZX=   -11.9059
   XY=   -19.8198   YY=   110.4634   ZY=    -6.5379
   XZ=    -7.7090   YZ=   -10.1924   ZZ=   122.4153
   Eigenvalues:    95.3619   126.6556   165.1934
     11  C    Isotropic =   167.1254   Anisotropy =    29.2581
   XX=   166.1771   YX=   -11.3500   ZX=     2.1591
   XY=   -16.2691   YY=   159.1436   ZY=    -9.5838
   XZ=     7.7471   YZ=    -9.8276   ZZ=   176.0554
   Eigenvalues:   147.5610   167.1844   186.6308
     12  H    Isotropic =    25.3762   Anisotropy =     8.1196
   XX=    30.7183   YX=     2.9493   ZX=    -0.0337
   XY=    -2.0893   YY=    21.7598   ZY=    -0.0426
   XZ=    -1.1424   YZ=    -0.4655   ZZ=    23.6506
   Eigenvalues:    21.7124    23.6270    30.7892
     13  H    Isotropic =    24.4285   Anisotropy =     4.4340
   XX=    27.2828   YX=    -2.0766   ZX=    -0.3965
   XY=     3.2848   YY=    22.7656   ZY=     0.0622
   XZ=     0.8810   YZ=     0.8990   ZZ=    23.2372
   Eigenvalues:    22.4339    23.4672    27.3845
     14  H    Isotropic =    29.4004   Anisotropy =     7.8713
   XX=    27.5216   YX=    -0.7834   ZX=    -1.4756
   XY=    -0.4199   YY=    26.6502   ZY=     0.0231
   XZ=    -2.6440   YZ=     0.4867   ZZ=    34.0295
   Eigenvalues:    26.2494    27.3039    34.6479
     15  H    Isotropic =    29.7764   Anisotropy =     8.8211
   XX=    30.9207   YX=    -2.1403   ZX=     2.5522
   XY=    -3.6113   YY=    31.5769   ZY=    -2.6210
   XZ=     2.1425   YZ=    -2.9867   ZZ=    26.8315
   Eigenvalues:    25.3142    28.3578    35.6571
     16  H    Isotropic =    30.7799   Anisotropy =     8.7792
   XX=    32.3946   YX=     3.6377   ZX=    -0.4547
   XY=     3.9670   YY=    33.1801   ZY=    -0.1316
   XZ=    -0.4464   YZ=    -0.3329   ZZ=    26.7651
   Eigenvalues:    26.7280    28.9790    36.6327
     17  H    Isotropic =    30.7850   Anisotropy =     6.9341
   XX=    29.7923   YX=    -0.2607   ZX=    -1.8990
   XY=    -1.1058   YY=    29.1454   ZY=     2.3697
   XZ=    -1.9867   YZ=     2.8658   ZZ=    33.4173
   Eigenvalues:    27.8672    29.0801    35.4078
     18  H    Isotropic =    30.4626   Anisotropy =     9.3479
   XX=    36.5966   YX=     1.1680   ZX=     0.2079
   XY=     0.1618   YY=    28.3342   ZY=    -0.5937
   XZ=     1.2084   YZ=    -0.1543   ZZ=    26.4568
   Eigenvalues:    26.3187    28.3744    36.6945
     19  H    Isotropic =    30.3382   Anisotropy =     9.2533
   XX=    28.9849   YX=    -3.5278   ZX=     0.0757
   XY=    -2.5079   YY=    35.2301   ZY=     1.6999
   XZ=     0.6723   YZ=     0.2018   ZZ=    26.7995
   Eigenvalues:    26.3863    28.1212    36.5070
     20  H    Isotropic =    31.1534   Anisotropy =     7.0260
   XX=    29.0368   YX=    -0.9989   ZX=     0.4058
   XY=    -0.8911   YY=    29.1006   ZY=    -1.8739
   XZ=     0.7927   YZ=    -1.4524   ZZ=    35.3229
   Eigenvalues:    28.0351    29.5877    35.8374
     21  H    Isotropic =    28.4109   Anisotropy =     7.8826
   XX=    30.7982   YX=     1.8823   ZX=    -2.0676
   XY=     0.8684   YY=    28.0188   ZY=    -3.2230
   XZ=    -2.9020   YZ=    -4.4778   ZZ=    26.4156
   Eigenvalues:    23.1193    28.4473    33.6659
     22  H    Isotropic =    27.1109   Anisotropy =     5.3163
   XX=    27.7094   YX=    -1.9767   ZX=    -1.4861
   XY=     0.0387   YY=    24.2427   ZY=     1.5482
   XZ=    -0.8383   YZ=     2.1470   ZZ=    29.3806
   Eigenvalues:    23.5639    27.1137    30.6551
     23  H    Isotropic =    29.7505   Anisotropy =     5.4783
   XX=    30.3986   YX=     2.0704   ZX=     1.6927
   XY=     2.4802   YY=    30.8782   ZY=    -2.3691
   XZ=     1.6956   YZ=    -3.9832   ZZ=    27.9747
   Eigenvalues:    24.6758    31.1730    33.4027
     24  H    Isotropic =    30.8126   Anisotropy =    10.1438
   XX=    35.6144   YX=    -3.7729   ZX=     0.2057
   XY=    -4.2002   YY=    29.1543   ZY=    -0.0241
   XZ=     1.2575   YZ=    -0.4869   ZZ=    27.6690
   Eigenvalues:    27.2346    27.6280    37.5751
     25  H    Isotropic =    30.7665   Anisotropy =     7.9784
   XX=    29.0189   YX=     0.3193   ZX=     2.5699
   XY=     0.4089   YY=    29.3911   ZY=     1.9660
   XZ=     2.4099   YZ=     3.7112   ZZ=    33.8894
   Eigenvalues:    27.3852    28.8288    36.0854
 End of Minotr F.D. properties file   721 does not exist.
 End of Minotr F.D. properties file   722 does not exist.
 End of Minotr F.D. properties file   788 does not exist.

 **********************************************************************

            Population analysis using the SCF Density.

 **********************************************************************

 Orbital symmetries:
       Occupied  (A) (A) (A) (A) (A) (A) (A) (A) (A) (A) (A) (A)
                 (A) (A) (A) (A) (A) (A) (A) (A) (A) (A) (A) (A)
                 (A) (A) (A) (A) (A) (A) (A) (A) (A) (A) (A) (A)
                 (A) (A) (A) (A) (A) (A) (A)
       Virtual   (A) (A) (A) (A) (A) (A) (A) (A) (A) (A) (A) (A)
                 (A) (A) (A) (A) (A) (A) (A) (A) (A) (A) (A) (A)
                 (A) (A) (A) (A) (A) (A) (A) (A) (A) (A) (A) (A)
                 (A) (A) (A) (A) (A) (A) (A) (A) (A) (A) (A) (A)
                 (A) (A) (A) (A) (A) (A) (A) (A) (A) (A) (A) (A)
                 (A) (A) (A) (A) (A) (A) (A) (A) (A) (A) (A) (A)
                 (A) (A) (A) (A) (A) (A) (A) (A) (A) (A) (A) (A)
                 (A) (A) (A) (A) (A) (A) (A) (A) (A) (A) (A) (A)
                 (A) (A) (A) (A) (A) (A) (A) (A) (A) (A) (A) (A)
                 (A) (A) (A) (A) (A) (A) (A) (A) (A) (A) (A) (A)
                 (A) (A) (A) (A) (A) (A) (A) (A) (A) (A) (A) (A)
                 (A) (A) (A) (A) (A) (A) (A) (A) (A) (A) (A) (A)
                 (A) (A) (A) (A) (A) (A) (A) (A) (A) (A) (A) (A)
                 (A) (A) (A) (A) (A) (A) (A) (A) (A) (A) (A) (A)
                 (A) (A) (A) (A) (A) (A) (A) (A) (A) (A) (A) (A)
                 (A) (A) (A) (A) (A) (A) (A) (A) (A) (A) (A) (A)
                 (A) (A) (A) (A) (A) (A) (A) (A) (A) (A) (A) (A)
                 (A) (A) (A) (A) (A) (A) (A) (A) (A) (A) (A) (A)
                 (A) (A) (A) (A) (A) (A) (A) (A) (A) (A) (A) (A)
                 (A) (A) (A) (A) (A) (A) (A) (A) (A) (A) (A) (A)
                 (A) (A) (A) (A) (A) (A) (A) (A) (A) (A) (A) (A)
                 (A) (A) (A) (A) (A) (A) (A) (A) (A) (A) (A) (A)
                 (A) (A) (A) (A) (A) (A) (A) (A) (A) (A) (A) (A)
                 (A) (A) (A) (A) (A) (A) (A) (A) (A) (A) (A) (A)
                 (A) (A) (A) (A) (A) (A) (A) (A) (A) (A) (A) (A)
                 (A) (A) (A) (A) (A) (A) (A) (A) (A) (A) (A) (A)
                 (A) (A) (A) (A) (A) (A) (A) (A) (A) (A) (A) (A)
                 (A) (A) (A) (A) (A) (A) (A) (A) (A) (A) (A) (A)
                 (A) (A) (A) (A) (A) (A) (A) (A) (A) (A) (A) (A)
                 (A) (A) (A) (A) (A) (A) (A) (A) (A) (A) (A) (A)
                 (A) (A) (A) (A) (A) (A) (A) (A) (A) (A) (A) (A)
                 (A) (A) (A) (A) (A) (A) (A) (A) (A) (A) (A) (A)
                 (A) (A) (A) (A) (A) (A) (A) (A) (A) (A) (A) (A)
                 (A) (A) (A) (A) (A) (A) (A) (A) (A) (A) (A) (A)
                 (A) (A) (A) (A) (A) (A) (A) (A) (A) (A) (A) (A)
                 (A) (A) (A) (A) (A) (A) (A) (A) (A) (A) (A) (A)
                 (A) (A) (A) (A) (A) (A) (A) (A) (A) (A) (A) (A)
                 (A) (A) (A) (A) (A) (A) (A) (A) (A) (A) (A) (A)
                 (A) (A) (A) (A) (A) (A) (A) (A) (A) (A) (A) (A)
                 (A) (A) (A) (A) (A) (A) (A) (A) (A) (A) (A) (A)
                 (A) (A) (A) (A) (A) (A) (A) (A) (A) (A) (A) (A)
                 (A) (A)
 The electronic state is 1-A.
 Alpha  occ. eigenvalues --  -19.60221 -19.53781 -14.70201 -10.59302 -10.55382
 Alpha  occ. eigenvalues --  -10.51441 -10.51227 -10.50682 -10.50172 -10.49739
 Alpha  occ. eigenvalues --  -10.47722  -1.15882  -1.06622  -0.98279  -0.86717
 Alpha  occ. eigenvalues --   -0.82767  -0.76240  -0.74810  -0.69929  -0.65330
 Alpha  occ. eigenvalues --   -0.59590  -0.56377  -0.54158  -0.51865  -0.50344
 Alpha  occ. eigenvalues --   -0.49774  -0.48441  -0.47042  -0.45657  -0.43684
 Alpha  occ. eigenvalues --   -0.43020  -0.42178  -0.41256  -0.40472  -0.38218
 Alpha  occ. eigenvalues --   -0.37267  -0.37033  -0.36245  -0.35306  -0.31888
 Alpha  occ. eigenvalues --   -0.29408  -0.27077  -0.17407
 Alpha virt. eigenvalues --    0.06878   0.09864   0.10551   0.12523   0.13166
 Alpha virt. eigenvalues --    0.13703   0.14415   0.15017   0.15389   0.15889
 Alpha virt. eigenvalues --    0.16715   0.16834   0.17482   0.18426   0.18883
 Alpha virt. eigenvalues --    0.19417   0.20209   0.20686   0.21530   0.22591
 Alpha virt. eigenvalues --    0.24340   0.24787   0.25184   0.25434   0.27901
 Alpha virt. eigenvalues --    0.27971   0.28891   0.29362   0.30404   0.31143
 Alpha virt. eigenvalues --    0.32416   0.34409   0.35291   0.35447   0.36239
 Alpha virt. eigenvalues --    0.38012   0.38709   0.38998   0.40169   0.42084
 Alpha virt. eigenvalues --    0.43071   0.43771   0.44095   0.45333   0.46160
 Alpha virt. eigenvalues --    0.46373   0.46744   0.47296   0.47917   0.47963
 Alpha virt. eigenvalues --    0.49005   0.49260   0.49730   0.50217   0.50403
 Alpha virt. eigenvalues --    0.51333   0.52472   0.52945   0.53124   0.53883
 Alpha virt. eigenvalues --    0.54427   0.55491   0.56327   0.58153   0.58787
 Alpha virt. eigenvalues --    0.59908   0.60164   0.61678   0.62384   0.62961
 Alpha virt. eigenvalues --    0.63704   0.65259   0.66750   0.68329   0.69979
 Alpha virt. eigenvalues --    0.70648   0.71227   0.71590   0.73366   0.74824
 Alpha virt. eigenvalues --    0.75693   0.77276   0.78388   0.79573   0.80335
 Alpha virt. eigenvalues --    0.81700   0.83696   0.85074   0.86236   0.86754
 Alpha virt. eigenvalues --    0.88297   0.89382   0.90791   0.91942   0.93852
 Alpha virt. eigenvalues --    0.94869   0.95524   0.96705   0.97424   0.97826
 Alpha virt. eigenvalues --    0.98544   0.99416   0.99588   1.01540   1.02350
 Alpha virt. eigenvalues --    1.02841   1.04001   1.04991   1.05327   1.06283
 Alpha virt. eigenvalues --    1.07360   1.09181   1.10218   1.12708   1.13351
 Alpha virt. eigenvalues --    1.14834   1.15437   1.15686   1.17314   1.17708
 Alpha virt. eigenvalues --    1.18540   1.18881   1.20773   1.21960   1.23431
 Alpha virt. eigenvalues --    1.23996   1.24980   1.25355   1.26112   1.26903
 Alpha virt. eigenvalues --    1.27658   1.29200   1.31652   1.32550   1.34175
 Alpha virt. eigenvalues --    1.35172   1.35288   1.37763   1.39041   1.40917
 Alpha virt. eigenvalues --    1.41366   1.44038   1.45653   1.46234   1.46675
 Alpha virt. eigenvalues --    1.47018   1.47418   1.48958   1.49324   1.49987
 Alpha virt. eigenvalues --    1.50816   1.51290   1.52874   1.53367   1.54674
 Alpha virt. eigenvalues --    1.55201   1.55784   1.56829   1.58178   1.58334
 Alpha virt. eigenvalues --    1.59327   1.59902   1.60173   1.60484   1.61988
 Alpha virt. eigenvalues --    1.63737   1.64793   1.66014   1.67383   1.67775
 Alpha virt. eigenvalues --    1.69564   1.70734   1.72764   1.73604   1.76723
 Alpha virt. eigenvalues --    1.77478   1.79743   1.81317   1.84372   1.85224
 Alpha virt. eigenvalues --    1.87336   1.88845   1.91239   1.95261   1.96757
 Alpha virt. eigenvalues --    1.97733   2.00066   2.03459   2.05134   2.09093
 Alpha virt. eigenvalues --    2.10493   2.12521   2.13062   2.14237   2.16165
 Alpha virt. eigenvalues --    2.16861   2.20740   2.21133   2.24771   2.26991
 Alpha virt. eigenvalues --    2.28019   2.30412   2.30982   2.33481   2.38150
 Alpha virt. eigenvalues --    2.41737   2.42602   2.45037   2.45334   2.48209
 Alpha virt. eigenvalues --    2.49862   2.52070   2.52976   2.55192   2.56033
 Alpha virt. eigenvalues --    2.57441   2.58531   2.59531   2.60751   2.61753
 Alpha virt. eigenvalues --    2.62114   2.65083   2.66708   2.67501   2.69537
 Alpha virt. eigenvalues --    2.71094   2.72800   2.76096   2.77139   2.79598
 Alpha virt. eigenvalues --    2.81070   2.82845   2.84174   2.84487   2.85467
 Alpha virt. eigenvalues --    2.86351   2.87057   2.87567   2.88796   2.90105
 Alpha virt. eigenvalues --    2.91239   2.93119   2.93883   2.94843   2.95863
 Alpha virt. eigenvalues --    2.95977   2.96743   2.97406   2.98277   2.99786
 Alpha virt. eigenvalues --    3.00513   3.00852   3.01648   3.03471   3.04467
 Alpha virt. eigenvalues --    3.05601   3.07155   3.07698   3.08596   3.09398
 Alpha virt. eigenvalues --    3.09754   3.11103   3.12175   3.13801   3.14358
 Alpha virt. eigenvalues --    3.14898   3.16228   3.16815   3.17685   3.18915
 Alpha virt. eigenvalues --    3.19497   3.19855   3.20535   3.21346   3.22232
 Alpha virt. eigenvalues --    3.23816   3.24671   3.25867   3.27357   3.27832
 Alpha virt. eigenvalues --    3.29777   3.31905   3.32692   3.33507   3.33964
 Alpha virt. eigenvalues --    3.34993   3.35647   3.36750   3.37114   3.38006
 Alpha virt. eigenvalues --    3.39276   3.40389   3.42463   3.43160   3.44771
 Alpha virt. eigenvalues --    3.47885   3.48354   3.48636   3.49247   3.49858
 Alpha virt. eigenvalues --    3.52022   3.52273   3.53431   3.54455   3.55863
 Alpha virt. eigenvalues --    3.56237   3.58116   3.59351   3.59951   3.60570
 Alpha virt. eigenvalues --    3.61953   3.63319   3.63574   3.64667   3.65163
 Alpha virt. eigenvalues --    3.65879   3.67739   3.69622   3.72417   3.73735
 Alpha virt. eigenvalues --    3.74528   3.76213   3.77433   3.79431   3.79791
 Alpha virt. eigenvalues --    3.81615   3.82331   3.83478   3.84544   3.85212
 Alpha virt. eigenvalues --    3.87020   3.87676   3.89061   3.89434   3.89701
 Alpha virt. eigenvalues --    3.92237   3.93363   3.93677   3.95288   3.95506
 Alpha virt. eigenvalues --    3.96578   3.97024   3.97601   3.98650   4.00011
 Alpha virt. eigenvalues --    4.00303   4.00615   4.01775   4.02882   4.03961
 Alpha virt. eigenvalues --    4.04620   4.05567   4.06528   4.06980   4.07686
 Alpha virt. eigenvalues --    4.08762   4.09462   4.11140   4.12147   4.12466
 Alpha virt. eigenvalues --    4.13926   4.14100   4.16095   4.17234   4.19286
 Alpha virt. eigenvalues --    4.20920   4.22232   4.23838   4.24501   4.25685
 Alpha virt. eigenvalues --    4.27347   4.28054   4.30517   4.31700   4.32091
 Alpha virt. eigenvalues --    4.34171   4.36302   4.39403   4.40529   4.43895
 Alpha virt. eigenvalues --    4.47020   4.49652   4.50455   4.52638   4.54062
 Alpha virt. eigenvalues --    4.55078   4.55942   4.57819   4.58287   4.59196
 Alpha virt. eigenvalues --    4.60152   4.63848   4.64581   4.65349   4.69784
 Alpha virt. eigenvalues --    4.71604   4.73332   4.75166   4.76217   4.78305
 Alpha virt. eigenvalues --    4.79089   4.79650   4.81879   4.84937   4.85775
 Alpha virt. eigenvalues --    4.86421   4.87584   4.89779   4.90592   4.91945
 Alpha virt. eigenvalues --    4.94385   4.96557   4.97004   5.01936   5.02335
 Alpha virt. eigenvalues --    5.04806   5.09825   5.11377   5.12254   5.14846
 Alpha virt. eigenvalues --    5.17168   5.17405   5.18609   5.21519   5.22602
 Alpha virt. eigenvalues --    5.24357   5.25183   5.26577   5.27143   5.28770
 Alpha virt. eigenvalues --    5.29260   5.29496   5.30463   5.31479   5.32980
 Alpha virt. eigenvalues --    5.33981   5.34924   5.36327   5.38319   5.38940
 Alpha virt. eigenvalues --    5.40598   5.41137   5.42643   5.44118   5.46323
 Alpha virt. eigenvalues --    5.47629   5.51484   5.51836   5.52361   5.52946
 Alpha virt. eigenvalues --    5.57892   5.58974   5.60050   5.60301   5.62002
 Alpha virt. eigenvalues --    5.62426   5.63160   5.64130   5.66039   5.67151
 Alpha virt. eigenvalues --    5.71832   5.76756   5.86777   5.90150   5.93746
 Alpha virt. eigenvalues --    6.00977   6.06276   6.20867   6.24523   6.30710
 Alpha virt. eigenvalues --    6.43243   6.48496   6.55548   6.62367   6.76939
 Alpha virt. eigenvalues --    6.78455   6.86992   6.95047   7.00737   7.15125
 Alpha virt. eigenvalues --    7.21119   7.38257   7.46344  23.19547  23.24277
 Alpha virt. eigenvalues --   23.43618  23.46007  23.52277  23.67512  23.70739
 Alpha virt. eigenvalues --   23.79032  32.89965  44.19734  44.49792
          Condensed to atoms (all electrons):
               1          2          3          4          5          6
     1  O    8.125028   0.639427  -0.122529  -0.000760   0.002437  -0.000592
     2  C    0.639427   4.466242   0.524532  -0.084567  -0.001877   0.002464
     3  C   -0.122529   0.524532   5.329631   0.443090  -0.199014   0.007233
     4  N   -0.000760  -0.084567   0.443090   6.431402   0.640821  -0.122743
     5  C    0.002437  -0.001877  -0.199014   0.640821   5.198061   0.246169
     6  C   -0.000592   0.002464   0.007233  -0.122743   0.246169   5.216226
     7  C    0.000132  -0.000526  -0.000760  -0.002535  -0.045187   0.251803
     8  C   -0.000003   0.000227   0.000625   0.003934  -0.095354   0.283391
     9  O   -0.112010   0.282540  -0.106300   0.004999   0.000341  -0.000074
    10  C   -0.006312  -0.069329  -0.003184  -0.000155   0.000024  -0.000011
    11  C   -0.027946   0.009146   0.007908  -0.000052  -0.000021  -0.000000
    12  H    0.004922  -0.053373   0.409999  -0.051263  -0.009921  -0.008243
    13  H   -0.000054  -0.004039  -0.007132  -0.054929   0.451316  -0.114915
    14  H   -0.000010  -0.000293   0.000621  -0.001025  -0.074434   0.475099
    15  H    0.000538   0.000287  -0.001202   0.009262  -0.006698  -0.039778
    16  H    0.000012   0.000013   0.000070   0.001886   0.017204  -0.053835
    17  H    0.000189  -0.000674  -0.000745   0.005270  -0.006614  -0.028301
    18  H    0.000000  -0.000003   0.000004  -0.000263   0.016033  -0.038987
    19  H    0.000000  -0.000008   0.000016   0.000310  -0.006661  -0.039877
    20  H   -0.000001  -0.000125  -0.000632   0.001075  -0.003419  -0.021088
    21  H    0.001746   0.006476   0.001424   0.000003  -0.000000   0.000000
    22  H    0.020207  -0.015094   0.003404  -0.000084   0.000003   0.000003
    23  H    0.018175   0.000209   0.000133  -0.000005   0.000025   0.000003
    24  H    0.000391  -0.000172  -0.000312  -0.000000   0.000000  -0.000000
    25  H    0.001302  -0.002951  -0.000382   0.000004   0.000005   0.000000
               7          8          9         10         11         12
     1  O    0.000132  -0.000003  -0.112010  -0.006312  -0.027946   0.004922
     2  C   -0.000526   0.000227   0.282540  -0.069329   0.009146  -0.053373
     3  C   -0.000760   0.000625  -0.106300  -0.003184   0.007908   0.409999
     4  N   -0.002535   0.003934   0.004999  -0.000155  -0.000052  -0.051263
     5  C   -0.045187  -0.095354   0.000341   0.000024  -0.000021  -0.009921
     6  C    0.251803   0.283391  -0.000074  -0.000011  -0.000000  -0.008243
     7  C    5.021717  -0.049597   0.000013   0.000002   0.000000   0.000753
     8  C   -0.049597   5.085845  -0.000001   0.000000  -0.000000   0.000085
     9  O    0.000013  -0.000001   8.155115   0.238142  -0.054563   0.014631
    10  C    0.000002   0.000000   0.238142   4.869047   0.238784   0.002179
    11  C    0.000000  -0.000000  -0.054563   0.238784   5.116792   0.000031
    12  H    0.000753   0.000085   0.014631   0.002179   0.000031   0.617675
    13  H    0.013019  -0.001352   0.000065   0.000028  -0.000003   0.022898
    14  H   -0.052591  -0.089343  -0.000001  -0.000000   0.000000   0.000019
    15  H    0.417543   0.012594   0.000009   0.000004  -0.000002   0.000152
    16  H    0.422173  -0.007705   0.000000  -0.000000   0.000000   0.000017
    17  H    0.407213  -0.017765   0.000003  -0.000003   0.000001   0.000093
    18  H   -0.009719   0.408004   0.000000  -0.000000   0.000000  -0.000002
    19  H    0.010420   0.414450   0.000000   0.000000   0.000000   0.000064
    20  H   -0.011643   0.387398   0.000000  -0.000000   0.000000   0.000005
    21  H   -0.000000   0.000000  -0.035626   0.415991  -0.047451  -0.000351
    22  H   -0.000000   0.000000  -0.048865   0.442432  -0.078791  -0.000068
    23  H   -0.000001   0.000000  -0.003625  -0.032845   0.399709  -0.000129
    24  H   -0.000000   0.000000   0.005710  -0.028950   0.392000   0.000001
    25  H    0.000000   0.000000   0.005001  -0.031666   0.387396   0.000037
              13         14         15         16         17         18
     1  O   -0.000054  -0.000010   0.000538   0.000012   0.000189   0.000000
     2  C   -0.004039  -0.000293   0.000287   0.000013  -0.000674  -0.000003
     3  C   -0.007132   0.000621  -0.001202   0.000070  -0.000745   0.000004
     4  N   -0.054929  -0.001025   0.009262   0.001886   0.005270  -0.000263
     5  C    0.451316  -0.074434  -0.006698   0.017204  -0.006614   0.016033
     6  C   -0.114915   0.475099  -0.039778  -0.053835  -0.028301  -0.038987
     7  C    0.013019  -0.052591   0.417543   0.422173   0.407213  -0.009719
     8  C   -0.001352  -0.089343   0.012594  -0.007705  -0.017765   0.408004
     9  O    0.000065  -0.000001   0.000009   0.000000   0.000003   0.000000
    10  C    0.000028  -0.000000   0.000004  -0.000000  -0.000003  -0.000000
    11  C   -0.000003   0.000000  -0.000002   0.000000   0.000001   0.000000
    12  H    0.022898   0.000019   0.000152   0.000017   0.000093  -0.000002
    13  H    0.651017  -0.001318   0.000806   0.000093   0.000671  -0.000518
    14  H   -0.001318   0.671286  -0.007558  -0.006023   0.010292  -0.002018
    15  H    0.000806  -0.007558   0.546456  -0.021771  -0.024796  -0.000407
    16  H    0.000093  -0.006023  -0.021771   0.568839  -0.026020   0.002270
    17  H    0.000671   0.010292  -0.024796  -0.026020   0.566998   0.000641
    18  H   -0.000518  -0.002018  -0.000407   0.002270   0.000641   0.563563
    19  H    0.004242  -0.003615  -0.000400  -0.000026   0.000038  -0.023188
    20  H    0.000225   0.011196  -0.000349  -0.000046   0.005632  -0.021559
    21  H    0.000000  -0.000000  -0.000000  -0.000000  -0.000000  -0.000000
    22  H   -0.000003   0.000000  -0.000002  -0.000000  -0.000000  -0.000000
    23  H   -0.000000  -0.000000   0.000002  -0.000000  -0.000001  -0.000000
    24  H    0.000000  -0.000000   0.000000  -0.000000  -0.000000  -0.000000
    25  H   -0.000000  -0.000000   0.000000  -0.000000  -0.000000  -0.000000
              19         20         21         22         23         24
     1  O    0.000000  -0.000001   0.001746   0.020207   0.018175   0.000391
     2  C   -0.000008  -0.000125   0.006476  -0.015094   0.000209  -0.000172
     3  C    0.000016  -0.000632   0.001424   0.003404   0.000133  -0.000312
     4  N    0.000310   0.001075   0.000003  -0.000084  -0.000005  -0.000000
     5  C   -0.006661  -0.003419  -0.000000   0.000003   0.000025   0.000000
     6  C   -0.039877  -0.021088   0.000000   0.000003   0.000003  -0.000000
     7  C    0.010420  -0.011643  -0.000000  -0.000000  -0.000001  -0.000000
     8  C    0.414450   0.387398   0.000000   0.000000   0.000000   0.000000
     9  O    0.000000   0.000000  -0.035626  -0.048865  -0.003625   0.005710
    10  C    0.000000  -0.000000   0.415991   0.442432  -0.032845  -0.028950
    11  C    0.000000   0.000000  -0.047451  -0.078791   0.399709   0.392000
    12  H    0.000064   0.000005  -0.000351  -0.000068  -0.000129   0.000001
    13  H    0.004242   0.000225   0.000000  -0.000003  -0.000000   0.000000
    14  H   -0.003615   0.011196  -0.000000   0.000000  -0.000000  -0.000000
    15  H   -0.000400  -0.000349  -0.000000  -0.000002   0.000002   0.000000
    16  H   -0.000026  -0.000046  -0.000000  -0.000000  -0.000000  -0.000000
    17  H    0.000038   0.005632  -0.000000  -0.000000  -0.000001  -0.000000
    18  H   -0.023188  -0.021559  -0.000000  -0.000000  -0.000000  -0.000000
    19  H    0.562716  -0.024922  -0.000000  -0.000000  -0.000000  -0.000000
    20  H   -0.024922   0.571316  -0.000000   0.000000  -0.000000  -0.000000
    21  H   -0.000000  -0.000000   0.585852  -0.028543   0.006770  -0.002695
    22  H   -0.000000   0.000000  -0.028543   0.606330  -0.008472   0.003839
    23  H   -0.000000  -0.000000   0.006770  -0.008472   0.549403  -0.022051
    24  H   -0.000000  -0.000000  -0.002695   0.003839  -0.022051   0.569612
    25  H   -0.000000  -0.000000  -0.006226   0.009417  -0.025925  -0.017603
              25
     1  O    0.001302
     2  C   -0.002951
     3  C   -0.000382
     4  N    0.000004
     5  C    0.000005
     6  C    0.000000
     7  C    0.000000
     8  C    0.000000
     9  O    0.005001
    10  C   -0.031666
    11  C    0.387396
    12  H    0.000037
    13  H   -0.000000
    14  H   -0.000000
    15  H    0.000000
    16  H   -0.000000
    17  H   -0.000000
    18  H   -0.000000
    19  H   -0.000000
    20  H   -0.000000
    21  H   -0.006226
    22  H    0.009417
    23  H   -0.025925
    24  H   -0.017603
    25  H    0.581837
 Mulliken charges:
               1
     1  O   -0.544290
     2  C    0.301466
     3  C   -0.286498
     4  N   -0.223676
     5  C   -0.123238
     6  C   -0.013949
     7  C   -0.372229
     8  C   -0.335433
     9  O   -0.345505
    10  C   -0.034178
    11  C   -0.342940
    12  H    0.049789
    13  H    0.039883
    14  H    0.069714
    15  H    0.115309
    16  H    0.102849
    17  H    0.107877
    18  H    0.106148
    19  H    0.106440
    20  H    0.106934
    21  H    0.102629
    22  H    0.094288
    23  H    0.118626
    24  H    0.100231
    25  H    0.099753
 Sum of Mulliken charges =  -1.00000
 Mulliken charges with hydrogens summed into heavy atoms:
               1
     1  O   -0.544290
     2  C    0.301466
     3  C   -0.236708
     4  N   -0.223676
     5  C   -0.083355
     6  C    0.055764
     7  C   -0.046194
     8  C   -0.015911
     9  O   -0.345505
    10  C    0.162739
    11  C   -0.024331
 Electronic spatial extent (au):  <R**2>=           3256.7378
 Charge=             -1.0000 electrons
 Dipole moment (field-independent basis, Debye):
    X=              2.0462    Y=             -1.7088    Z=             -0.9303  Tot=              2.8236
 Quadrupole moment (field-independent basis, Debye-Ang):
   XX=            -80.8925   YY=            -79.3636   ZZ=            -74.0824
   XY=              1.0831   XZ=             -0.2327   YZ=             -1.1847
 Traceless Quadrupole moment (field-independent basis, Debye-Ang):
   XX=             -2.7797   YY=             -1.2507   ZZ=              4.0304
   XY=              1.0831   XZ=             -0.2327   YZ=             -1.1847
 Octapole moment (field-independent basis, Debye-Ang**2):
  XXX=            -33.6532  YYY=             -5.1635  ZZZ=              3.9468  XYY=              2.6891
  XXY=             -1.0121  XXZ=              0.0408  XZZ=             -5.2308  YZZ=              0.7865
  YYZ=             -3.5074  XYZ=              2.6156
 Hexadecapole moment (field-independent basis, Debye-Ang**3):
 XXXX=          -4002.1957 YYYY=           -419.2811 ZZZZ=           -196.0950 XXXY=             24.8925
 XXXZ=            -51.4689 YYYX=              0.9830 YYYZ=             -0.8324 ZZZX=             -5.8286
 ZZZY=              0.8092 XXYY=           -761.3255 XXZZ=           -711.1229 YYZZ=           -104.2801
 XXYZ=              2.3141 YYXZ=             -2.1105 ZZXY=              5.1991
 N-N= 5.965230015358D+02 E-N=-2.416876576463D+03  KE= 5.158179339319D+02
 Unable to Open any file for archive entry.
 1\1\GINC-NOTCH108\SP\RM062X\def2TZVPP\C8H14N1O2(1-)\U6067110\18-Jul-20
 25\0\\#N Guess=Read Geom=Check Integral(Ultrafine) Density NMR M062X E
 mpiricalDispersion=GD3 def2TZVPP SCRF(IEFPCM,solvent=thf)\\A18_crest_c
 onformers_censo-18\\-1,1\O,0,1.581841293,-1.306730071,0.0705776621\C,0
 ,1.4312176584,-0.0925902905,0.1495885428\C,0,0.2705779454,0.7065665137
 ,0.0890195186\N,0,-0.9459467196,0.1450600435,-0.0922260537\C,0,-2.0421
 398189,0.8086221456,-0.1600119137\C,0,-3.3821881836,0.1406459102,-0.37
 06050156\C,0,-3.2512758336,-1.3778502665,-0.3640937429\C,0,-4.39884959
 21,0.6122202857,0.6752486707\O,0,2.5747548243,0.7147882888,0.333370421
 1\C,0,3.7916986013,0.0270187383,0.3921132174\C,0,4.3071448798,-0.34494
 31932,-0.9923349115\H,0,0.3872525901,1.7951306024,0.1932489692\H,0,-2.
 0579173704,1.9174327736,-0.0745984428\H,0,-3.7847102252,0.4431045456,-
 1.36125579\H,0,-2.5150007495,-1.7031059521,-1.1099827704\H,0,-4.221839
 044,-1.8631351998,-0.560230726\H,0,-2.8695489187,-1.7147609249,0.61118
 9597\H,0,-5.4058624279,0.2047436937,0.4817983289\H,0,-4.4731545017,1.7
 113333047,0.6864874183\H,0,-4.0806010397,0.290600096,1.6799438443\H,0,
 4.5041667066,0.7006804426,0.8976154295\H,0,3.6841359718,-0.8894561427,
 0.9938874048\H,0,3.5984960578,-1.0473443625,-1.4500929787\H,0,5.299682
 686,-0.8202339071,-0.9355144196\H,0,4.3806652104,0.5520929258,-1.62535
 22598\\Version=ES64L-G16RevC.01\State=1-A\HF=-518.5500165\RMSD=1.328e-
 09\Dipole=-0.7914108,0.7683042,-0.1320535\Quadrupole=-2.0050626,-1.122
 7415,3.1278041,0.7315239,0.5412699,-0.3892162\PG=C01 [X(C8H14N1O2)]\\@
 The archive entry for this job was punched.


 ALL PAPERS THAT YOU SAVE WILL NEVER BE NEEDED UNTIL
 SUCH TIME AS THEY ARE DISPOSED OF, WHEN THEY BECOME
 ESSENTIAL.

           -- JOHN CORCORAN IN
              PAUL DICKSON'S "THE OFFICIAL RULES"
 Job cpu time:       0 days  1 hours 34 minutes 36.8 seconds.
 Elapsed time:       0 days  0 hours  6 minutes 10.9 seconds.
 File lengths (MBytes):  RWF=    243 Int=      0 D2E=      0 Chk=     27 Scr=      2
 Normal termination of Gaussian 16 at Fri Jul 18 12:25:09 2025.
