 Entering Gaussian System, Link 0=g16
 Input=A18_crest_conformers_censo-13.com
 Output=A18_crest_conformers_censo-13.log
 Initial command:
 /uufs/chpc.utah.edu/sys/installdir/gaussian16/C01/AVX/g16/l1.exe "/scratch/general/vast/u6067110/5269603-notchpeak.peaks/Gau-3518522.inp" -scrdir="/scratch/general/vast/u6067110/5269603-notchpeak.peaks/"
 Entering Link 1 = /uufs/chpc.utah.edu/sys/installdir/gaussian16/C01/AVX/g16/l1.exe PID=   3518523.
  
 Copyright (c) 1988-2019, Gaussian, Inc.  All Rights Reserved.
  
 This is part of the Gaussian(R) 16 program.  It is based on
 the Gaussian(R) 09 system (copyright 2009, Gaussian, Inc.),
 the Gaussian(R) 03 system (copyright 2003, Gaussian, Inc.),
 the Gaussian(R) 98 system (copyright 1998, Gaussian, Inc.),
 the Gaussian(R) 94 system (copyright 1995, Gaussian, Inc.),
 the Gaussian 92(TM) system (copyright 1992, Gaussian, Inc.),
 the Gaussian 90(TM) system (copyright 1990, Gaussian, Inc.),
 the Gaussian 88(TM) system (copyright 1988, Gaussian, Inc.),
 the Gaussian 86(TM) system (copyright 1986, Carnegie Mellon
 University), and the Gaussian 82(TM) system (copyright 1983,
 Carnegie Mellon University). Gaussian is a federally registered
 trademark of Gaussian, Inc.
  
 This software contains proprietary and confidential information,
 including trade secrets, belonging to Gaussian, Inc.
  
 This software is provided under written license and may be
 used, copied, transmitted, or stored only in accord with that
 written license.
  
 The following legend is applicable only to US Government
 contracts under FAR:
  
                    RESTRICTED RIGHTS LEGEND
  
 Use, reproduction and disclosure by the US Government is
 subject to restrictions as set forth in subparagraphs (a)
 and (c) of the Commercial Computer Software - Restricted
 Rights clause in FAR 52.227-19.
  
 Gaussian, Inc.
 340 Quinnipiac St., Bldg. 40, Wallingford CT 06492
  
  
 ---------------------------------------------------------------
 Warning -- This program may not be used in any manner that
 competes with the business of Gaussian, Inc. or will provide
 assistance to any competitor of Gaussian, Inc.  The licensee
 of this program is prohibited from giving any competitor of
 Gaussian, Inc. access to this program.  By using this program,
 the user acknowledges that Gaussian, Inc. is engaged in the
 business of creating and licensing software in the field of
 computational chemistry and represents and warrants to the
 licensee that it is not a competitor of Gaussian, Inc. and that
 it will not use this program in any manner prohibited above.
 ---------------------------------------------------------------
  

 Cite this work as:
 Gaussian 16, Revision C.01,
 M. J. Frisch, G. W. Trucks, H. B. Schlegel, G. E. Scuseria, 
 M. A. Robb, J. R. Cheeseman, G. Scalmani, V. Barone, 
 G. A. Petersson, H. Nakatsuji, X. Li, M. Caricato, A. V. Marenich, 
 J. Bloino, B. G. Janesko, R. Gomperts, B. Mennucci, H. P. Hratchian, 
 J. V. Ortiz, A. F. Izmaylov, J. L. Sonnenberg, D. Williams-Young, 
 F. Ding, F. Lipparini, F. Egidi, J. Goings, B. Peng, A. Petrone, 
 T. Henderson, D. Ranasinghe, V. G. Zakrzewski, J. Gao, N. Rega, 
 G. Zheng, W. Liang, M. Hada, M. Ehara, K. Toyota, R. Fukuda, 
 J. Hasegawa, M. Ishida, T. Nakajima, Y. Honda, O. Kitao, H. Nakai, 
 T. Vreven, K. Throssell, J. A. Montgomery, Jr., J. E. Peralta, 
 F. Ogliaro, M. J. Bearpark, J. J. Heyd, E. N. Brothers, K. N. Kudin, 
 V. N. Staroverov, T. A. Keith, R. Kobayashi, J. Normand, 
 K. Raghavachari, A. P. Rendell, J. C. Burant, S. S. Iyengar, 
 J. Tomasi, M. Cossi, J. M. Millam, M. Klene, C. Adamo, R. Cammi, 
 J. W. Ochterski, R. L. Martin, K. Morokuma, O. Farkas, 
 J. B. Foresman, and D. J. Fox, Gaussian, Inc., Wallingford CT, 2019.
 
 ******************************************
 Gaussian 16:  ES64L-G16RevC.01  3-Jul-2019
                18-Jul-2025 
 ******************************************
 %NProcShared=32
 Will use up to   32 processors via shared memory.
 %Mem=48GB
 %chk=A18_crest_conformers_censo-13.chk
 ----------------------------------------------------------------------
 #N OPT FREQ=NORAMAN Integral(Ultrafine) M062X EmpiricalDispersion=GD3 
 def2SVP
 ----------------------------------------------------------------------
 1/18=20,19=15,26=4,38=1/1,3;
 2/9=110,12=2,17=6,18=5,40=1/2;
 3/5=43,7=101,11=2,25=1,30=1,71=1,74=-55,75=-5,124=31/1,2,3;
 4//1;
 5/5=2,38=5/2;
 6/7=2,8=2,9=2,10=2,28=1/1;
 7//1,2,3,16;
 1/18=20,19=15,26=4/3(2);
 2/9=110/2;
 99//99;
 2/9=110/2;
 3/5=43,7=101,11=2,25=1,30=1,71=1,74=-55,75=-5,124=31/1,2,3;
 4/5=5,16=3,69=1/1;
 5/5=2,38=5/2;
 7//1,2,3,16;
 1/18=20,19=15,26=4/3(-5);
 2/9=110/2;
 6/7=2,8=2,9=2,10=2,19=2,28=1/1;
 99/9=1/99;
 -----------------------------
 A18_crest_conformers_censo-13
 -----------------------------
 Symbolic Z-matrix:
 Charge = -1 Multiplicity = 1
 O                     1.47315  -0.52268  -1.24626 
 C                     1.32917   0.17503  -0.24146 
 C                     0.19436   0.60831   0.42397 
 N                    -1.03785   0.28178   0.01294 
 C                    -2.10064   0.67483   0.60454 
 C                    -3.46043   0.23325   0.13298 
 C                    -3.43354  -0.10471  -1.35462 
 C                    -3.92744  -0.98717   0.94105 
 O                     2.50539   0.6785    0.41942 
 C                     3.71883   0.24499  -0.12319 
 C                     4.20299  -1.05926   0.51392 
 H                     0.34151   1.2352    1.31293 
 H                    -2.08967   1.30098   1.51682 
 H                    -4.18132   1.04745   0.30864 
 H                    -2.62741  -0.80814  -1.53736 
 H                    -3.23296   0.79029  -1.93856 
 H                    -4.3824   -0.53513  -1.67898 
 H                    -4.92896  -1.30132   0.64073 
 H                    -3.942    -0.75533   2.00529 
 H                    -3.23668  -1.81103   0.77913 
 H                     3.59232   0.08766  -1.20413 
 H                     4.44914   1.04746   0.04877 
 H                     5.16654  -1.35042   0.09752 
 H                     3.47347  -1.83905   0.31117 
 H                     4.2974   -0.93902   1.59176 
 

 GradGradGradGradGradGradGradGradGradGradGradGradGradGradGradGradGradGrad
 Berny optimization.
 Initialization pass.
                           ----------------------------
                           !    Initial Parameters    !
                           ! (Angstroms and Degrees)  !
 --------------------------                            --------------------------
 ! Name  Definition              Value          Derivative Info.                !
 --------------------------------------------------------------------------------
 ! R1    R(1,2)                  1.2317         estimate D2E/DX2                !
 ! R2    R(2,3)                  1.385          estimate D2E/DX2                !
 ! R3    R(2,9)                  1.44           estimate D2E/DX2                !
 ! R4    R(3,4)                  1.3394         estimate D2E/DX2                !
 ! R5    R(3,12)                 1.0977         estimate D2E/DX2                !
 ! R6    R(4,5)                  1.2783         estimate D2E/DX2                !
 ! R7    R(5,6)                  1.5055         estimate D2E/DX2                !
 ! R8    R(5,13)                 1.1065         estimate D2E/DX2                !
 ! R9    R(6,7)                  1.5257         estimate D2E/DX2                !
 ! R10   R(6,8)                  1.5364         estimate D2E/DX2                !
 ! R11   R(6,14)                 1.1016         estimate D2E/DX2                !
 ! R12   R(7,15)                 1.0854         estimate D2E/DX2                !
 ! R13   R(7,16)                 1.0873         estimate D2E/DX2                !
 ! R14   R(7,17)                 1.0912         estimate D2E/DX2                !
 ! R15   R(8,18)                 1.0918         estimate D2E/DX2                !
 ! R16   R(8,19)                 1.0893         estimate D2E/DX2                !
 ! R17   R(8,20)                 1.0873         estimate D2E/DX2                !
 ! R18   R(9,10)                 1.3981         estimate D2E/DX2                !
 ! R19   R(10,11)                1.5302         estimate D2E/DX2                !
 ! R20   R(10,21)                1.0996         estimate D2E/DX2                !
 ! R21   R(10,22)                1.0986         estimate D2E/DX2                !
 ! R22   R(11,23)                1.0893         estimate D2E/DX2                !
 ! R23   R(11,24)                1.0869         estimate D2E/DX2                !
 ! R24   R(11,25)                1.0886         estimate D2E/DX2                !
 ! A1    A(1,2,3)              131.675          estimate D2E/DX2                !
 ! A2    A(1,2,9)              118.4859         estimate D2E/DX2                !
 ! A3    A(3,2,9)              109.8383         estimate D2E/DX2                !
 ! A4    A(2,3,4)              122.0107         estimate D2E/DX2                !
 ! A5    A(2,3,12)             117.2524         estimate D2E/DX2                !
 ! A6    A(4,3,12)             120.7367         estimate D2E/DX2                !
 ! A7    A(3,4,5)              123.2238         estimate D2E/DX2                !
 ! A8    A(4,5,6)              121.052          estimate D2E/DX2                !
 ! A9    A(4,5,13)             123.1826         estimate D2E/DX2                !
 ! A10   A(6,5,13)             115.6693         estimate D2E/DX2                !
 ! A11   A(5,6,7)              110.7601         estimate D2E/DX2                !
 ! A12   A(5,6,8)              110.0478         estimate D2E/DX2                !
 ! A13   A(5,6,14)             108.9262         estimate D2E/DX2                !
 ! A14   A(7,6,8)              110.0116         estimate D2E/DX2                !
 ! A15   A(7,6,14)             109.3131         estimate D2E/DX2                !
 ! A16   A(8,6,14)             107.7177         estimate D2E/DX2                !
 ! A17   A(6,7,15)             108.7114         estimate D2E/DX2                !
 ! A18   A(6,7,16)             110.1541         estimate D2E/DX2                !
 ! A19   A(6,7,17)             111.214          estimate D2E/DX2                !
 ! A20   A(15,7,16)            107.8205         estimate D2E/DX2                !
 ! A21   A(15,7,17)            109.8851         estimate D2E/DX2                !
 ! A22   A(16,7,17)            108.9923         estimate D2E/DX2                !
 ! A23   A(6,8,18)             111.2682         estimate D2E/DX2                !
 ! A24   A(6,8,19)             110.4172         estimate D2E/DX2                !
 ! A25   A(6,8,20)             109.2969         estimate D2E/DX2                !
 ! A26   A(18,8,19)            108.5259         estimate D2E/DX2                !
 ! A27   A(18,8,20)            108.8936         estimate D2E/DX2                !
 ! A28   A(19,8,20)            108.3769         estimate D2E/DX2                !
 ! A29   A(2,9,10)             114.9849         estimate D2E/DX2                !
 ! A30   A(9,10,11)            112.167          estimate D2E/DX2                !
 ! A31   A(9,10,21)            109.0268         estimate D2E/DX2                !
 ! A32   A(9,10,22)            106.8412         estimate D2E/DX2                !
 ! A33   A(11,10,21)           108.8893         estimate D2E/DX2                !
 ! A34   A(11,10,22)           110.3101         estimate D2E/DX2                !
 ! A35   A(21,10,22)           109.564          estimate D2E/DX2                !
 ! A36   A(10,11,23)           110.3985         estimate D2E/DX2                !
 ! A37   A(10,11,24)           108.7522         estimate D2E/DX2                !
 ! A38   A(10,11,25)           110.2147         estimate D2E/DX2                !
 ! A39   A(23,11,24)           109.307          estimate D2E/DX2                !
 ! A40   A(23,11,25)           109.3467         estimate D2E/DX2                !
 ! A41   A(24,11,25)           108.7923         estimate D2E/DX2                !
 ! D1    D(1,2,3,4)              0.2222         estimate D2E/DX2                !
 ! D2    D(1,2,3,12)          -179.903          estimate D2E/DX2                !
 ! D3    D(9,2,3,4)            179.8969         estimate D2E/DX2                !
 ! D4    D(9,2,3,12)            -0.2283         estimate D2E/DX2                !
 ! D5    D(1,2,9,10)            -3.5783         estimate D2E/DX2                !
 ! D6    D(3,2,9,10)           176.6981         estimate D2E/DX2                !
 ! D7    D(2,3,4,5)           -179.5844         estimate D2E/DX2                !
 ! D8    D(12,3,4,5)             0.5451         estimate D2E/DX2                !
 ! D9    D(3,4,5,6)           -177.5249         estimate D2E/DX2                !
 ! D10   D(3,4,5,13)            -1.2441         estimate D2E/DX2                !
 ! D11   D(4,5,6,7)            -26.5119         estimate D2E/DX2                !
 ! D12   D(4,5,6,8)             95.3522         estimate D2E/DX2                !
 ! D13   D(4,5,6,14)          -146.7694         estimate D2E/DX2                !
 ! D14   D(13,5,6,7)           156.9413         estimate D2E/DX2                !
 ! D15   D(13,5,6,8)           -81.1946         estimate D2E/DX2                !
 ! D16   D(13,5,6,14)           36.6838         estimate D2E/DX2                !
 ! D17   D(5,6,7,15)            52.2896         estimate D2E/DX2                !
 ! D18   D(5,6,7,16)           -65.6473         estimate D2E/DX2                !
 ! D19   D(5,6,7,17)           173.4001         estimate D2E/DX2                !
 ! D20   D(8,6,7,15)           -69.5957         estimate D2E/DX2                !
 ! D21   D(8,6,7,16)           172.4674         estimate D2E/DX2                !
 ! D22   D(8,6,7,17)            51.5148         estimate D2E/DX2                !
 ! D23   D(14,6,7,15)          172.3161         estimate D2E/DX2                !
 ! D24   D(14,6,7,16)           54.3792         estimate D2E/DX2                !
 ! D25   D(14,6,7,17)          -66.5734         estimate D2E/DX2                !
 ! D26   D(5,6,8,18)           177.8503         estimate D2E/DX2                !
 ! D27   D(5,6,8,19)            57.2729         estimate D2E/DX2                !
 ! D28   D(5,6,8,20)           -61.8549         estimate D2E/DX2                !
 ! D29   D(7,6,8,18)           -59.8419         estimate D2E/DX2                !
 ! D30   D(7,6,8,19)           179.5806         estimate D2E/DX2                !
 ! D31   D(7,6,8,20)            60.4528         estimate D2E/DX2                !
 ! D32   D(14,6,8,18)           59.2272         estimate D2E/DX2                !
 ! D33   D(14,6,8,19)          -61.3503         estimate D2E/DX2                !
 ! D34   D(14,6,8,20)          179.5219         estimate D2E/DX2                !
 ! D35   D(2,9,10,11)          -89.4646         estimate D2E/DX2                !
 ! D36   D(2,9,10,21)           31.218          estimate D2E/DX2                !
 ! D37   D(2,9,10,22)          149.543          estimate D2E/DX2                !
 ! D38   D(9,10,11,23)        -177.8799         estimate D2E/DX2                !
 ! D39   D(9,10,11,24)          62.2013         estimate D2E/DX2                !
 ! D40   D(9,10,11,25)         -56.9775         estimate D2E/DX2                !
 ! D41   D(21,10,11,23)         61.3581         estimate D2E/DX2                !
 ! D42   D(21,10,11,24)        -58.5608         estimate D2E/DX2                !
 ! D43   D(21,10,11,25)       -177.7395         estimate D2E/DX2                !
 ! D44   D(22,10,11,23)        -58.9084         estimate D2E/DX2                !
 ! D45   D(22,10,11,24)       -178.8273         estimate D2E/DX2                !
 ! D46   D(22,10,11,25)         61.9939         estimate D2E/DX2                !
 --------------------------------------------------------------------------------
 Trust Radius=3.00D-01 FncErr=1.00D-07 GrdErr=1.00D-06 EigMax=2.50D+02 EigMin=1.00D-04
 Number of steps in this run=    121 maximum allowed number of steps=    150.
 GradGradGradGradGradGradGradGradGradGradGradGradGradGradGradGradGradGrad

                          Input orientation:                          
 ---------------------------------------------------------------------
 Center     Atomic      Atomic             Coordinates (Angstroms)
 Number     Number       Type             X           Y           Z
 ---------------------------------------------------------------------
      1          8           0        1.473150   -0.522680   -1.246260
      2          6           0        1.329170    0.175030   -0.241460
      3          6           0        0.194360    0.608310    0.423970
      4          7           0       -1.037850    0.281780    0.012940
      5          6           0       -2.100640    0.674830    0.604540
      6          6           0       -3.460430    0.233250    0.132980
      7          6           0       -3.433540   -0.104710   -1.354620
      8          6           0       -3.927440   -0.987170    0.941050
      9          8           0        2.505390    0.678500    0.419420
     10          6           0        3.718830    0.244990   -0.123190
     11          6           0        4.202990   -1.059260    0.513920
     12          1           0        0.341510    1.235200    1.312930
     13          1           0       -2.089670    1.300980    1.516820
     14          1           0       -4.181320    1.047450    0.308640
     15          1           0       -2.627410   -0.808140   -1.537360
     16          1           0       -3.232960    0.790290   -1.938560
     17          1           0       -4.382400   -0.535130   -1.678980
     18          1           0       -4.928960   -1.301320    0.640730
     19          1           0       -3.942000   -0.755330    2.005290
     20          1           0       -3.236680   -1.811030    0.779130
     21          1           0        3.592320    0.087660   -1.204130
     22          1           0        4.449140    1.047460    0.048770
     23          1           0        5.166540   -1.350420    0.097520
     24          1           0        3.473470   -1.839050    0.311170
     25          1           0        4.297400   -0.939020    1.591760
 ---------------------------------------------------------------------
                    Distance matrix (angstroms):
                    1          2          3          4          5
     1  O    0.000000
     2  C    1.231727   0.000000
     3  C    2.388328   1.385035   0.000000
     4  N    2.921962   2.383044   1.339369   0.000000
     5  C    4.198984   3.567788   2.303054   1.278281   0.000000
     6  C    5.178218   4.804567   3.685490   2.426038   1.505454
     7  C    4.925652   4.899060   4.102857   2.785485   2.494517
     8  C    5.845207   5.511895   4.449962   3.289582   2.492525
     9  O    2.298444   1.440048   2.312100   3.588476   4.609750
    10  C    2.625582   2.393608   3.585146   4.758770   5.880526
    11  C    3.292139   3.217594   4.342579   5.432842   6.538427
    12  H    3.304573   2.124985   1.097677   2.121702   2.603829
    13  H    4.863541   4.005968   2.625054   2.099226   1.106544
    14  H    6.070919   5.606178   4.399173   3.248860   2.134393
    15  H    4.120779   4.277909   3.716925   2.473471   2.657898
    16  H    4.934637   4.906294   4.166676   2.980846   2.786187
    17  H    5.871530   5.932354   5.164938   3.836137   3.447448
    18  H    6.719674   6.490151   5.471936   4.247477   3.450489
    19  H    6.320645   5.805057   4.633526   3.671395   2.719938
    20  H    5.286260   5.082620   4.213239   3.130775   2.738717
    21  H    2.205713   2.460938   3.803672   4.791390   6.002154
    22  H    3.605407   3.252627   4.293807   5.540272   6.583871
    23  H    4.016470   4.143346   5.354042   6.416049   7.561125
    24  H    2.856519   2.993316   4.093270   4.993883   6.121794
    25  H    4.025430   3.662266   4.537940   5.696307   6.671884
                    6          7          8          9         10
     6  C    0.000000
     7  C    1.525744   0.000000
     8  C    1.536392   2.508540   0.000000
     9  O    5.989266   6.247522   6.665422   0.000000
    10  C    7.183838   7.266024   7.817690   1.398139   0.000000
    11  C    7.780983   7.919545   8.141961   2.431170   1.530160
    12  H    4.104989   4.812711   4.827127   2.406377   3.801217
    13  H    2.221271   3.468014   2.990742   4.765117   6.127269
    14  H    1.101572   2.157100   2.145711   6.697797   7.952534
    15  H    2.137394   1.085382   2.804398   5.690758   6.586632
    16  H    2.157154   1.087310   3.454536   6.204936   7.205575
    17  H    2.173393   1.091241   2.697385   7.301906   8.286072
    18  H    2.183872   2.765787   1.091753   7.696637   8.818102
    19  H    2.171346   3.459889   1.089297   6.792620   8.013700
    20  H    2.155610   2.739192   1.087250   6.268853   7.308934
    21  H    7.179857   7.030104   7.893279   2.041182   1.099631
    22  H    7.951813   8.089106   8.666197   2.012878   1.098581
    23  H    8.771196   8.810328   9.140239   3.361823   2.165620
    24  H    7.239140   7.313657   7.476357   2.699436   2.142917
    25  H    7.980362   8.315327   8.250681   2.683664   2.162794
                   11         12         13         14         15
    11  C    0.000000
    12  H    4.562235   0.000000
    13  H    6.795154   2.440601   0.000000
    14  H    8.647371   4.636792   2.428781   0.000000
    15  H    7.136188   4.594984   3.750409   3.043939   0.000000
    16  H    8.045424   4.852522   3.675264   2.452636   1.755742
    17  H    8.876511   5.865230   4.340628   2.548652   1.781735
    18  H    9.136038   5.887584   3.949819   2.487161   3.206935
    19  H    8.285977   4.773890   2.810363   2.487149   3.779061
    20  H    7.482258   4.729472   3.397709   3.047066   2.596753
    21  H    2.154075   4.268513   6.415662   7.977415   6.292737
    22  H    2.171457   4.301857   6.706376   8.634372   7.485761
    23  H    1.089308   5.607456   7.854739   9.652815   7.982015
    24  H    1.086913   4.501523   6.500916   8.180935   6.457598
    25  H    1.088628   4.522615   6.768891   8.802338   7.600100
                   16         17         18         19         20
    16  H    0.000000
    17  H    1.773508   0.000000
    18  H    3.728805   2.503364   0.000000
    19  H    4.294838   3.717026   1.770373   0.000000
    20  H    3.762010   2.997149   1.772786   1.765063   0.000000
    21  H    6.900545   8.013084   8.828646   8.232678   7.360271
    22  H    7.939161   9.137057   9.685863   8.802798   8.232631
    23  H    8.903924   9.746943  10.110223   9.325193   8.443392
    24  H    7.546583   8.208264   8.426066   7.683338   6.726506
    25  H    8.494704   9.284384   9.282319   8.251816   7.627787
                   21         22         23         24         25
    21  H    0.000000
    22  H    1.795861   0.000000
    23  H    2.498106   2.503371   0.000000
    24  H    2.454072   3.058223   1.775075   0.000000
    25  H    3.060753   2.519910   1.776910   1.768849   0.000000
 Stoichiometry    C8H14NO2(1-)
 Framework group  C1[X(C8H14NO2)]
 Deg. of freedom    69
 Full point group                 C1      NOp   1
 Largest Abelian subgroup         C1      NOp   1
 Largest concise Abelian subgroup C1      NOp   1
                         Standard orientation:                         
 ---------------------------------------------------------------------
 Center     Atomic      Atomic             Coordinates (Angstroms)
 Number     Number       Type             X           Y           Z
 ---------------------------------------------------------------------
      1          8           0       -1.514066    1.315695    0.330932
      2          6           0       -1.369601    0.231441   -0.235350
      3          6           0       -0.234643   -0.485647   -0.575903
      4          7           0        0.997124   -0.040254   -0.296112
      5          6           0        2.060087   -0.678894   -0.606356
      6          6           0        3.419013   -0.159431   -0.219227
      7          6           0        3.395105    1.358746   -0.069362
      8          6           0        3.876912   -0.810341    1.094982
      9          8           0       -2.545239   -0.484040   -0.659258
     10          6           0       -3.759222    0.111413   -0.303625
     11          6           0       -4.252372   -0.357023    1.067053
     12          1           0       -0.381307   -1.445406   -1.088003
     13          1           0        2.049521   -1.662043   -1.114042
     14          1           0        4.143664   -0.436977   -1.001090
     15          1           0        2.585829    1.629732    0.601229
     16          1           0        3.201176    1.827141   -1.031256
     17          1           0        4.342695    1.731804    0.322693
     18          1           0        4.877704   -0.475754    1.374968
     19          1           0        3.889286   -1.895206    0.997602
     20          1           0        3.182295   -0.545301    1.888313
     21          1           0       -3.630078    1.203209   -0.281451
     22          1           0       -4.485794   -0.157335   -1.082566
     23          1           0       -5.216116    0.094838    1.298591
     24          1           0       -3.526370   -0.060549    1.819651
     25          1           0       -4.349604   -1.441204    1.081476
 ---------------------------------------------------------------------
 Rotational constants (GHZ):           3.1197118           0.3769003           0.3694835
 Standard basis: def2SVP (5D, 7F)
 There are   235 symmetry adapted cartesian basis functions of A   symmetry.
 There are   224 symmetry adapted basis functions of A   symmetry.
   224 basis functions,   373 primitive gaussians,   235 cartesian basis functions
    43 alpha electrons       43 beta electrons
       nuclear repulsion energy       598.9430908849 Hartrees.
 NAtoms=   25 NActive=   25 NUniq=   25 SFac= 1.00D+00 NAtFMM=   60 NAOKFM=F Big=F
 Integral buffers will be    131072 words long.
 Raffenetti 2 integral format.
 Two-electron integral symmetry is turned on.
 Nuclear repulsion after empirical dispersion term =      598.9422826752 Hartrees.
 One-electron integrals computed using PRISM.
   1 Symmetry operations used in ECPInt.
 ECPInt:  NShTT=    5886 NPrTT=   20688 LenC2=    5358 LenP2D=   14063.
 LDataN:  DoStor=T MaxTD1= 4 Len=   56
 NBasis=   224 RedAO= T EigKep=  1.17D-03  NBF=   224
 NBsUse=   224 1.00D-06 EigRej= -1.00D+00 NBFU=   224
 ExpMin= 1.22D-01 ExpMax= 2.27D+03 ExpMxC= 3.41D+02 IAcc=3 IRadAn=         5 AccDes= 0.00D+00
 Harris functional with IExCor= 1009 and IRadAn=       5 diagonalized for initial guess.
 HarFok:  IExCor= 1009 AccDes= 0.00D+00 IRadAn=         5 IDoV= 1 UseB2=F ITyADJ=14
 ICtDFT=  3500011 ScaDFX=  1.000000  1.000000  1.000000  1.000000
 FoFCou: FMM=F IPFlag=           0 FMFlag=      100000 FMFlg1=           0
         NFxFlg=           0 DoJE=T BraDBF=F KetDBF=T FulRan=T
         wScrn=  0.000000 ICntrl=       500 IOpCl=  0 I1Cent=   200000004 NGrid=           0
         NMat0=    1 NMatS0=      1 NMatT0=    0 NMatD0=    1 NMtDS0=    0 NMtDT0=    0
 Petite list used in FoFCou.
 Requested convergence on RMS density matrix=1.00D-08 within 128 cycles.
 Requested convergence on MAX density matrix=1.00D-06.
 Requested convergence on             energy=1.00D-06.
 No special actions if energy rises.
 Integral accuracy reduced to 1.0D-05 until final iterations.
 Initial convergence to 1.0D-05 achieved.  Increase integral accuracy.
 SCF Done:  E(RM062X) =  -517.866489005     A.U. after   15 cycles
            NFock= 15  Conv=0.49D-08     -V/T= 2.0096

 **********************************************************************

            Population analysis using the SCF Density.

 **********************************************************************

 Orbital symmetries:
       Occupied  (A) (A) (A) (A) (A) (A) (A) (A) (A) (A) (A) (A)
                 (A) (A) (A) (A) (A) (A) (A) (A) (A) (A) (A) (A)
                 (A) (A) (A) (A) (A) (A) (A) (A) (A) (A) (A) (A)
                 (A) (A) (A) (A) (A) (A) (A)
       Virtual   (A) (A) (A) (A) (A) (A) (A) (A) (A) (A) (A) (A)
                 (A) (A) (A) (A) (A) (A) (A) (A) (A) (A) (A) (A)
                 (A) (A) (A) (A) (A) (A) (A) (A) (A) (A) (A) (A)
                 (A) (A) (A) (A) (A) (A) (A) (A) (A) (A) (A) (A)
                 (A) (A) (A) (A) (A) (A) (A) (A) (A) (A) (A) (A)
                 (A) (A) (A) (A) (A) (A) (A) (A) (A) (A) (A) (A)
                 (A) (A) (A) (A) (A) (A) (A) (A) (A) (A) (A) (A)
                 (A) (A) (A) (A) (A) (A) (A) (A) (A) (A) (A) (A)
                 (A) (A) (A) (A) (A) (A) (A) (A) (A) (A) (A) (A)
                 (A) (A) (A) (A) (A) (A) (A) (A) (A) (A) (A) (A)
                 (A) (A) (A) (A) (A) (A) (A) (A) (A) (A) (A) (A)
                 (A) (A) (A) (A) (A) (A) (A) (A) (A) (A) (A) (A)
                 (A) (A) (A) (A) (A) (A) (A) (A) (A) (A) (A) (A)
                 (A) (A) (A) (A) (A) (A) (A) (A) (A) (A) (A) (A)
                 (A) (A) (A) (A) (A) (A) (A) (A) (A) (A) (A) (A)
                 (A)
 The electronic state is 1-A.
 Alpha  occ. eigenvalues --  -19.47070 -19.40200 -14.57728 -10.46540 -10.45091
 Alpha  occ. eigenvalues --  -10.41548 -10.41360 -10.41296 -10.40161 -10.39149
 Alpha  occ. eigenvalues --  -10.35038  -0.99917  -0.90559  -0.84202  -0.74659
 Alpha  occ. eigenvalues --   -0.70434  -0.63701  -0.62865  -0.57443  -0.53274
 Alpha  occ. eigenvalues --   -0.47063  -0.43246  -0.42041  -0.39449  -0.37987
 Alpha  occ. eigenvalues --   -0.37293  -0.35917  -0.34669  -0.33700  -0.33139
 Alpha  occ. eigenvalues --   -0.31732  -0.31242  -0.29218  -0.28560  -0.26891
 Alpha  occ. eigenvalues --   -0.25825  -0.25301  -0.23389  -0.22454  -0.17873
 Alpha  occ. eigenvalues --   -0.14995  -0.13382  -0.03671
 Alpha virt. eigenvalues --    0.20697   0.22399   0.23322   0.26182   0.27043
 Alpha virt. eigenvalues --    0.27648   0.28398   0.28683   0.29681   0.30284
 Alpha virt. eigenvalues --    0.30779   0.32124   0.32883   0.34147   0.34500
 Alpha virt. eigenvalues --    0.35195   0.36545   0.37379   0.39869   0.40838
 Alpha virt. eigenvalues --    0.44723   0.46182   0.47962   0.51801   0.56486
 Alpha virt. eigenvalues --    0.58440   0.59525   0.60077   0.60897   0.62315
 Alpha virt. eigenvalues --    0.63539   0.64347   0.66450   0.68261   0.69270
 Alpha virt. eigenvalues --    0.71577   0.73413   0.75183   0.77644   0.78591
 Alpha virt. eigenvalues --    0.79713   0.80599   0.81446   0.82592   0.83548
 Alpha virt. eigenvalues --    0.83610   0.83806   0.84588   0.85293   0.86308
 Alpha virt. eigenvalues --    0.86580   0.87218   0.87393   0.87608   0.87812
 Alpha virt. eigenvalues --    0.88183   0.89181   0.89924   0.90221   0.91505
 Alpha virt. eigenvalues --    0.92713   0.93361   0.95193   0.99592   1.01711
 Alpha virt. eigenvalues --    1.04574   1.05929   1.08881   1.10735   1.11930
 Alpha virt. eigenvalues --    1.17853   1.18558   1.23719   1.26374   1.27941
 Alpha virt. eigenvalues --    1.30775   1.32043   1.35743   1.37685   1.41145
 Alpha virt. eigenvalues --    1.41431   1.43703   1.44390   1.48620   1.49312
 Alpha virt. eigenvalues --    1.53667   1.56983   1.58072   1.62268   1.65278
 Alpha virt. eigenvalues --    1.67613   1.70897   1.71197   1.72122   1.74247
 Alpha virt. eigenvalues --    1.74971   1.78083   1.79462   1.81543   1.87599
 Alpha virt. eigenvalues --    1.90492   1.90949   1.91852   1.94237   1.94933
 Alpha virt. eigenvalues --    1.95699   1.95986   1.97629   1.98585   1.98697
 Alpha virt. eigenvalues --    2.00600   2.01189   2.01717   2.02416   2.03193
 Alpha virt. eigenvalues --    2.05518   2.05853   2.06525   2.06896   2.08479
 Alpha virt. eigenvalues --    2.09252   2.12875   2.13727   2.14814   2.15453
 Alpha virt. eigenvalues --    2.17539   2.20684   2.20831   2.23190   2.28109
 Alpha virt. eigenvalues --    2.30293   2.31159   2.33837   2.37002   2.39710
 Alpha virt. eigenvalues --    2.41913   2.42742   2.46848   2.47549   2.52875
 Alpha virt. eigenvalues --    2.54073   2.55245   2.57954   2.60706   2.66427
 Alpha virt. eigenvalues --    2.66880   2.69663   2.70809   2.75712   2.77586
 Alpha virt. eigenvalues --    2.80580   2.84183   2.85345   2.87412   2.90554
 Alpha virt. eigenvalues --    2.93591   2.95024   2.96851   2.97338   2.99936
 Alpha virt. eigenvalues --    3.02061   3.02994   3.05312   3.06241   3.07913
 Alpha virt. eigenvalues --    3.08926   3.10131   3.13479   3.16939   3.17503
 Alpha virt. eigenvalues --    3.20605   3.22600   3.25409   3.29711   3.38213
 Alpha virt. eigenvalues --    3.44282   3.56542   3.58817   3.68004   3.83036
 Alpha virt. eigenvalues --    3.95552
          Condensed to atoms (all electrons):
               1          2          3          4          5          6
     1  O    7.869356   0.680431  -0.107552   0.000886   0.000328   0.000019
     2  C    0.680431   4.617637   0.308433  -0.065093   0.013788  -0.000004
     3  C   -0.107552   0.308433   5.394629   0.441228  -0.117139   0.016502
     4  N    0.000886  -0.065093   0.441228   6.260138   0.630852  -0.126156
     5  C    0.000328   0.013788  -0.117139   0.630852   5.085789   0.259075
     6  C    0.000019  -0.000004   0.016502  -0.126156   0.259075   5.102923
     7  C   -0.000083  -0.000137   0.000198  -0.001617  -0.046037   0.391060
     8  C   -0.000001   0.000033   0.000756  -0.007355  -0.087351   0.403793
     9  O   -0.092483   0.276344  -0.113827   0.002007  -0.000106   0.000000
    10  C   -0.005653  -0.039233   0.007919  -0.000193   0.000013  -0.000000
    11  C   -0.011374  -0.005358  -0.000197   0.000012  -0.000002  -0.000000
    12  H    0.004071  -0.060687   0.372882  -0.047992  -0.016357  -0.001824
    13  H   -0.000018  -0.001583  -0.016535  -0.039058   0.404590  -0.128152
    14  H   -0.000000   0.000012  -0.000261   0.005377  -0.023253   0.344945
    15  H    0.000431  -0.000116  -0.001064   0.029512  -0.017744  -0.024051
    16  H    0.000011  -0.000061  -0.000495   0.002020   0.001902  -0.022758
    17  H    0.000000  -0.000009   0.000016   0.001212   0.009667  -0.034636
    18  H    0.000000  -0.000000  -0.000018  -0.000004   0.010888  -0.018733
    19  H    0.000000  -0.000005  -0.000225  -0.000025   0.000494  -0.021634
    20  H    0.000001  -0.000075  -0.000605   0.005606   0.002258  -0.031809
    21  H    0.039763  -0.013724   0.003907  -0.000007   0.000002  -0.000000
    22  H    0.000684   0.006707   0.000029   0.000004  -0.000001   0.000000
    23  H   -0.000053   0.000001  -0.000011  -0.000000   0.000000   0.000000
    24  H    0.011743   0.004185  -0.000857  -0.000001   0.000003  -0.000000
    25  H    0.000334  -0.000470  -0.000227   0.000000   0.000000  -0.000000
               7          8          9         10         11         12
     1  O   -0.000083  -0.000001  -0.092483  -0.005653  -0.011374   0.004071
     2  C   -0.000137   0.000033   0.276344  -0.039233  -0.005358  -0.060687
     3  C    0.000198   0.000756  -0.113827   0.007919  -0.000197   0.372882
     4  N   -0.001617  -0.007355   0.002007  -0.000193   0.000012  -0.047992
     5  C   -0.046037  -0.087351  -0.000106   0.000013  -0.000002  -0.016357
     6  C    0.391060   0.403793   0.000000  -0.000000  -0.000000  -0.001824
     7  C    4.587652  -0.062689  -0.000000   0.000000  -0.000000   0.000068
     8  C   -0.062689   4.716858  -0.000000  -0.000000   0.000000  -0.000097
     9  O   -0.000000  -0.000000   8.186338   0.293469  -0.056034   0.011191
    10  C    0.000000  -0.000000   0.293469   4.463023   0.404505  -0.000083
    11  C   -0.000000   0.000000  -0.056034   0.404505   4.753316   0.000048
    12  H    0.000068  -0.000097   0.011191  -0.000083   0.000048   0.788058
    13  H    0.011048  -0.000131  -0.000005   0.000003  -0.000000   0.018432
    14  H   -0.027957  -0.051038  -0.000000   0.000000  -0.000000   0.000066
    15  H    0.393487  -0.008699   0.000003  -0.000000  -0.000000   0.000279
    16  H    0.383913   0.010331   0.000000  -0.000000   0.000000   0.000022
    17  H    0.373983  -0.003527   0.000000  -0.000000   0.000000   0.000007
    18  H   -0.006842   0.350257   0.000000   0.000000  -0.000000  -0.000001
    19  H    0.009983   0.368937   0.000000   0.000000  -0.000000   0.000041
    20  H   -0.004627   0.380887   0.000000   0.000000  -0.000000   0.000074
    21  H    0.000000   0.000000  -0.036183   0.373404  -0.037642  -0.000076
    22  H    0.000000  -0.000000  -0.033028   0.381403  -0.052585  -0.000219
    23  H   -0.000000  -0.000000   0.005336  -0.012107   0.342974   0.000000
    24  H    0.000000  -0.000000  -0.005476  -0.004541   0.372133  -0.000128
    25  H    0.000000  -0.000000   0.004179  -0.018211   0.368573   0.000100
              13         14         15         16         17         18
     1  O   -0.000018  -0.000000   0.000431   0.000011   0.000000   0.000000
     2  C   -0.001583   0.000012  -0.000116  -0.000061  -0.000009  -0.000000
     3  C   -0.016535  -0.000261  -0.001064  -0.000495   0.000016  -0.000018
     4  N   -0.039058   0.005377   0.029512   0.002020   0.001212  -0.000004
     5  C    0.404590  -0.023253  -0.017744   0.001902   0.009667   0.010888
     6  C   -0.128152   0.344945  -0.024051  -0.022758  -0.034636  -0.018733
     7  C    0.011048  -0.027957   0.393487   0.383913   0.373983  -0.006842
     8  C   -0.000131  -0.051038  -0.008699   0.010331  -0.003527   0.350257
     9  O   -0.000005  -0.000000   0.000003   0.000000   0.000000   0.000000
    10  C    0.000003   0.000000  -0.000000  -0.000000  -0.000000   0.000000
    11  C   -0.000000  -0.000000  -0.000000   0.000000   0.000000  -0.000000
    12  H    0.018432   0.000066   0.000279   0.000022   0.000007  -0.000001
    13  H    0.807474  -0.003236   0.001655   0.000694  -0.000356  -0.000543
    14  H   -0.003236   0.781826   0.009414  -0.010731  -0.005925  -0.005259
    15  H    0.001655   0.009414   0.599871  -0.017608  -0.026899  -0.000875
    16  H    0.000694  -0.010731  -0.017608   0.667945  -0.028432  -0.000308
    17  H   -0.000356  -0.005925  -0.026899  -0.028432   0.732864   0.003606
    18  H   -0.000543  -0.005259  -0.000875  -0.000308   0.003606   0.727862
    19  H    0.005624  -0.005932   0.000195  -0.000557  -0.000019  -0.026713
    20  H    0.000642   0.011118   0.007999  -0.000159  -0.001618  -0.024470
    21  H   -0.000001  -0.000000  -0.000001   0.000000  -0.000000  -0.000000
    22  H    0.000000   0.000000   0.000000  -0.000000  -0.000000   0.000000
    23  H    0.000000   0.000000   0.000000  -0.000000  -0.000000   0.000000
    24  H    0.000000   0.000000  -0.000000  -0.000000  -0.000000   0.000000
    25  H   -0.000000   0.000000  -0.000000  -0.000000  -0.000000   0.000000
              19         20         21         22         23         24
     1  O    0.000000   0.000001   0.039763   0.000684  -0.000053   0.011743
     2  C   -0.000005  -0.000075  -0.013724   0.006707   0.000001   0.004185
     3  C   -0.000225  -0.000605   0.003907   0.000029  -0.000011  -0.000857
     4  N   -0.000025   0.005606  -0.000007   0.000004  -0.000000  -0.000001
     5  C    0.000494   0.002258   0.000002  -0.000001   0.000000   0.000003
     6  C   -0.021634  -0.031809  -0.000000   0.000000   0.000000  -0.000000
     7  C    0.009983  -0.004627   0.000000   0.000000  -0.000000   0.000000
     8  C    0.368937   0.380887   0.000000  -0.000000  -0.000000  -0.000000
     9  O    0.000000   0.000000  -0.036183  -0.033028   0.005336  -0.005476
    10  C    0.000000   0.000000   0.373404   0.381403  -0.012107  -0.004541
    11  C   -0.000000  -0.000000  -0.037642  -0.052585   0.342974   0.372133
    12  H    0.000041   0.000074  -0.000076  -0.000219   0.000000  -0.000128
    13  H    0.005624   0.000642  -0.000001   0.000000   0.000000   0.000000
    14  H   -0.005932   0.011118  -0.000000   0.000000   0.000000   0.000000
    15  H    0.000195   0.007999  -0.000001   0.000000   0.000000  -0.000000
    16  H   -0.000557  -0.000159   0.000000  -0.000000  -0.000000  -0.000000
    17  H   -0.000019  -0.001618  -0.000000  -0.000000  -0.000000  -0.000000
    18  H   -0.026713  -0.024470  -0.000000   0.000000   0.000000   0.000000
    19  H    0.689033  -0.021466  -0.000000   0.000000   0.000000   0.000000
    20  H   -0.021466   0.647597  -0.000000   0.000000   0.000000   0.000000
    21  H   -0.000000  -0.000000   0.684773  -0.035030   0.000026  -0.011589
    22  H    0.000000   0.000000  -0.035030   0.748094  -0.000341   0.009100
    23  H    0.000000   0.000000   0.000026  -0.000341   0.711854  -0.019832
    24  H    0.000000   0.000000  -0.011589   0.009100  -0.019832   0.625538
    25  H    0.000000   0.000000   0.009636  -0.010681  -0.022909  -0.024925
              25
     1  O    0.000334
     2  C   -0.000470
     3  C   -0.000227
     4  N    0.000000
     5  C    0.000000
     6  C   -0.000000
     7  C    0.000000
     8  C   -0.000000
     9  O    0.004179
    10  C   -0.018211
    11  C    0.368573
    12  H    0.000100
    13  H   -0.000000
    14  H    0.000000
    15  H   -0.000000
    16  H   -0.000000
    17  H   -0.000000
    18  H    0.000000
    19  H    0.000000
    20  H    0.000000
    21  H    0.009636
    22  H   -0.010681
    23  H   -0.022909
    24  H   -0.024925
    25  H    0.678861
 Mulliken charges:
               1
     1  O   -0.390842
     2  C    0.278982
     3  C   -0.187484
     4  N   -0.091352
     5  C   -0.111659
     6  C   -0.108560
     7  C   -0.001400
     8  C   -0.010963
     9  O   -0.441725
    10  C    0.156283
    11  C   -0.078368
    12  H   -0.067875
    13  H   -0.060545
    14  H   -0.019165
    15  H    0.054211
    16  H    0.014270
    17  H   -0.019934
    18  H   -0.008849
    19  H    0.002269
    20  H    0.028649
    21  H    0.022743
    22  H   -0.014135
    23  H   -0.004939
    24  H    0.044648
    25  H    0.015740
 Sum of Mulliken charges =  -1.00000
 Mulliken charges with hydrogens summed into heavy atoms:
               1
     1  O   -0.390842
     2  C    0.278982
     3  C   -0.255359
     4  N   -0.091352
     5  C   -0.172204
     6  C   -0.127725
     7  C    0.047146
     8  C    0.011106
     9  O   -0.441725
    10  C    0.164891
    11  C   -0.022919
 Electronic spatial extent (au):  <R**2>=           3169.1706
 Charge=             -1.0000 electrons
 Dipole moment (field-independent basis, Debye):
    X=              0.8511    Y=             -1.4378    Z=              0.4105  Tot=              1.7205
 Quadrupole moment (field-independent basis, Debye-Ang):
   XX=            -92.8667   YY=            -78.2275   ZZ=            -74.4684
   XY=              0.8849   XZ=             -0.2931   YZ=             -1.6264
 Traceless Quadrupole moment (field-independent basis, Debye-Ang):
   XX=            -11.0125   YY=              3.6267   ZZ=              7.3858
   XY=              0.8849   XZ=             -0.2931   YZ=             -1.6264
 Octapole moment (field-independent basis, Debye-Ang**2):
  XXX=            -38.2094  YYY=             -2.5090  ZZZ=              1.1423  XYY=             -3.4205
  XXY=              4.5301  XXZ=             -8.1561  XZZ=             -5.5198  YZZ=              3.9997
  YYZ=             -2.5738  XYZ=              4.5596
 Hexadecapole moment (field-independent basis, Debye-Ang**3):
 XXXX=          -4088.7498 YYYY=           -372.1409 ZZZZ=           -299.7916 XXXY=            -20.0495
 XXXZ=              4.8865 YYYX=              1.3790 YYYZ=             -0.6771 ZZZX=              4.1311
 ZZZY=              2.4049 XXYY=           -728.1593 XXZZ=           -718.6639 YYZZ=           -110.5362
 XXYZ=              7.3329 YYXZ=              1.0873 ZZXY=              1.7592
 N-N= 5.989422826752D+02 E-N=-2.417543272936D+03  KE= 5.129639595121D+02
   1 Symmetry operations used in ECPInt.
 ECPInt:  NShTT=    5886 NPrTT=   20688 LenC2=    5358 LenP2D=   14063.
 LDataN:  DoStor=T MaxTD1= 5 Len=  102
 Calling FoFJK, ICntrl=      2127 FMM=F ISym2X=0 I1Cent= 0 IOpClX= 0 NMat=1 NMatS=1 NMatT=0.
 ***** Axes restored to original set *****
 -------------------------------------------------------------------
 Center     Atomic                   Forces (Hartrees/Bohr)
 Number     Number              X              Y              Z
 -------------------------------------------------------------------
      1        8           0.000568101    0.004740634    0.008985836
      2        6           0.022965730   -0.007431712   -0.012786041
      3        6          -0.000366379    0.008927005    0.014021916
      4        7          -0.005399578   -0.001512186   -0.004148250
      5        6          -0.006494518    0.001938694   -0.000346696
      6        6           0.000612715   -0.007301515   -0.001970269
      7        6          -0.004370355    0.002374940    0.007798890
      8        6          -0.001713076    0.009421285   -0.004005935
      9        8          -0.007436442   -0.005729537   -0.005319109
     10        6          -0.004052830   -0.003476392    0.000312916
     11        6          -0.004473254    0.011391512   -0.004377793
     12        1           0.000118446    0.000948160    0.001638405
     13        1           0.003573281    0.001373971    0.002353797
     14        1          -0.002235732    0.002276969    0.000415151
     15        1           0.006485800   -0.005110397   -0.002423305
     16        1           0.002563027    0.005945847   -0.005442935
     17        1          -0.006630736   -0.002899820   -0.002731069
     18        1          -0.007718746   -0.003270539   -0.001308029
     19        1           0.000043097    0.000388841    0.008011516
     20        1           0.005951956   -0.006632280   -0.001088374
     21        1           0.002049774    0.000464633   -0.001050655
     22        1           0.002871006    0.001990636    0.000168904
     23        1           0.007284537   -0.003306249   -0.002330222
     24        1          -0.005170417   -0.005904310   -0.002127141
     25        1           0.000974594    0.000391810    0.007748493
 -------------------------------------------------------------------
 Cartesian Forces:  Max     0.022965730 RMS     0.005723196

 GradGradGradGradGradGradGradGradGradGradGradGradGradGradGradGradGradGrad
 Berny optimization.
 FormGI is forming the generalized inverse of G from B-inverse, IUseBI=4.
 Internal  Forces:  Max     0.020094156 RMS     0.004108903
 Search for a local minimum.
 Step number   1 out of a maximum of  121
 All quantities printed in internal units (Hartrees-Bohrs-Radians)
 Mixed Optimization -- RFO/linear search
 Second derivative matrix not updated -- first step.
 ITU=  0
     Eigenvalues ---    0.00285   0.00367   0.00425   0.00694   0.01162
     Eigenvalues ---    0.01429   0.01716   0.01988   0.02287   0.02359
     Eigenvalues ---    0.02494   0.03302   0.04162   0.04809   0.04986
     Eigenvalues ---    0.05491   0.05591   0.05648   0.05683   0.05691
     Eigenvalues ---    0.05814   0.05841   0.05883   0.11723   0.13955
     Eigenvalues ---    0.15987   0.16000   0.16000   0.16000   0.16000
     Eigenvalues ---    0.16000   0.16000   0.16000   0.16000   0.16000
     Eigenvalues ---    0.16000   0.16420   0.17872   0.22000   0.22005
     Eigenvalues ---    0.22118   0.25000   0.25000   0.25000   0.25000
     Eigenvalues ---    0.28841   0.29409   0.29820   0.31812   0.32969
     Eigenvalues ---    0.33509   0.33723   0.33839   0.33940   0.34611
     Eigenvalues ---    0.34670   0.34893   0.34894   0.34972   0.35125
     Eigenvalues ---    0.35132   0.35172   0.35352   0.39579   0.45930
     Eigenvalues ---    0.48193   0.57347   0.73605   0.90370
 RFO step:  Lambda=-5.58984879D-03 EMin= 2.84550859D-03
 Linear search not attempted -- first point.
 Iteration  1 RMS(Cart)=  0.08558040 RMS(Int)=  0.00268391
 Iteration  2 RMS(Cart)=  0.00483320 RMS(Int)=  0.00007268
 Iteration  3 RMS(Cart)=  0.00001318 RMS(Int)=  0.00007237
 Iteration  4 RMS(Cart)=  0.00000000 RMS(Int)=  0.00007237
 Variable       Old X    -DE/DX   Delta X   Delta X   Delta X     New X
                                 (Linear)    (Quad)   (Total)
    R1        2.32763  -0.00995   0.00000  -0.01094  -0.01094   2.31669
    R2        2.61734   0.02009   0.00000   0.04122   0.04122   2.65855
    R3        2.72130  -0.01116   0.00000  -0.02780  -0.02780   2.69349
    R4        2.53104   0.01634   0.00000   0.02821   0.02821   2.55925
    R5        2.07431   0.00188   0.00000   0.00546   0.00546   2.07977
    R6        2.41560   0.00746   0.00000   0.01006   0.01006   2.42566
    R7        2.84490   0.00860   0.00000   0.02657   0.02657   2.87147
    R8        2.09106   0.00275   0.00000   0.00821   0.00821   2.09928
    R9        2.88324   0.00262   0.00000   0.00863   0.00863   2.89187
   R10        2.90336   0.00197   0.00000   0.00669   0.00669   2.91005
   R11        2.08167   0.00321   0.00000   0.00943   0.00943   2.09110
   R12        2.05107   0.00854   0.00000   0.02377   0.02377   2.07485
   R13        2.05472   0.00829   0.00000   0.02323   0.02323   2.07795
   R14        2.06215   0.00772   0.00000   0.02192   0.02192   2.08406
   R15        2.06311   0.00838   0.00000   0.02383   0.02383   2.08695
   R16        2.05847   0.00791   0.00000   0.02231   0.02231   2.08078
   R17        2.05460   0.00897   0.00000   0.02513   0.02513   2.07974
   R18        2.64210  -0.00028   0.00000  -0.00061  -0.00061   2.64149
   R19        2.89158  -0.00308   0.00000  -0.01029  -0.01029   2.88129
   R20        2.07800   0.00073   0.00000   0.00213   0.00213   2.08013
   R21        2.07602   0.00339   0.00000   0.00985   0.00985   2.08587
   R22        2.05849   0.00822   0.00000   0.02318   0.02318   2.08168
   R23        2.05397   0.00810   0.00000   0.02268   0.02268   2.07665
   R24        2.05721   0.00780   0.00000   0.02195   0.02195   2.07916
    A1        2.29816   0.00122   0.00000   0.00480   0.00464   2.30281
    A2        2.06797  -0.00276   0.00000  -0.01077  -0.01093   2.05704
    A3        1.91704   0.00155   0.00000   0.00612   0.00597   1.92301
    A4        2.12949  -0.00281   0.00000  -0.01245  -0.01245   2.11704
    A5        2.04644   0.00155   0.00000   0.00710   0.00710   2.05354
    A6        2.10725   0.00126   0.00000   0.00535   0.00535   2.11260
    A7        2.15066   0.00593   0.00000   0.02318   0.02318   2.17385
    A8        2.11276   0.00446   0.00000   0.01964   0.01962   2.13237
    A9        2.14994  -0.00589   0.00000  -0.03229  -0.03230   2.11764
   A10        2.01881   0.00142   0.00000   0.01199   0.01197   2.03078
   A11        1.93313   0.00143   0.00000   0.01897   0.01873   1.95186
   A12        1.92070   0.00075   0.00000   0.01408   0.01378   1.93448
   A13        1.90112  -0.00100   0.00000  -0.01495  -0.01479   1.88633
   A14        1.92006  -0.00036   0.00000   0.00659   0.00622   1.92628
   A15        1.90787  -0.00045   0.00000  -0.01175  -0.01166   1.89621
   A16        1.88003  -0.00043   0.00000  -0.01432  -0.01426   1.86577
   A17        1.89737   0.00086   0.00000   0.00402   0.00401   1.90138
   A18        1.92255   0.00148   0.00000   0.00857   0.00855   1.93111
   A19        1.94105   0.00029   0.00000   0.00338   0.00336   1.94441
   A20        1.88182  -0.00157   0.00000  -0.01283  -0.01283   1.86899
   A21        1.91786  -0.00048   0.00000  -0.00202  -0.00203   1.91583
   A22        1.90227  -0.00065   0.00000  -0.00163  -0.00167   1.90061
   A23        1.94200   0.00181   0.00000   0.01296   0.01291   1.95491
   A24        1.92714   0.00142   0.00000   0.00853   0.00847   1.93562
   A25        1.90759  -0.00081   0.00000  -0.00684  -0.00682   1.90077
   A26        1.89413  -0.00125   0.00000  -0.00389  -0.00400   1.89014
   A27        1.90055  -0.00045   0.00000  -0.00246  -0.00244   1.89811
   A28        1.89153  -0.00080   0.00000  -0.00895  -0.00893   1.88260
   A29        2.00686   0.00106   0.00000   0.00414   0.00414   2.01100
   A30        1.95768  -0.00338   0.00000  -0.01334  -0.01333   1.94436
   A31        1.90288   0.00247   0.00000   0.01961   0.01961   1.92249
   A32        1.86473   0.00113   0.00000   0.00451   0.00447   1.86920
   A33        1.90048  -0.00006   0.00000  -0.00204  -0.00200   1.89848
   A34        1.92527   0.00077   0.00000  -0.00002  -0.00003   1.92525
   A35        1.91225  -0.00088   0.00000  -0.00847  -0.00852   1.90374
   A36        1.92682   0.00187   0.00000   0.01130   0.01128   1.93810
   A37        1.89808  -0.00061   0.00000  -0.00453  -0.00452   1.89356
   A38        1.92361   0.00057   0.00000   0.00428   0.00425   1.92786
   A39        1.90777  -0.00082   0.00000  -0.00664  -0.00662   1.90115
   A40        1.90846  -0.00106   0.00000  -0.00480  -0.00485   1.90361
   A41        1.89878   0.00003   0.00000   0.00017   0.00018   1.89896
    D1        0.00388  -0.00045   0.00000  -0.01787  -0.01792  -0.01404
    D2       -3.13990  -0.00049   0.00000  -0.01920  -0.01925   3.12404
    D3        3.13979   0.00042   0.00000   0.01670   0.01674  -3.12665
    D4       -0.00398   0.00038   0.00000   0.01537   0.01541   0.01143
    D5       -0.06245   0.00150   0.00000   0.07968   0.07957   0.01711
    D6        3.08396   0.00074   0.00000   0.05025   0.05036   3.13432
    D7       -3.13434   0.00015   0.00000   0.00497   0.00497  -3.12937
    D8        0.00951   0.00019   0.00000   0.00635   0.00635   0.01586
    D9       -3.09839   0.00086   0.00000   0.02795   0.02784  -3.07055
   D10       -0.02171   0.00083   0.00000   0.01568   0.01579  -0.00593
   D11       -0.46272  -0.00027   0.00000   0.00490   0.00474  -0.45798
   D12        1.66421   0.00073   0.00000   0.03531   0.03538   1.69959
   D13       -2.56161   0.00004   0.00000   0.01724   0.01721  -2.54440
   D14        2.73914   0.00004   0.00000   0.01792   0.01783   2.75698
   D15       -1.41711   0.00103   0.00000   0.04832   0.04847  -1.36864
   D16        0.64025   0.00035   0.00000   0.03025   0.03030   0.67055
   D17        0.91263   0.00069   0.00000   0.02889   0.02894   0.94156
   D18       -1.14576   0.00122   0.00000   0.03709   0.03715  -1.10861
   D19        3.02640   0.00085   0.00000   0.03114   0.03119   3.05759
   D20       -1.21467  -0.00096   0.00000  -0.00590  -0.00594  -1.22061
   D21        3.01012  -0.00043   0.00000   0.00231   0.00227   3.01240
   D22        0.89910  -0.00080   0.00000  -0.00364  -0.00369   0.89541
   D23        3.00748   0.00006   0.00000   0.01469   0.01468   3.02216
   D24        0.94910   0.00058   0.00000   0.02289   0.02289   0.97198
   D25       -1.16192   0.00021   0.00000   0.01695   0.01693  -1.14500
   D26        3.10407  -0.00093   0.00000  -0.02482  -0.02482   3.07925
   D27        0.99960  -0.00151   0.00000  -0.03423  -0.03429   0.96531
   D28       -1.07957  -0.00088   0.00000  -0.02418  -0.02421  -1.10378
   D29       -1.04444   0.00112   0.00000   0.01264   0.01269  -1.03175
   D30        3.13427   0.00054   0.00000   0.00323   0.00321   3.13749
   D31        1.05510   0.00117   0.00000   0.01329   0.01330   1.06840
   D32        1.03371   0.00011   0.00000  -0.00631  -0.00626   1.02745
   D33       -1.07077  -0.00046   0.00000  -0.01571  -0.01573  -1.08650
   D34        3.13325   0.00016   0.00000  -0.00566  -0.00564   3.12760
   D35       -1.56145   0.00150   0.00000   0.06016   0.06019  -1.50126
   D36        0.54486   0.00094   0.00000   0.06233   0.06225   0.60711
   D37        2.61002   0.00183   0.00000   0.06520   0.06524   2.67526
   D38       -3.10459   0.00033   0.00000   0.01568   0.01566  -3.08893
   D39        1.08562   0.00059   0.00000   0.01981   0.01981   1.10543
   D40       -0.99444   0.00059   0.00000   0.01983   0.01984  -0.97460
   D41        1.07090  -0.00057   0.00000   0.00098   0.00097   1.07187
   D42       -1.02208  -0.00031   0.00000   0.00512   0.00512  -1.01696
   D43       -3.10214  -0.00031   0.00000   0.00514   0.00515  -3.09699
   D44       -1.02815   0.00007   0.00000   0.01270   0.01268  -1.01546
   D45       -3.12113   0.00033   0.00000   0.01683   0.01683  -3.10429
   D46        1.08200   0.00033   0.00000   0.01685   0.01687   1.09886
         Item               Value     Threshold  Converged?
 Maximum Force            0.020094     0.000450     NO 
 RMS     Force            0.004109     0.000300     NO 
 Maximum Displacement     0.374891     0.001800     NO 
 RMS     Displacement     0.088139     0.001200     NO 
 Predicted change in Energy=-2.943726D-03
 GradGradGradGradGradGradGradGradGradGradGradGradGradGradGradGradGradGrad

                          Input orientation:                          
 ---------------------------------------------------------------------
 Center     Atomic      Atomic             Coordinates (Angstroms)
 Number     Number       Type             X           Y           Z
 ---------------------------------------------------------------------
      1          8           0        1.530054   -0.509672   -1.174435
      2          6           0        1.375488    0.201660   -0.188008
      3          6           0        0.219128    0.649716    0.476292
      4          7           0       -1.017993    0.315437    0.038211
      5          6           0       -2.113015    0.698925    0.587305
      6          6           0       -3.471556    0.218369    0.105267
      7          6           0       -3.442981   -0.180271   -1.371935
      8          6           0       -3.975324   -0.954120    0.967167
      9          8           0        2.541554    0.674164    0.481773
     10          6           0        3.756055    0.280923   -0.087645
     11          6           0        4.195130   -1.085618    0.426682
     12          1           0        0.354240    1.279952    1.368365
     13          1           0       -2.110755    1.346532    1.489899
     14          1           0       -4.194297    1.046295    0.234351
     15          1           0       -2.641710   -0.914636   -1.527467
     16          1           0       -3.211289    0.689358   -2.003753
     17          1           0       -4.407894   -0.607560   -1.692279
     18          1           0       -4.989619   -1.277639    0.673633
     19          1           0       -3.995432   -0.678025    2.032904
     20          1           0       -3.285568   -1.803863    0.851492
     21          1           0        3.663511    0.234020   -1.183504
     22          1           0        4.503039    1.048646    0.178773
     23          1           0        5.178008   -1.365854    0.015722
     24          1           0        3.451703   -1.831539    0.112786
     25          1           0        4.252494   -1.082730    1.525424
 ---------------------------------------------------------------------
                    Distance matrix (angstroms):
                    1          2          3          4          5
     1  O    0.000000
     2  C    1.225937   0.000000
     3  C    2.405744   1.406846   0.000000
     4  N    2.940044   2.406838   1.354298   0.000000
     5  C    4.223314   3.608051   2.335302   1.283604   0.000000
     6  C    5.213806   4.855936   3.734282   2.456398   1.519515
     7  C    4.987844   4.976464   4.185196   2.848650   2.525949
     8  C    5.923949   5.594769   4.517374   3.349708   2.518938
     9  O    2.273241   1.425334   2.322562   3.604970   4.655831
    10  C    2.600237   2.384000   3.600540   4.775831   5.922521
    11  C    3.161949   3.159955   4.338484   5.412072   6.557674
    12  H    3.324323   2.151269   1.100567   2.140706   2.652356
    13  H    4.878489   4.034847   2.634636   2.089182   1.110890
    14  H    6.097040   5.649274   4.437806   3.265200   2.139387
    15  H    4.206215   4.379286   3.827093   2.569219   2.712076
    16  H    4.960421   4.957147   4.233197   3.019931   2.814228
    17  H    5.961289   6.030354   5.262392   3.916369   3.488535
    18  H    6.819916   6.591307   5.557399   4.326137   3.491290
    19  H    6.391116   5.878187   4.684917   3.718993   2.743946
    20  H    5.382334   5.179587   4.294615   3.208544   2.776440
    21  H    2.259381   2.495418   3.845972   4.838977   6.059716
    22  H    3.619139   3.260904   4.312721   5.571279   6.637874
    23  H    3.931550   4.117981   5.372628   6.420099   7.599278
    24  H    2.664021   2.921481   4.091248   4.959159   6.131436
    25  H    3.876766   3.586457   4.513324   5.651965   6.676381
                    6          7          8          9         10
     6  C    0.000000
     7  C    1.530313   0.000000
     8  C    1.539930   2.520641   0.000000
     9  O    6.042102   6.323050   6.734732   0.000000
    10  C    7.230455   7.327225   7.900138   1.397815   0.000000
    11  C    7.783429   7.899077   8.189367   2.415405   1.524714
    12  H    4.166424   4.905139   4.888472   2.436671   3.832801
    13  H    2.245381   3.506572   3.007135   4.807533   6.167951
    14  H    1.106562   2.156176   2.141641   6.750658   7.993595
    15  H    2.153640   1.097961   2.829008   5.781657   6.665872
    16  H    2.176589   1.099605   3.480106   6.266840   7.237553
    17  H    2.188621   1.102838   2.716593   7.393520   8.367455
    18  H    2.205809   2.789383   1.104364   7.782346   8.916023
    19  H    2.189464   3.485096   1.101103   6.853219   8.093322
    20  H    2.163531   2.757619   1.100549   6.342922   7.403564
    21  H    7.250542   7.121052   8.024267   2.055641   1.100759
    22  H    8.018038   8.188661   8.747301   2.019770   1.103795
    23  H    8.793903   8.812074   9.211854   3.365972   2.178189
    24  H    7.220367   7.243463   7.527321   2.691296   2.143665
    25  H    7.960568   8.272210   8.247738   2.665183   2.169790
                   11         12         13         14         15
    11  C    0.000000
    12  H    4.608159   0.000000
    13  H    6.841781   2.468887   0.000000
    14  H    8.658206   4.693588   2.451059   0.000000
    15  H    7.112687   4.709329   3.807794   3.059375   0.000000
    16  H    7.994536   4.942973   3.721379   2.470389   1.767503
    17  H    8.873024   5.967258   4.384242   2.548090   1.800239
    18  H    9.190074   5.964960   3.980002   2.495230   3.238717
    19  H    8.356518   4.816112   2.818810   2.499523   3.816384
    20  H    7.527097   4.798466   3.422387   3.054513   2.620062
    21  H    2.148665   4.307816   6.459637   8.025911   6.418220
    22  H    2.170565   4.322171   6.749079   8.697514   7.603498
    23  H    1.101575   5.665568   7.915573   9.680204   7.983296
    24  H    1.098914   4.566414   6.552673   8.170558   6.376585
    25  H    1.100242   4.561065   6.811278   8.806128   7.541780
                   16         17         18         19         20
    16  H    0.000000
    17  H    1.791892   0.000000
    18  H    3.768280   2.526847   0.000000
    19  H    4.333500   3.748610   1.787613   0.000000
    20  H    3.791319   3.026802   1.792299   1.779650   0.000000
    21  H    6.938517   8.131094   8.978348   8.356825   7.522226
    22  H    8.025171   9.254652   9.786064   8.868101   8.321764
    23  H    8.870315   9.766360  10.189272   9.417756   8.516013
    24  H    7.431698   8.156571   8.478046   7.776714   6.777704
    25  H    8.444137   9.251038   9.283328   8.273428   7.602407
                   21         22         23         24         25
    21  H    0.000000
    22  H    1.795611   0.000000
    23  H    2.508274   2.512365   0.000000
    24  H    2.447808   3.066778   1.790646   0.000000
    25  H    3.069042   2.533576   1.793303   1.788163   0.000000
 Stoichiometry    C8H14NO2(1-)
 Framework group  C1[X(C8H14NO2)]
 Deg. of freedom    69
 Full point group                 C1      NOp   1
 Largest Abelian subgroup         C1      NOp   1
 Largest concise Abelian subgroup C1      NOp   1
                         Standard orientation:                         
 ---------------------------------------------------------------------
 Center     Atomic      Atomic             Coordinates (Angstroms)
 Number     Number       Type             X           Y           Z
 ---------------------------------------------------------------------
      1          8           0       -1.559525    1.296053    0.122222
      2          6           0       -1.406450    0.146423   -0.275070
      3          6           0       -0.251168   -0.621320   -0.509827
      4          7           0        0.986565   -0.108511   -0.311923
      5          6           0        2.080723   -0.747207   -0.518136
      6          6           0        3.439694   -0.150529   -0.192405
      7          6           0        3.414797    1.378980   -0.235311
      8          6           0        3.938262   -0.640167    1.179844
      9          8           0       -2.573542   -0.628206   -0.538550
     10          6           0       -3.787137    0.033038   -0.329190
     11          6           0       -4.230757   -0.065726    1.126213
     12          1           0       -0.387655   -1.656595   -0.857427
     13          1           0        2.077093   -1.797861   -0.878956
     14          1           0        4.163830   -0.513841   -0.946135
     15          1           0        2.612416    1.740911    0.420973
     16          1           0        3.186938    1.734678   -1.250539
     17          1           0        4.379760    1.806392    0.084716
     18          1           0        4.952750   -0.268378    1.408334
     19          1           0        3.955692   -1.740331    1.221817
     20          1           0        3.247022   -0.283502    1.958423
     21          1           0       -3.691325    1.095907   -0.599007
     22          1           0       -4.533268   -0.441093   -0.990137
     23          1           0       -5.212972    0.410726    1.273573
     24          1           0       -3.487989    0.447620    1.752619
     25          1           0       -4.291493   -1.118785    1.439119
 ---------------------------------------------------------------------
 Rotational constants (GHZ):           3.1129276           0.3718472           0.3644428
 Standard basis: def2SVP (5D, 7F)
 There are   235 symmetry adapted cartesian basis functions of A   symmetry.
 There are   224 symmetry adapted basis functions of A   symmetry.
   224 basis functions,   373 primitive gaussians,   235 cartesian basis functions
    43 alpha electrons       43 beta electrons
       nuclear repulsion energy       596.2372742654 Hartrees.
 NAtoms=   25 NActive=   25 NUniq=   25 SFac= 1.00D+00 NAtFMM=   60 NAOKFM=F Big=F
 Integral buffers will be    131072 words long.
 Raffenetti 2 integral format.
 Two-electron integral symmetry is turned on.
 Nuclear repulsion after empirical dispersion term =      596.2364689789 Hartrees.
 One-electron integrals computed using PRISM.
   1 Symmetry operations used in ECPInt.
 ECPInt:  NShTT=    5886 NPrTT=   20688 LenC2=    5344 LenP2D=   14011.
 LDataN:  DoStor=T MaxTD1= 4 Len=   56
 NBasis=   224 RedAO= T EigKep=  1.31D-03  NBF=   224
 NBsUse=   224 1.00D-06 EigRej= -1.00D+00 NBFU=   224
 Initial guess from the checkpoint file:  "A18_crest_conformers_censo-13.chk"
 B after Tr=    -0.000000    0.000000    0.000000
         Rot=    0.996511    0.083442   -0.001551   -0.001060 Ang=   9.58 deg.
 ExpMin= 1.22D-01 ExpMax= 2.27D+03 ExpMxC= 3.41D+02 IAcc=3 IRadAn=         5 AccDes= 0.00D+00
 Harris functional with IExCor= 1009 and IRadAn=       5 diagonalized for initial guess.
 HarFok:  IExCor= 1009 AccDes= 0.00D+00 IRadAn=         5 IDoV= 1 UseB2=F ITyADJ=14
 ICtDFT=  3500011 ScaDFX=  1.000000  1.000000  1.000000  1.000000
 FoFCou: FMM=F IPFlag=           0 FMFlag=      100000 FMFlg1=           0
         NFxFlg=           0 DoJE=T BraDBF=F KetDBF=T FulRan=T
         wScrn=  0.000000 ICntrl=       500 IOpCl=  0 I1Cent=   200000004 NGrid=           0
         NMat0=    1 NMatS0=      1 NMatT0=    0 NMatD0=    1 NMtDS0=    0 NMtDT0=    0
 Petite list used in FoFCou.
 Requested convergence on RMS density matrix=1.00D-08 within 128 cycles.
 Requested convergence on MAX density matrix=1.00D-06.
 Requested convergence on             energy=1.00D-06.
 No special actions if energy rises.
 Integral accuracy reduced to 1.0D-05 until final iterations.
 Initial convergence to 1.0D-05 achieved.  Increase integral accuracy.
 SCF Done:  E(RM062X) =  -517.869277565     A.U. after   13 cycles
            NFock= 13  Conv=0.64D-08     -V/T= 2.0101
   1 Symmetry operations used in ECPInt.
 ECPInt:  NShTT=    5886 NPrTT=   20688 LenC2=    5344 LenP2D=   14011.
 LDataN:  DoStor=T MaxTD1= 5 Len=  102
 Calling FoFJK, ICntrl=      2127 FMM=F ISym2X=0 I1Cent= 0 IOpClX= 0 NMat=1 NMatS=1 NMatT=0.
 ***** Axes restored to original set *****
 -------------------------------------------------------------------
 Center     Atomic                   Forces (Hartrees/Bohr)
 Number     Number              X              Y              Z
 -------------------------------------------------------------------
      1        8          -0.002062817    0.001672417    0.000422746
      2        6           0.007440752   -0.003581216    0.001832498
      3        6          -0.003573183    0.002496658    0.001370023
      4        7           0.000339221   -0.000940038   -0.001525809
      5        6          -0.000199812   -0.000849379   -0.000473009
      6        6           0.000975448   -0.000661188   -0.000048832
      7        6           0.000334671    0.000916511    0.002680331
      8        6           0.000812163    0.001952625   -0.001266143
      9        8          -0.004875090    0.001049793   -0.002967381
     10        6          -0.000491242   -0.002088152    0.000944506
     11        6          -0.000290132    0.000529426   -0.001087847
     12        1          -0.000118201   -0.000037236   -0.000559622
     13        1          -0.000310475   -0.000197683    0.000655776
     14        1          -0.000181820    0.000562990   -0.000308957
     15        1           0.000427110   -0.000315903   -0.000552059
     16        1           0.000471269   -0.000293477   -0.000029065
     17        1           0.000271707    0.000010028    0.000082415
     18        1           0.000163339    0.000027781    0.000095342
     19        1           0.000189489   -0.000289987   -0.000017500
     20        1          -0.000077144   -0.000641566    0.000417978
     21        1           0.000465696    0.000759704   -0.000094804
     22        1          -0.000422685    0.000140823    0.000190373
     23        1           0.000350771   -0.000578576    0.000434297
     24        1           0.000164756    0.000333678   -0.000129789
     25        1           0.000196211    0.000021968   -0.000065470
 -------------------------------------------------------------------
 Cartesian Forces:  Max     0.007440752 RMS     0.001484296

 GradGradGradGradGradGradGradGradGradGradGradGradGradGradGradGradGradGrad
 Berny optimization.
 Using GEDIIS/GDIIS optimizer.
 FormGI is forming the generalized inverse of G from B-inverse, IUseBI=4.
 Internal  Forces:  Max     0.005257217 RMS     0.001014611
 Search for a local minimum.
 Step number   2 out of a maximum of  121
 All quantities printed in internal units (Hartrees-Bohrs-Radians)
 Mixed Optimization -- RFO/linear search
 Update second derivatives using D2CorX and points    1    2
 DE= -2.79D-03 DEPred=-2.94D-03 R= 9.47D-01
 TightC=F SS=  1.41D+00  RLast= 2.28D-01 DXNew= 5.0454D-01 6.8381D-01
 Trust test= 9.47D-01 RLast= 2.28D-01 DXMaxT set to 5.05D-01
 ITU=  1  0
 Use linear search instead of GDIIS.
     Eigenvalues ---    0.00285   0.00367   0.00426   0.00684   0.01155
     Eigenvalues ---    0.01409   0.01637   0.02051   0.02287   0.02359
     Eigenvalues ---    0.02495   0.03327   0.04085   0.04885   0.05035
     Eigenvalues ---    0.05379   0.05521   0.05570   0.05697   0.05724
     Eigenvalues ---    0.05829   0.05841   0.05850   0.11643   0.13870
     Eigenvalues ---    0.15658   0.15994   0.16000   0.16000   0.16000
     Eigenvalues ---    0.16000   0.16000   0.16000   0.16000   0.16000
     Eigenvalues ---    0.16128   0.16765   0.18266   0.21571   0.22061
     Eigenvalues ---    0.22525   0.24869   0.24998   0.25000   0.25656
     Eigenvalues ---    0.28847   0.29312   0.29856   0.31779   0.32975
     Eigenvalues ---    0.33480   0.33723   0.33859   0.33929   0.34635
     Eigenvalues ---    0.34699   0.34840   0.34933   0.35012   0.35034
     Eigenvalues ---    0.35143   0.35251   0.35652   0.39205   0.45931
     Eigenvalues ---    0.47834   0.59364   0.74310   0.89848
 RFO step:  Lambda=-8.66594476D-04 EMin= 2.84554056D-03
 Quartic linear search produced a step of  0.00092.
 Iteration  1 RMS(Cart)=  0.08588762 RMS(Int)=  0.00198476
 Iteration  2 RMS(Cart)=  0.00358330 RMS(Int)=  0.00010204
 Iteration  3 RMS(Cart)=  0.00000503 RMS(Int)=  0.00010199
 Iteration  4 RMS(Cart)=  0.00000000 RMS(Int)=  0.00010199
 Variable       Old X    -DE/DX   Delta X   Delta X   Delta X     New X
                                 (Linear)    (Quad)   (Total)
    R1        2.31669  -0.00157  -0.00001  -0.00322  -0.00323   2.31345
    R2        2.65855   0.00119   0.00004   0.00807   0.00811   2.66667
    R3        2.69349  -0.00526  -0.00003  -0.01700  -0.01703   2.67646
    R4        2.55925  -0.00266   0.00003  -0.00078  -0.00075   2.55850
    R5        2.07977  -0.00049   0.00001  -0.00069  -0.00068   2.07909
    R6        2.42566  -0.00186   0.00001  -0.00115  -0.00114   2.42452
    R7        2.87147  -0.00376   0.00002  -0.00813  -0.00811   2.86336
    R8        2.09928   0.00042   0.00001   0.00238   0.00238   2.10166
    R9        2.89187  -0.00216   0.00001  -0.00603  -0.00602   2.88585
   R10        2.91005  -0.00158   0.00001  -0.00455  -0.00454   2.90550
   R11        2.09110   0.00050   0.00001   0.00278   0.00279   2.09389
   R12        2.07485   0.00060   0.00002   0.00493   0.00495   2.07979
   R13        2.07795  -0.00011   0.00002   0.00284   0.00286   2.08081
   R14        2.08406  -0.00027   0.00002   0.00222   0.00224   2.08631
   R15        2.08695  -0.00018   0.00002   0.00272   0.00274   2.08969
   R16        2.08078  -0.00009   0.00002   0.00277   0.00279   2.08357
   R17        2.07974   0.00040   0.00002   0.00457   0.00459   2.08433
   R18        2.64149   0.00015  -0.00000   0.00023   0.00023   2.64172
   R19        2.88129  -0.00044  -0.00001  -0.00289  -0.00290   2.87839
   R20        2.08013   0.00002   0.00000   0.00036   0.00036   2.08049
   R21        2.08587  -0.00014   0.00001   0.00093   0.00094   2.08681
   R22        2.08168   0.00030   0.00002   0.00401   0.00403   2.08571
   R23        2.07665  -0.00030   0.00002   0.00224   0.00226   2.07891
   R24        2.07916  -0.00006   0.00002   0.00283   0.00285   2.08201
    A1        2.30281  -0.00167   0.00000  -0.00551  -0.00609   2.29672
    A2        2.05704   0.00263  -0.00001   0.00943   0.00883   2.06587
    A3        1.92301  -0.00093   0.00001  -0.00239  -0.00297   1.92004
    A4        2.11704  -0.00208  -0.00001  -0.01106  -0.01107   2.10597
    A5        2.05354   0.00109   0.00001   0.00601   0.00601   2.05954
    A6        2.11260   0.00098   0.00000   0.00507   0.00507   2.11767
    A7        2.17385  -0.00183   0.00002  -0.00413  -0.00411   2.16974
    A8        2.13237  -0.00240   0.00002  -0.00790  -0.00793   2.12445
    A9        2.11764   0.00157  -0.00003   0.00380   0.00372   2.12137
   A10        2.03078   0.00085   0.00001   0.00527   0.00524   2.03602
   A11        1.95186  -0.00142   0.00002  -0.00996  -0.00995   1.94192
   A12        1.93448   0.00039   0.00001   0.00113   0.00113   1.93561
   A13        1.88633   0.00032  -0.00001   0.00083   0.00082   1.88715
   A14        1.92628   0.00058   0.00001   0.00179   0.00179   1.92807
   A15        1.89621   0.00035  -0.00001   0.00341   0.00339   1.89960
   A16        1.86577  -0.00016  -0.00001   0.00347   0.00344   1.86921
   A17        1.90138   0.00056   0.00000   0.00344   0.00344   1.90482
   A18        1.93111   0.00014   0.00001   0.00190   0.00190   1.93301
   A19        1.94441  -0.00004   0.00000   0.00090   0.00090   1.94531
   A20        1.86899  -0.00051  -0.00001  -0.00631  -0.00632   1.86268
   A21        1.91583  -0.00024  -0.00000  -0.00154  -0.00155   1.91428
   A22        1.90061   0.00007  -0.00000   0.00128   0.00128   1.90189
   A23        1.95491  -0.00010   0.00001   0.00123   0.00124   1.95615
   A24        1.93562   0.00012   0.00001   0.00158   0.00159   1.93721
   A25        1.90077   0.00089  -0.00001   0.00479   0.00478   1.90556
   A26        1.89014  -0.00005  -0.00000  -0.00122  -0.00122   1.88891
   A27        1.89811  -0.00036  -0.00000  -0.00195  -0.00196   1.89615
   A28        1.88260  -0.00054  -0.00001  -0.00478  -0.00479   1.87781
   A29        2.01100   0.00078   0.00000   0.00365   0.00366   2.01466
   A30        1.94436   0.00098  -0.00001   0.00331   0.00328   1.94764
   A31        1.92249  -0.00009   0.00002   0.00493   0.00493   1.92742
   A32        1.86920  -0.00091   0.00000  -0.00669  -0.00668   1.86252
   A33        1.89848  -0.00016  -0.00000   0.00088   0.00086   1.89934
   A34        1.92525   0.00039  -0.00000   0.00249   0.00249   1.92774
   A35        1.90374  -0.00024  -0.00001  -0.00513  -0.00513   1.89860
   A36        1.93810   0.00108   0.00001   0.00853   0.00854   1.94665
   A37        1.89356  -0.00045  -0.00000  -0.00335  -0.00336   1.89021
   A38        1.92786  -0.00010   0.00000  -0.00041  -0.00041   1.92745
   A39        1.90115  -0.00022  -0.00001  -0.00157  -0.00157   1.89958
   A40        1.90361  -0.00053  -0.00000  -0.00400  -0.00401   1.89960
   A41        1.89896   0.00020   0.00000   0.00068   0.00067   1.89963
    D1       -0.01404   0.00082  -0.00002   0.03593   0.03582   0.02178
    D2        3.12404   0.00094  -0.00002   0.04065   0.04054  -3.11861
    D3       -3.12665  -0.00069   0.00002  -0.03081  -0.03070   3.12584
    D4        0.01143  -0.00057   0.00001  -0.02609  -0.02598  -0.01456
    D5        0.01711  -0.00021   0.00007   0.01138   0.01125   0.02836
    D6        3.13432   0.00099   0.00005   0.06728   0.06753  -3.08133
    D7       -3.12937  -0.00004   0.00000  -0.00086  -0.00085  -3.13022
    D8        0.01586  -0.00017   0.00001  -0.00573  -0.00573   0.01013
    D9       -3.07055  -0.00065   0.00003  -0.02194  -0.02191  -3.09246
   D10       -0.00593  -0.00038   0.00001  -0.00276  -0.00275  -0.00867
   D11       -0.45798   0.00044   0.00000   0.06097   0.06097  -0.39700
   D12        1.69959   0.00045   0.00003   0.05692   0.05696   1.75654
   D13       -2.54440   0.00067   0.00002   0.06222   0.06224  -2.48216
   D14        2.75698   0.00015   0.00002   0.04271   0.04273   2.79971
   D15       -1.36864   0.00016   0.00004   0.03866   0.03871  -1.32993
   D16        0.67055   0.00037   0.00003   0.04397   0.04399   0.71455
   D17        0.94156   0.00003   0.00003   0.01108   0.01111   0.95267
   D18       -1.10861   0.00023   0.00003   0.01557   0.01561  -1.09300
   D19        3.05759   0.00007   0.00003   0.01202   0.01206   3.06965
   D20       -1.22061   0.00012  -0.00001   0.01545   0.01544  -1.20518
   D21        3.01240   0.00032   0.00000   0.01994   0.01994   3.03234
   D22        0.89541   0.00017  -0.00000   0.01639   0.01639   0.91180
   D23        3.02216  -0.00022   0.00001   0.00824   0.00824   3.03040
   D24        0.97198  -0.00002   0.00002   0.01273   0.01275   0.98473
   D25       -1.14500  -0.00018   0.00002   0.00918   0.00919  -1.13581
   D26        3.07925   0.00045  -0.00002  -0.00938  -0.00940   3.06986
   D27        0.96531   0.00050  -0.00003  -0.00978  -0.00980   0.95550
   D28       -1.10378   0.00054  -0.00002  -0.00784  -0.00785  -1.11163
   D29       -1.03175  -0.00068   0.00001  -0.02010  -0.02009  -1.05184
   D30        3.13749  -0.00063   0.00000  -0.02049  -0.02050   3.11699
   D31        1.06840  -0.00060   0.00001  -0.01855  -0.01855   1.04986
   D32        1.02745  -0.00004  -0.00001  -0.01302  -0.01303   1.01442
   D33       -1.08650   0.00000  -0.00001  -0.01342  -0.01344  -1.09994
   D34        3.12760   0.00004  -0.00001  -0.01148  -0.01149   3.11612
   D35       -1.50126   0.00100   0.00006   0.05961   0.05965  -1.44161
   D36        0.60711   0.00138   0.00006   0.06622   0.06629   0.67341
   D37        2.67526   0.00052   0.00006   0.05888   0.05894   2.73419
   D38       -3.08893   0.00030   0.00001   0.01523   0.01525  -3.07368
   D39        1.10543   0.00020   0.00002   0.01413   0.01415   1.11958
   D40       -0.97460   0.00029   0.00002   0.01561   0.01563  -0.95898
   D41        1.07187  -0.00011   0.00000   0.00637   0.00636   1.07823
   D42       -1.01696  -0.00021   0.00000   0.00526   0.00526  -1.01169
   D43       -3.09699  -0.00012   0.00000   0.00674   0.00674  -3.09025
   D44       -1.01546   0.00005   0.00001   0.01060   0.01061  -1.00485
   D45       -3.10429  -0.00005   0.00002   0.00950   0.00951  -3.09478
   D46        1.09886   0.00003   0.00002   0.01097   0.01099   1.10985
         Item               Value     Threshold  Converged?
 Maximum Force            0.005257     0.000450     NO 
 RMS     Force            0.001015     0.000300     NO 
 Maximum Displacement     0.290346     0.001800     NO 
 RMS     Displacement     0.087177     0.001200     NO 
 Predicted change in Energy=-4.523409D-04
 GradGradGradGradGradGradGradGradGradGradGradGradGradGradGradGradGradGrad

                          Input orientation:                          
 ---------------------------------------------------------------------
 Center     Atomic      Atomic             Coordinates (Angstroms)
 Number     Number       Type             X           Y           Z
 ---------------------------------------------------------------------
      1          8           0        1.517264   -0.545979   -1.116848
      2          6           0        1.371196    0.151065   -0.121095
      3          6           0        0.211645    0.620830    0.531652
      4          7           0       -1.019429    0.287515    0.077335
      5          6           0       -2.118143    0.683935    0.608161
      6          6           0       -3.465276    0.224032    0.088907
      7          6           0       -3.370352   -0.239247   -1.363154
      8          6           0       -4.041569   -0.893813    0.973380
      9          8           0        2.527719    0.650177    0.526449
     10          6           0        3.744343    0.314507   -0.074704
     11          6           0        4.207637   -1.077024    0.336482
     12          1           0        0.340765    1.263481    1.415269
     13          1           0       -2.127030    1.339502    1.506511
     14          1           0       -4.167194    1.079458    0.146394
     15          1           0       -2.590628   -1.011626   -1.445235
     16          1           0       -3.064109    0.591027   -2.018382
     17          1           0       -4.333117   -0.643251   -1.721950
     18          1           0       -5.057090   -1.193989    0.654883
     19          1           0       -4.090520   -0.577156    2.028374
     20          1           0       -3.380484   -1.775119    0.920210
     21          1           0        3.653650    0.349098   -1.171365
     22          1           0        4.477533    1.075619    0.245606
     23          1           0        5.200574   -1.313909   -0.083200
     24          1           0        3.478588   -1.809379   -0.040858
     25          1           0        4.257000   -1.157284    1.434197
 ---------------------------------------------------------------------
                    Distance matrix (angstroms):
                    1          2          3          4          5
     1  O    0.000000
     2  C    1.224226   0.000000
     3  C    2.404918   1.411139   0.000000
     4  N    2.924995   2.402724   1.353901   0.000000
     5  C    4.207674   3.604337   2.331898   1.283002   0.000000
     6  C    5.183866   4.841579   3.724678   2.446698   1.515224
     7  C    4.903421   4.917044   4.142550   2.807013   2.511250
     8  C    5.949005   5.620291   4.536419   3.366268   2.514407
     9  O    2.269853   1.416324   2.316266   3.593813   4.646703
    10  C    2.605069   2.379221   3.597423   4.766274   5.913672
    11  C    3.103592   3.124577   4.346119   5.408451   6.571931
    12  H    3.327147   2.158627   1.100206   2.143060   2.652080
    13  H    4.870106   4.037211   2.633675   2.091890   1.112152
    14  H    6.045732   5.622030   4.419615   3.246593   2.137353
    15  H    4.147220   4.336040   3.798121   2.544533   2.704552
    16  H    4.805677   4.844089   4.151401   2.943614   2.793244
    17  H    5.882395   5.977697   5.227953   3.883849   3.478067
    18  H    6.839669   6.613182   5.573897   4.339484   3.488007
    19  H    6.429668   5.914462   4.709987   3.739761   2.738180
    20  H    5.445028   5.231918   4.335314   3.246457   2.781695
    21  H    2.316955   2.520294   3.849870   4.837428   6.049167
    22  H    3.639925   3.261687   4.299587   5.555719   6.617235
    23  H    3.901912   4.100210   5.386155   6.424856   7.617937
    24  H    2.569188   2.879389   4.111763   4.964181   6.161268
    25  H    3.793109   3.529671   4.510119   5.636419   6.686917
                    6          7          8          9         10
     6  C    0.000000
     7  C    1.527128   0.000000
     8  C    1.537525   2.517615   0.000000
     9  O    6.024038   6.256909   6.763076   0.000000
    10  C    7.212043   7.251595   7.948518   1.397938   0.000000
    11  C    7.786375   7.811309   8.275784   2.416906   1.523179
    12  H    4.162408   4.873420   4.904492   2.439039   3.834698
    13  H    2.246058   3.503324   2.989546   4.806494   6.166350
    14  H    1.108037   2.157006   2.143243   6.719418   7.951506
    15  H    2.155331   1.100580   2.822907   5.731195   6.615802
    16  H    2.176301   1.101119   3.480060   6.143957   7.085857
    17  H    2.187357   1.104025   2.722606   7.334803   8.299162
    18  H    2.205671   2.798052   1.105816   7.806842   8.959525
    19  H    2.189604   3.483575   1.102579   6.896609   8.161071
    20  H    2.166763   2.751865   1.102978   6.398748   7.491299
    21  H    7.230701   7.051208   8.084624   2.059354   1.100948
    22  H    7.989867   8.118268   8.774019   2.015353   1.104290
    23  H    8.802945   8.732351   9.311823   3.372456   2.184587
    24  H    7.236632   7.149948   7.643278   2.697296   2.140716
    25  H    7.959359   8.175846   8.315528   2.661077   2.169278
                   11         12         13         14         15
    11  C    0.000000
    12  H    4.646982   0.000000
    13  H    6.880158   2.470652   0.000000
    14  H    8.650106   4.686748   2.465727   0.000000
    15  H    7.028171   4.685260   3.802043   3.064551   0.000000
    16  H    7.823431   4.882144   3.723333   2.478228   1.766686
    17  H    8.796010   5.943311   4.384187   2.546756   1.802371
    18  H    9.270935   5.979481   3.965993   2.493800   3.244563
    19  H    8.483618   4.837369   2.793065   2.508406   3.808464
    20  H    7.642490   4.829687   3.408191   3.060444   2.608088
    21  H    2.148099   4.301392   6.447339   7.964641   6.396685
    22  H    2.171399   4.303051   6.729024   8.645297   7.561377
    23  H    1.103708   5.701411   7.953713   9.671401   7.915133
    24  H    1.100110   4.626954   6.613075   8.175477   6.280450
    25  H    1.101752   4.604058   6.855290   8.810703   7.429828
                   16         17         18         19         20
    16  H    0.000000
    17  H    1.794908   0.000000
    18  H    3.782142   2.544952   0.000000
    19  H    4.335252   3.758744   1.789195   0.000000
    20  H    3.786036   3.028143   1.794190   1.779689   0.000000
    21  H    6.775268   8.066992   9.032901   8.430210   7.639766
    22  H    7.889033   9.189850   9.809570   8.906260   8.386312
    23  H    8.699351   9.696729  10.284883   9.556463   8.651827
    24  H    7.244269   8.075188   8.586068   7.943015   6.926160
    25  H    8.281035   9.166003   9.346708   8.388724   7.679653
                   21         22         23         24         25
    21  H    0.000000
    22  H    1.792881   0.000000
    23  H    2.518465   2.518084   0.000000
    24  H    2.442890   3.066458   1.792350   0.000000
    25  H    3.069555   2.539141   1.793700   1.790794   0.000000
 Stoichiometry    C8H14NO2(1-)
 Framework group  C1[X(C8H14NO2)]
 Deg. of freedom    69
 Full point group                 C1      NOp   1
 Largest Abelian subgroup         C1      NOp   1
 Largest concise Abelian subgroup C1      NOp   1
                         Standard orientation:                         
 ---------------------------------------------------------------------
 Center     Atomic      Atomic             Coordinates (Angstroms)
 Number     Number       Type             X           Y           Z
 ---------------------------------------------------------------------
      1          8           0       -1.554242    1.267099    0.005278
      2          6           0       -1.405620    0.074930   -0.230040
      3          6           0       -0.244372   -0.709772   -0.394542
      4          7           0        0.985502   -0.157246   -0.271372
      5          6           0        2.085625   -0.800905   -0.418102
      6          6           0        3.431227   -0.137634   -0.205190
      7          6           0        3.333705    1.377663   -0.367939
      8          6           0        4.006248   -0.494239    1.175450
      9          8           0       -2.560386   -0.721183   -0.426742
     10          6           0       -3.778375   -0.037943   -0.364155
     11          6           0       -4.244034    0.147016    1.074256
     12          1           0       -0.371176   -1.777904   -0.625773
     13          1           0        2.096871   -1.887474   -0.655005
     14          1           0        4.134950   -0.534386   -0.963548
     15          1           0        2.552316    1.763230    0.304404
     16          1           0        3.028408    1.641192   -1.392541
     17          1           0        4.295236    1.870852   -0.141901
     18          1           0        5.020792   -0.079750    1.322853
     19          1           0        4.057046   -1.587162    1.311907
     20          1           0        3.343309   -0.090908    1.959284
     21          1           0       -3.688861    0.951503   -0.838571
     22          1           0       -4.509647   -0.639717   -0.932102
     23          1           0       -5.237929    0.624766    1.120076
     24          1           0       -3.516909    0.789342    1.592858
     25          1           0       -4.292310   -0.824874    1.590935
 ---------------------------------------------------------------------
 Rotational constants (GHZ):           3.1955309           0.3737431           0.3643948
 Standard basis: def2SVP (5D, 7F)
 There are   235 symmetry adapted cartesian basis functions of A   symmetry.
 There are   224 symmetry adapted basis functions of A   symmetry.
   224 basis functions,   373 primitive gaussians,   235 cartesian basis functions
    43 alpha electrons       43 beta electrons
       nuclear repulsion energy       597.4377316587 Hartrees.
 NAtoms=   25 NActive=   25 NUniq=   25 SFac= 1.00D+00 NAtFMM=   60 NAOKFM=F Big=F
 Integral buffers will be    131072 words long.
 Raffenetti 2 integral format.
 Two-electron integral symmetry is turned on.
 Nuclear repulsion after empirical dispersion term =      597.4369273101 Hartrees.
 One-electron integrals computed using PRISM.
   1 Symmetry operations used in ECPInt.
 ECPInt:  NShTT=    5886 NPrTT=   20688 LenC2=    5349 LenP2D=   14023.
 LDataN:  DoStor=T MaxTD1= 4 Len=   56
 NBasis=   224 RedAO= T EigKep=  1.30D-03  NBF=   224
 NBsUse=   224 1.00D-06 EigRej= -1.00D+00 NBFU=   224
 Initial guess from the checkpoint file:  "A18_crest_conformers_censo-13.chk"
 B after Tr=    -0.000000   -0.000000   -0.000000
         Rot=    0.998069    0.062057   -0.001205   -0.002216 Ang=   7.12 deg.
 ExpMin= 1.22D-01 ExpMax= 2.27D+03 ExpMxC= 3.41D+02 IAcc=3 IRadAn=         5 AccDes= 0.00D+00
 Harris functional with IExCor= 1009 and IRadAn=       5 diagonalized for initial guess.
 HarFok:  IExCor= 1009 AccDes= 0.00D+00 IRadAn=         5 IDoV= 1 UseB2=F ITyADJ=14
 ICtDFT=  3500011 ScaDFX=  1.000000  1.000000  1.000000  1.000000
 FoFCou: FMM=F IPFlag=           0 FMFlag=      100000 FMFlg1=           0
         NFxFlg=           0 DoJE=T BraDBF=F KetDBF=T FulRan=T
         wScrn=  0.000000 ICntrl=       500 IOpCl=  0 I1Cent=   200000004 NGrid=           0
         NMat0=    1 NMatS0=      1 NMatT0=    0 NMatD0=    1 NMtDS0=    0 NMtDT0=    0
 Petite list used in FoFCou.
 Requested convergence on RMS density matrix=1.00D-08 within 128 cycles.
 Requested convergence on MAX density matrix=1.00D-06.
 Requested convergence on             energy=1.00D-06.
 No special actions if energy rises.
 Integral accuracy reduced to 1.0D-05 until final iterations.
 Initial convergence to 1.0D-05 achieved.  Increase integral accuracy.
 SCF Done:  E(RM062X) =  -517.869641093     A.U. after   13 cycles
            NFock= 13  Conv=0.48D-08     -V/T= 2.0101
   1 Symmetry operations used in ECPInt.
 ECPInt:  NShTT=    5886 NPrTT=   20688 LenC2=    5349 LenP2D=   14023.
 LDataN:  DoStor=T MaxTD1= 5 Len=  102
 Calling FoFJK, ICntrl=      2127 FMM=F ISym2X=0 I1Cent= 0 IOpClX= 0 NMat=1 NMatS=1 NMatT=0.
 ***** Axes restored to original set *****
 -------------------------------------------------------------------
 Center     Atomic                   Forces (Hartrees/Bohr)
 Number     Number              X              Y              Z
 -------------------------------------------------------------------
      1        8          -0.000058393   -0.002471463   -0.000239393
      2        6           0.000847782    0.006531468    0.000070579
      3        6          -0.001340489   -0.001778472   -0.000263518
      4        7           0.002040884    0.000113283    0.000649874
      5        6          -0.000109253    0.000180890    0.000087421
      6        6           0.000317485    0.000069855    0.000257922
      7        6           0.000067260   -0.000421732   -0.000348120
      8        6          -0.000038823   -0.000040908    0.000172991
      9        8          -0.001324368   -0.000370023   -0.000467930
     10        6           0.000529344   -0.001366337    0.000948721
     11        6           0.000519184   -0.001857000   -0.000519472
     12        1          -0.000122589   -0.000298130   -0.000332194
     13        1          -0.000274045   -0.000728002   -0.000039641
     14        1          -0.000170379   -0.000273464   -0.000450445
     15        1          -0.000951719    0.000946145   -0.000153182
     16        1          -0.000008197   -0.000983884    0.000788133
     17        1           0.000716471    0.000324443    0.000311047
     18        1           0.000938564    0.000230151    0.000341480
     19        1           0.000017746   -0.000292816   -0.000859911
     20        1          -0.000826854    0.000745218    0.000141243
     21        1          -0.000172579    0.000490376   -0.000347426
     22        1          -0.000615049   -0.000356664    0.000085465
     23        1          -0.000816784    0.000382476    0.000574801
     24        1           0.000755988    0.000947948    0.000543635
     25        1           0.000078816    0.000276639   -0.000952081
 -------------------------------------------------------------------
 Cartesian Forces:  Max     0.006531468 RMS     0.001046151

 GradGradGradGradGradGradGradGradGradGradGradGradGradGradGradGradGradGrad
 Berny optimization.
 Using GEDIIS/GDIIS optimizer.
 FormGI is forming the generalized inverse of G from B-inverse, IUseBI=4.
 Internal  Forces:  Max     0.002009441 RMS     0.000638168
 Search for a local minimum.
 Step number   3 out of a maximum of  121
 All quantities printed in internal units (Hartrees-Bohrs-Radians)
 Mixed Optimization -- En-DIIS/RFO-DIIS
 Update second derivatives using D2CorX and points    1    2    3
 DE= -3.64D-04 DEPred=-4.52D-04 R= 8.04D-01
 TightC=F SS=  1.41D+00  RLast= 2.09D-01 DXNew= 8.4853D-01 6.2595D-01
 Trust test= 8.04D-01 RLast= 2.09D-01 DXMaxT set to 6.26D-01
 ITU=  1  1  0
 Use linear search instead of GDIIS.
     Eigenvalues ---    0.00281   0.00365   0.00401   0.00505   0.01180
     Eigenvalues ---    0.01343   0.01442   0.02278   0.02355   0.02488
     Eigenvalues ---    0.03278   0.03733   0.04374   0.04937   0.05018
     Eigenvalues ---    0.05358   0.05495   0.05545   0.05672   0.05756
     Eigenvalues ---    0.05794   0.05838   0.05850   0.11600   0.13923
     Eigenvalues ---    0.15438   0.15997   0.16000   0.16000   0.16000
     Eigenvalues ---    0.16000   0.16000   0.16000   0.16000   0.16039
     Eigenvalues ---    0.16153   0.16778   0.18175   0.21167   0.22337
     Eigenvalues ---    0.22741   0.24679   0.24999   0.25149   0.26289
     Eigenvalues ---    0.28717   0.29393   0.29762   0.32659   0.32979
     Eigenvalues ---    0.33468   0.33783   0.33859   0.33908   0.34634
     Eigenvalues ---    0.34742   0.34854   0.34925   0.34985   0.35058
     Eigenvalues ---    0.35141   0.35338   0.35727   0.38918   0.45946
     Eigenvalues ---    0.48328   0.59847   0.74268   0.90880
 RFO step:  Lambda=-6.30945590D-04 EMin= 2.81392315D-03
 Quartic linear search produced a step of -0.14109.
 Iteration  1 RMS(Cart)=  0.08906540 RMS(Int)=  0.00288210
 Iteration  2 RMS(Cart)=  0.00417021 RMS(Int)=  0.00013794
 Iteration  3 RMS(Cart)=  0.00000621 RMS(Int)=  0.00013787
 Iteration  4 RMS(Cart)=  0.00000000 RMS(Int)=  0.00013787
 Variable       Old X    -DE/DX   Delta X   Delta X   Delta X     New X
                                 (Linear)    (Quad)   (Total)
    R1        2.31345   0.00160   0.00046  -0.00210  -0.00164   2.31181
    R2        2.66667  -0.00080  -0.00114   0.00857   0.00742   2.67409
    R3        2.67646  -0.00157   0.00240  -0.01960  -0.01720   2.65927
    R4        2.55850  -0.00183   0.00011  -0.00109  -0.00098   2.55752
    R5        2.07909  -0.00046   0.00010  -0.00125  -0.00115   2.07793
    R6        2.42452   0.00031   0.00016   0.00015   0.00031   2.42484
    R7        2.86336  -0.00022   0.00114  -0.00531  -0.00417   2.85919
    R8        2.10166  -0.00046  -0.00034   0.00149   0.00115   2.10281
    R9        2.88585  -0.00054   0.00085  -0.00585  -0.00500   2.88086
   R10        2.90550  -0.00062   0.00064  -0.00504  -0.00440   2.90110
   R11        2.09389  -0.00013  -0.00039   0.00274   0.00235   2.09624
   R12        2.07979  -0.00133  -0.00070   0.00289   0.00219   2.08199
   R13        2.08081  -0.00121  -0.00040   0.00135   0.00094   2.08176
   R14        2.08631  -0.00084  -0.00032   0.00156   0.00124   2.08755
   R15        2.08969  -0.00102  -0.00039   0.00170   0.00131   2.09100
   R16        2.08357  -0.00091  -0.00039   0.00191   0.00152   2.08509
   R17        2.08433  -0.00110  -0.00065   0.00321   0.00256   2.08688
   R18        2.64172   0.00046  -0.00003   0.00096   0.00093   2.64265
   R19        2.87839   0.00030   0.00041  -0.00238  -0.00197   2.87642
   R20        2.08049   0.00038  -0.00005   0.00137   0.00132   2.08181
   R21        2.08681  -0.00063  -0.00013   0.00002  -0.00012   2.08669
   R22        2.08571  -0.00104  -0.00057   0.00272   0.00215   2.08785
   R23        2.07891  -0.00132  -0.00032   0.00056   0.00024   2.07915
   R24        2.08201  -0.00096  -0.00040   0.00181   0.00141   2.08341
    A1        2.29672  -0.00087   0.00086  -0.00684  -0.00678   2.28994
    A2        2.06587  -0.00029  -0.00125   0.00625   0.00420   2.07006
    A3        1.92004   0.00125   0.00042   0.00275   0.00236   1.92240
    A4        2.10597  -0.00009   0.00156  -0.01054  -0.00898   2.09699
    A5        2.05954   0.00012  -0.00085   0.00610   0.00525   2.06479
    A6        2.11767  -0.00003  -0.00071   0.00445   0.00373   2.12140
    A7        2.16974  -0.00025   0.00058  -0.00247  -0.00189   2.16785
    A8        2.12445   0.00061   0.00112  -0.00285  -0.00176   2.12269
    A9        2.12137   0.00001  -0.00053   0.00115   0.00060   2.12197
   A10        2.03602  -0.00063  -0.00074   0.00253   0.00177   2.03779
   A11        1.94192   0.00016   0.00140  -0.00508  -0.00368   1.93823
   A12        1.93561  -0.00006  -0.00016   0.00253   0.00237   1.93798
   A13        1.88715   0.00010  -0.00012   0.00098   0.00086   1.88801
   A14        1.92807   0.00001  -0.00025   0.00213   0.00189   1.92995
   A15        1.89960  -0.00013  -0.00048   0.00004  -0.00044   1.89916
   A16        1.86921  -0.00010  -0.00049  -0.00048  -0.00097   1.86824
   A17        1.90482   0.00035  -0.00049   0.00478   0.00429   1.90911
   A18        1.93301  -0.00009  -0.00027   0.00164   0.00137   1.93439
   A19        1.94531  -0.00007  -0.00013   0.00098   0.00085   1.94616
   A20        1.86268  -0.00023   0.00089  -0.00813  -0.00724   1.85544
   A21        1.91428  -0.00010   0.00022  -0.00163  -0.00141   1.91287
   A22        1.90189   0.00013  -0.00018   0.00192   0.00174   1.90363
   A23        1.95615   0.00002  -0.00017   0.00197   0.00179   1.95794
   A24        1.93721  -0.00001  -0.00022   0.00192   0.00169   1.93890
   A25        1.90556   0.00031  -0.00068   0.00523   0.00455   1.91010
   A26        1.88891  -0.00005   0.00017  -0.00191  -0.00174   1.88717
   A27        1.89615  -0.00018   0.00028  -0.00269  -0.00242   1.89373
   A28        1.87781  -0.00012   0.00068  -0.00497  -0.00430   1.87351
   A29        2.01466  -0.00046  -0.00052   0.00188   0.00136   2.01602
   A30        1.94764   0.00151  -0.00046   0.00753   0.00705   1.95469
   A31        1.92742  -0.00071  -0.00070   0.00312   0.00239   1.92981
   A32        1.86252  -0.00071   0.00094  -0.00913  -0.00819   1.85433
   A33        1.89934   0.00003  -0.00012   0.00238   0.00224   1.90157
   A34        1.92774  -0.00022  -0.00035   0.00145   0.00111   1.92885
   A35        1.89860   0.00005   0.00072  -0.00582  -0.00509   1.89351
   A36        1.94665  -0.00004  -0.00121   0.00773   0.00653   1.95318
   A37        1.89021  -0.00000   0.00047  -0.00252  -0.00205   1.88816
   A38        1.92745  -0.00026   0.00006  -0.00198  -0.00192   1.92553
   A39        1.89958   0.00019   0.00022   0.00031   0.00053   1.90011
   A40        1.89960   0.00001   0.00057  -0.00486  -0.00429   1.89531
   A41        1.89963   0.00013  -0.00010   0.00128   0.00118   1.90082
    D1        0.02178  -0.00112  -0.00505  -0.01882  -0.02376  -0.00198
    D2       -3.11861  -0.00140  -0.00572  -0.02442  -0.03003   3.13454
    D3        3.12584   0.00201   0.00433   0.05361   0.05782  -3.09952
    D4       -0.01456   0.00173   0.00367   0.04800   0.05155   0.03699
    D5        0.02836   0.00090  -0.00159   0.03964   0.03828   0.06664
    D6       -3.08133  -0.00174  -0.00953  -0.02160  -0.03136  -3.11269
    D7       -3.13022   0.00012   0.00012   0.00311   0.00323  -3.12699
    D8        0.01013   0.00040   0.00081   0.00890   0.00971   0.01984
    D9       -3.09246  -0.00005   0.00309  -0.01803  -0.01494  -3.10740
   D10       -0.00867  -0.00000   0.00039  -0.00017   0.00021  -0.00846
   D11       -0.39700   0.00038  -0.00860   0.09042   0.08182  -0.31519
   D12        1.75654   0.00047  -0.00804   0.09136   0.08332   1.83986
   D13       -2.48216   0.00038  -0.00878   0.09278   0.08400  -2.39816
   D14        2.79971   0.00031  -0.00603   0.07342   0.06739   2.86710
   D15       -1.32993   0.00040  -0.00546   0.07436   0.06890  -1.26104
   D16        0.71455   0.00032  -0.00621   0.07578   0.06958   0.78412
   D17        0.95267  -0.00002  -0.00157   0.02100   0.01943   0.97211
   D18       -1.09300   0.00009  -0.00220   0.02706   0.02486  -1.06814
   D19        3.06965   0.00004  -0.00170   0.02280   0.02110   3.09075
   D20       -1.20518  -0.00007  -0.00218   0.01982   0.01764  -1.18754
   D21        3.03234   0.00005  -0.00281   0.02588   0.02307   3.05541
   D22        0.91180  -0.00001  -0.00231   0.02162   0.01930   0.93111
   D23        3.03040   0.00011  -0.00116   0.01915   0.01799   3.04839
   D24        0.98473   0.00023  -0.00180   0.02521   0.02341   1.00815
   D25       -1.13581   0.00017  -0.00130   0.02095   0.01965  -1.11615
   D26        3.06986  -0.00008   0.00133  -0.01233  -0.01101   3.05885
   D27        0.95550  -0.00003   0.00138  -0.01260  -0.01122   0.94428
   D28       -1.11163  -0.00008   0.00111  -0.01091  -0.00981  -1.12144
   D29       -1.05184   0.00010   0.00283  -0.01555  -0.01271  -1.06455
   D30        3.11699   0.00015   0.00289  -0.01582  -0.01293   3.10407
   D31        1.04986   0.00010   0.00262  -0.01413  -0.01151   1.03834
   D32        1.01442  -0.00011   0.00184  -0.01461  -0.01277   1.00165
   D33       -1.09994  -0.00006   0.00190  -0.01488  -0.01298  -1.11292
   D34        3.11612  -0.00011   0.00162  -0.01319  -0.01157   3.10455
   D35       -1.44161   0.00016  -0.00842   0.06570   0.05727  -1.38435
   D36        0.67341   0.00073  -0.00935   0.07595   0.06660   0.74000
   D37        2.73419  -0.00000  -0.00832   0.06536   0.05705   2.79125
   D38       -3.07368   0.00018  -0.00215   0.01353   0.01138  -3.06230
   D39        1.11958  -0.00002  -0.00200   0.01007   0.00808   1.12766
   D40       -0.95898  -0.00003  -0.00220   0.01121   0.00901  -0.94996
   D41        1.07823   0.00006  -0.00090   0.00308   0.00218   1.08041
   D42       -1.01169  -0.00014  -0.00074  -0.00037  -0.00112  -1.01282
   D43       -3.09025  -0.00014  -0.00095   0.00077  -0.00019  -3.09044
   D44       -1.00485   0.00012  -0.00150   0.00786   0.00637  -0.99848
   D45       -3.09478  -0.00008  -0.00134   0.00441   0.00307  -3.09171
   D46        1.10985  -0.00009  -0.00155   0.00555   0.00400   1.11385
         Item               Value     Threshold  Converged?
 Maximum Force            0.002009     0.000450     NO 
 RMS     Force            0.000638     0.000300     NO 
 Maximum Displacement     0.323822     0.001800     NO 
 RMS     Displacement     0.090114     0.001200     NO 
 Predicted change in Energy=-3.475963D-04
 GradGradGradGradGradGradGradGradGradGradGradGradGradGradGradGradGradGrad

                          Input orientation:                          
 ---------------------------------------------------------------------
 Center     Atomic      Atomic             Coordinates (Angstroms)
 Number     Number       Type             X           Y           Z
 ---------------------------------------------------------------------
      1          8           0        1.527570   -0.464225   -1.126301
      2          6           0        1.382886    0.232389   -0.131114
      3          6           0        0.215765    0.670005    0.538764
      4          7           0       -1.006074    0.313248    0.078903
      5          6           0       -2.113388    0.677679    0.615154
      6          6           0       -3.447493    0.208223    0.077569
      7          6           0       -3.308842   -0.321593   -1.345147
      8          6           0       -4.066012   -0.858089    0.992581
      9          8           0        2.529654    0.676508    0.552961
     10          6           0        3.751652    0.335505   -0.035289
     11          6           0        4.144532   -1.104971    0.260628
     12          1           0        0.332843    1.296236    1.434999
     13          1           0       -2.137406    1.321860    1.522176
     14          1           0       -4.141718    1.073389    0.071058
     15          1           0       -2.548913   -1.119030   -1.365949
     16          1           0       -2.947768    0.467601   -2.023645
     17          1           0       -4.268446   -0.714159   -1.726431
     18          1           0       -5.079931   -1.154242    0.662994
     19          1           0       -4.135022   -0.496983    2.032916
     20          1           0       -3.422976   -1.755878    0.997698
     21          1           0        3.708792    0.477640   -1.126887
     22          1           0        4.499747    1.033706    0.379669
     23          1           0        5.146423   -1.348840   -0.136139
     24          1           0        3.403773   -1.766952   -0.212218
     25          1           0        4.143325   -1.286558    1.348066
 ---------------------------------------------------------------------
                    Distance matrix (angstroms):
                    1          2          3          4          5
     1  O    0.000000
     2  C    1.223357   0.000000
     3  C    2.404112   1.415068   0.000000
     4  N    2.911414   2.399536   1.353380   0.000000
     5  C    4.194423   3.602656   2.330417   1.283168   0.000000
     6  C    5.162630   4.834945   3.720941   2.443678   1.513018
     7  C    4.843462   4.877815   4.117674   2.780950   2.504084
     8  C    5.994410   5.669419   4.568876   3.401479   2.512722
     9  O    2.263927   1.407224   2.313942   3.585813   4.643458
    10  C    2.603155   2.372946   3.597767   4.759148   5.910910
    11  C    3.030284   3.093329   4.320082   5.345381   6.516524
    12  H    3.329693   2.164964   1.099595   2.144286   2.653074
    13  H    4.861747   4.038907   2.632381   2.092905   1.112760
    14  H    5.994894   5.591905   4.401037   3.226475   2.136996
    15  H    4.135688   4.337072   3.804211   2.553306   2.709727
    16  H    4.658559   4.731972   4.076132   2.866132   2.775534
    17  H    5.832360   5.947986   5.211062   3.867540   3.473400
    18  H    6.880172   6.657428   5.602473   4.369325   3.486919
    19  H    6.484341   5.971793   4.745913   3.776898   2.734389
    20  H    5.539643   5.322004   4.397267   3.311628   2.789904
    21  H    2.375887   2.541958   3.874615   4.869385   6.080502
    22  H    3.653160   3.258502   4.302336   5.560898   6.626897
    23  H    3.854745   4.082220   5.370533   6.376676   7.574700
    24  H    2.460241   2.843928   4.082417   4.884540   6.090963
    25  H    3.693359   3.480689   4.461932   5.539536   6.598624
                    6          7          8          9         10
     6  C    0.000000
     7  C    1.524484   0.000000
     8  C    1.535198   2.515175   0.000000
     9  O    6.014281   6.219892   6.786093   0.000000
    10  C    7.201155   7.210970   7.974776   1.398428   0.000000
    11  C    7.706934   7.664527   8.246801   2.422180   1.522134
    12  H    4.161410   4.858853   4.918005   2.447045   3.843567
    13  H    2.245753   3.506386   2.958406   4.810125   6.170867
    14  H    1.109281   2.155294   2.141388   6.700519   7.928498
    15  H    2.157033   1.101740   2.816442   5.718218   6.601777
    16  H    2.175341   1.101617   3.479302   6.056789   6.989509
    17  H    2.186131   1.104683   2.730334   7.303680   8.263397
    18  H    2.205422   2.804049   1.106511   7.827486   8.983530
    19  H    2.189382   3.482046   1.103384   6.927139   8.195739
    20  H    2.169085   2.749386   1.104331   6.445781   7.544285
    21  H    7.261936   7.066371   8.168469   2.061991   1.101647
    22  H    7.995706   8.110850   8.793564   2.009699   1.104228
    23  H    8.736447   8.602816   9.294288   3.379996   2.189195
    24  H    7.136185   6.959296   7.620712   2.705565   2.138376
    25  H    7.840220   7.982440   8.228193   2.662659   2.167526
                   11         12         13         14         15
    11  C    0.000000
    12  H    4.655525   0.000000
    13  H    6.851551   2.471920   0.000000
    14  H    8.569896   4.683129   2.486915   0.000000
    15  H    6.888262   4.688639   3.803755   3.067364   0.000000
    16  H    7.615222   4.838519   3.736214   2.486017   1.763249
    17  H    8.653284   5.933649   4.386360   2.538180   1.802959
    18  H    9.233365   5.991574   3.940524   2.488569   3.244056
    19  H    8.488914   4.851284   2.749457   2.512966   3.801969
    20  H    7.631128   4.859301   3.376424   3.062680   2.599305
    21  H    2.149355   4.316294   6.473660   7.963699   6.462614
    22  H    2.171241   4.306476   6.740932   8.647065   7.573973
    23  H    1.104845   5.712745   7.933273   9.601025   7.796374
    24  H    1.100239   4.639726   6.576743   8.067355   6.097981
    25  H    1.102495   4.604145   6.803069   8.708733   7.223572
                   16         17         18         19         20
    16  H    0.000000
    17  H    1.796965   0.000000
    18  H    3.794012   2.561549   0.000000
    19  H    4.335399   3.767978   1.789282   0.000000
    20  H    3.781296   3.036589   1.794294   1.778625   0.000000
    21  H    6.716700   8.088026   9.116379   8.512324   7.769464
    22  H    7.846138   9.185418   9.830444   8.923871   8.422190
    23  H    8.507530   9.569305  10.259376   9.569518   8.653662
    24  H    6.972558   7.890764   8.550710   7.967865   6.933146
    25  H    8.045440   8.974300   9.249609   8.344068   7.588934
                   21         22         23         24         25
    21  H    0.000000
    22  H    1.790120   0.000000
    23  H    2.526736   2.522057   0.000000
    24  H    2.442918   3.065154   1.793721   0.000000
    25  H    3.070278   2.539381   1.792470   1.792261   0.000000
 Stoichiometry    C8H14NO2(1-)
 Framework group  C1[X(C8H14NO2)]
 Deg. of freedom    69
 Full point group                 C1      NOp   1
 Largest Abelian subgroup         C1      NOp   1
 Largest concise Abelian subgroup C1      NOp   1
                         Standard orientation:                         
 ---------------------------------------------------------------------
 Center     Atomic      Atomic             Coordinates (Angstroms)
 Number     Number       Type             X           Y           Z
 ---------------------------------------------------------------------
      1          8           0       -1.564683    1.239188   -0.136316
      2          6           0       -1.416428    0.034427   -0.288537
      3          6           0       -0.246810   -0.757866   -0.370281
      4          7           0        0.973481   -0.180011   -0.277484
      5          6           0        2.082733   -0.820192   -0.356523
      6          6           0        3.415241   -0.120557   -0.201092
      7          6           0        3.269630    1.384383   -0.396038
      8          6           0        4.043816   -0.429380    1.165054
      9          8           0       -2.560569   -0.782204   -0.354376
     10          6           0       -3.784927   -0.107416   -0.319590
     11          6           0       -4.170180    0.302105    1.094894
     12          1           0       -0.360662   -1.843250   -0.504772
     13          1           0        2.109972   -1.922964   -0.502765
     14          1           0        4.105964   -0.516191   -0.973671
     15          1           0        2.512761    1.772292    0.304324
     16          1           0        2.901101    1.614449   -1.408371
     17          1           0        4.228337    1.908485   -0.233181
     18          1           0        5.056783    0.004192    1.266444
     19          1           0        4.118021   -1.517675    1.331081
     20          1           0        3.404402   -0.017086    1.965497
     21          1           0       -3.749593    0.791628   -0.955277
     22          1           0       -4.533133   -0.803221   -0.738356
     23          1           0       -5.173603    0.763044    1.131772
     24          1           0       -3.429824    1.032156    1.454649
     25          1           0       -4.161318   -0.574670    1.763238
 ---------------------------------------------------------------------
 Rotational constants (GHZ):           3.1678641           0.3772175           0.3667503
 Standard basis: def2SVP (5D, 7F)
 There are   235 symmetry adapted cartesian basis functions of A   symmetry.
 There are   224 symmetry adapted basis functions of A   symmetry.
   224 basis functions,   373 primitive gaussians,   235 cartesian basis functions
    43 alpha electrons       43 beta electrons
       nuclear repulsion energy       598.5789880344 Hartrees.
 NAtoms=   25 NActive=   25 NUniq=   25 SFac= 1.00D+00 NAtFMM=   60 NAOKFM=F Big=F
 Integral buffers will be    131072 words long.
 Raffenetti 2 integral format.
 Two-electron integral symmetry is turned on.
 Nuclear repulsion after empirical dispersion term =      598.5781823393 Hartrees.
 One-electron integrals computed using PRISM.
   1 Symmetry operations used in ECPInt.
 ECPInt:  NShTT=    5886 NPrTT=   20688 LenC2=    5362 LenP2D=   14042.
 LDataN:  DoStor=T MaxTD1= 4 Len=   56
 NBasis=   224 RedAO= T EigKep=  1.29D-03  NBF=   224
 NBsUse=   224 1.00D-06 EigRej= -1.00D+00 NBFU=   224
 Initial guess from the checkpoint file:  "A18_crest_conformers_censo-13.chk"
 B after Tr=     0.000000    0.000000    0.000000
         Rot=    0.999312    0.036982   -0.002461   -0.001403 Ang=   4.25 deg.
 ExpMin= 1.22D-01 ExpMax= 2.27D+03 ExpMxC= 3.41D+02 IAcc=3 IRadAn=         5 AccDes= 0.00D+00
 Harris functional with IExCor= 1009 and IRadAn=       5 diagonalized for initial guess.
 HarFok:  IExCor= 1009 AccDes= 0.00D+00 IRadAn=         5 IDoV= 1 UseB2=F ITyADJ=14
 ICtDFT=  3500011 ScaDFX=  1.000000  1.000000  1.000000  1.000000
 FoFCou: FMM=F IPFlag=           0 FMFlag=      100000 FMFlg1=           0
         NFxFlg=           0 DoJE=T BraDBF=F KetDBF=T FulRan=T
         wScrn=  0.000000 ICntrl=       500 IOpCl=  0 I1Cent=   200000004 NGrid=           0
         NMat0=    1 NMatS0=      1 NMatT0=    0 NMatD0=    1 NMtDS0=    0 NMtDT0=    0
 Petite list used in FoFCou.
 Requested convergence on RMS density matrix=1.00D-08 within 128 cycles.
 Requested convergence on MAX density matrix=1.00D-06.
 Requested convergence on             energy=1.00D-06.
 No special actions if energy rises.
 Integral accuracy reduced to 1.0D-05 until final iterations.
 Initial convergence to 1.0D-05 achieved.  Increase integral accuracy.
 SCF Done:  E(RM062X) =  -517.869718082     A.U. after   13 cycles
            NFock= 13  Conv=0.39D-08     -V/T= 2.0101
   1 Symmetry operations used in ECPInt.
 ECPInt:  NShTT=    5886 NPrTT=   20688 LenC2=    5362 LenP2D=   14042.
 LDataN:  DoStor=T MaxTD1= 5 Len=  102
 Calling FoFJK, ICntrl=      2127 FMM=F ISym2X=0 I1Cent= 0 IOpClX= 0 NMat=1 NMatS=1 NMatT=0.
 ***** Axes restored to original set *****
 -------------------------------------------------------------------
 Center     Atomic                   Forces (Hartrees/Bohr)
 Number     Number              X              Y              Z
 -------------------------------------------------------------------
      1        8           0.000603330    0.000268932   -0.004927157
      2        6          -0.004873986   -0.001783119    0.008632485
      3        6           0.000768618   -0.001678077   -0.004004691
      4        7           0.002083526    0.002570336    0.000689336
      5        6           0.000250232   -0.000034706    0.000455791
      6        6          -0.000071704    0.000857446    0.000633818
      7        6           0.000313311   -0.001237901   -0.002301273
      8        6          -0.000585489   -0.001552895    0.001475521
      9        8           0.001747539    0.002676424   -0.000597066
     10        6           0.001477345    0.000071210    0.000319831
     11        6           0.000651728   -0.003402435    0.000020842
     12        1          -0.000032491    0.000051793   -0.000186689
     13        1          -0.000389530   -0.000936845   -0.000339249
     14        1          -0.000075491   -0.000646858   -0.000483901
     15        1          -0.001535398    0.001419864    0.000011434
     16        1          -0.000426546   -0.001132091    0.001231574
     17        1           0.000949616    0.000487419    0.000562414
     18        1           0.001325150    0.000436491    0.000367908
     19        1          -0.000061229   -0.000203690   -0.001295187
     20        1          -0.001102246    0.001466818   -0.000193680
     21        1          -0.000397323    0.000086571   -0.000359534
     22        1          -0.000355075   -0.000546636   -0.000185092
     23        1          -0.001404139    0.001306132    0.000560580
     24        1           0.001126908    0.000995573    0.001184504
     25        1           0.000013347    0.000460246   -0.001272519
 -------------------------------------------------------------------
 Cartesian Forces:  Max     0.008632485 RMS     0.001725390

 GradGradGradGradGradGradGradGradGradGradGradGradGradGradGradGradGradGrad
 Berny optimization.
 Using GEDIIS/GDIIS optimizer.
 FormGI is forming the generalized inverse of G from B-inverse, IUseBI=4.
 Internal  Forces:  Max     0.003926243 RMS     0.000977641
 Search for a local minimum.
 Step number   4 out of a maximum of  121
 All quantities printed in internal units (Hartrees-Bohrs-Radians)
 Mixed Optimization -- En-DIIS/RFO-DIIS
 Swapping is turned off.
 Update second derivatives using D2CorX and points    1    2    3    4
 DE= -7.70D-05 DEPred=-3.48D-04 R= 2.21D-01
 Trust test= 2.21D-01 RLast= 2.50D-01 DXMaxT set to 6.26D-01
 ITU=  0  1  1  0
     Eigenvalues ---    0.00261   0.00305   0.00370   0.00456   0.01243
     Eigenvalues ---    0.01407   0.01791   0.02274   0.02357   0.02489
     Eigenvalues ---    0.03343   0.04161   0.04869   0.04911   0.05331
     Eigenvalues ---    0.05465   0.05512   0.05635   0.05749   0.05759
     Eigenvalues ---    0.05812   0.05851   0.06783   0.11659   0.14057
     Eigenvalues ---    0.15527   0.15998   0.16000   0.16000   0.16000
     Eigenvalues ---    0.16000   0.16000   0.16000   0.16006   0.16086
     Eigenvalues ---    0.16245   0.16890   0.18177   0.21112   0.22217
     Eigenvalues ---    0.23288   0.24474   0.25040   0.25149   0.26599
     Eigenvalues ---    0.28891   0.29458   0.29968   0.32932   0.33274
     Eigenvalues ---    0.33562   0.33748   0.33857   0.34007   0.34634
     Eigenvalues ---    0.34702   0.34876   0.34934   0.34967   0.35127
     Eigenvalues ---    0.35137   0.35349   0.37117   0.38850   0.46121
     Eigenvalues ---    0.47889   0.58253   0.74382   0.92679
 En-DIIS/RFO-DIIS/Sim-DIIS IScMMF=       -3 using points:     4    3
 RFO step:  Lambda=-5.13533318D-04.
 DidBck=F Rises=F RFO-DIIS coefs:    1.24895   -0.24895
 Iteration  1 RMS(Cart)=  0.03065323 RMS(Int)=  0.00040827
 Iteration  2 RMS(Cart)=  0.00066391 RMS(Int)=  0.00008301
 Iteration  3 RMS(Cart)=  0.00000021 RMS(Int)=  0.00008301
 Variable       Old X    -DE/DX   Delta X   Delta X   Delta X     New X
                                 (Linear)    (Quad)   (Total)
    R1        2.31181   0.00393  -0.00041   0.00214   0.00173   2.31354
    R2        2.67409  -0.00280   0.00185  -0.00280  -0.00095   2.67314
    R3        2.65927   0.00269  -0.00428   0.00364  -0.00064   2.65863
    R4        2.55752  -0.00128  -0.00025  -0.00084  -0.00108   2.55643
    R5        2.07793  -0.00013  -0.00029  -0.00013  -0.00042   2.07751
    R6        2.42484   0.00096   0.00008   0.00077   0.00085   2.42569
    R7        2.85919   0.00115  -0.00104   0.00236   0.00132   2.86051
    R8        2.10281  -0.00081   0.00029  -0.00123  -0.00095   2.10186
    R9        2.88086   0.00056  -0.00124   0.00122  -0.00003   2.88083
   R10        2.90110   0.00028  -0.00110   0.00068  -0.00042   2.90069
   R11        2.09624  -0.00045   0.00059  -0.00070  -0.00012   2.09612
   R12        2.08199  -0.00209   0.00055  -0.00290  -0.00235   2.07963
   R13        2.08176  -0.00171   0.00023  -0.00230  -0.00206   2.07969
   R14        2.08755  -0.00119   0.00031  -0.00158  -0.00127   2.08628
   R15        2.09100  -0.00144   0.00033  -0.00194  -0.00161   2.08939
   R16        2.08509  -0.00128   0.00038  -0.00173  -0.00135   2.08375
   R17        2.08688  -0.00184   0.00064  -0.00253  -0.00189   2.08499
   R18        2.64265   0.00111   0.00023   0.00112   0.00135   2.64400
   R19        2.87642   0.00080  -0.00049   0.00135   0.00086   2.87728
   R20        2.08181   0.00038   0.00033   0.00056   0.00089   2.08270
   R21        2.08669  -0.00066  -0.00003  -0.00092  -0.00095   2.08574
   R22        2.08785  -0.00176   0.00053  -0.00243  -0.00189   2.08596
   R23        2.07915  -0.00187   0.00006  -0.00248  -0.00242   2.07673
   R24        2.08341  -0.00133   0.00035  -0.00180  -0.00145   2.08197
    A1        2.28994  -0.00045  -0.00169   0.00011  -0.00208   2.28786
    A2        2.07006  -0.00082   0.00105  -0.00146  -0.00092   2.06915
    A3        1.92240   0.00140   0.00059   0.00369   0.00378   1.92618
    A4        2.09699   0.00155  -0.00224   0.00369   0.00145   2.09844
    A5        2.06479  -0.00076   0.00131  -0.00179  -0.00049   2.06430
    A6        2.12140  -0.00079   0.00093  -0.00189  -0.00096   2.12044
    A7        2.16785   0.00044  -0.00047   0.00123   0.00076   2.16861
    A8        2.12269   0.00194  -0.00044   0.00479   0.00435   2.12704
    A9        2.12197  -0.00051   0.00015  -0.00128  -0.00114   2.12083
   A10        2.03779  -0.00144   0.00044  -0.00367  -0.00323   2.03456
   A11        1.93823   0.00080  -0.00092   0.00460   0.00368   1.94191
   A12        1.93798  -0.00031   0.00059   0.00051   0.00109   1.93907
   A13        1.88801   0.00003   0.00021   0.00036   0.00058   1.88859
   A14        1.92995  -0.00017   0.00047   0.00010   0.00056   1.93052
   A15        1.89916  -0.00034  -0.00011  -0.00288  -0.00300   1.89617
   A16        1.86824  -0.00003  -0.00024  -0.00306  -0.00330   1.86494
   A17        1.90911   0.00016   0.00107   0.00042   0.00148   1.91060
   A18        1.93439  -0.00025   0.00034  -0.00076  -0.00042   1.93396
   A19        1.94616  -0.00023   0.00021  -0.00070  -0.00049   1.94567
   A20        1.85544   0.00007  -0.00180   0.00036  -0.00144   1.85400
   A21        1.91287   0.00003  -0.00035   0.00016  -0.00019   1.91267
   A22        1.90363   0.00024   0.00043   0.00059   0.00102   1.90465
   A23        1.95794  -0.00011   0.00045  -0.00049  -0.00005   1.95789
   A24        1.93890  -0.00017   0.00042  -0.00040   0.00002   1.93892
   A25        1.91010  -0.00004   0.00113  -0.00020   0.00094   1.91104
   A26        1.88717   0.00007  -0.00043  -0.00013  -0.00056   1.88661
   A27        1.89373   0.00004  -0.00060  -0.00001  -0.00062   1.89312
   A28        1.87351   0.00023  -0.00107   0.00132   0.00025   1.87376
   A29        2.01602   0.00074   0.00034   0.00110   0.00143   2.01745
   A30        1.95469   0.00119   0.00175   0.00249   0.00423   1.95892
   A31        1.92981  -0.00075   0.00060  -0.00148  -0.00091   1.92891
   A32        1.85433  -0.00014  -0.00204  -0.00036  -0.00240   1.85193
   A33        1.90157   0.00035   0.00056   0.00198   0.00253   1.90410
   A34        1.92885  -0.00090   0.00028  -0.00318  -0.00290   1.92595
   A35        1.89351   0.00021  -0.00127   0.00039  -0.00088   1.89263
   A36        1.95318  -0.00132   0.00163  -0.00435  -0.00273   1.95045
   A37        1.88816   0.00060  -0.00051   0.00256   0.00205   1.89021
   A38        1.92553  -0.00024  -0.00048  -0.00117  -0.00165   1.92388
   A39        1.90011   0.00055   0.00013   0.00255   0.00269   1.90279
   A40        1.89531   0.00053  -0.00107   0.00036  -0.00071   1.89460
   A41        1.90082  -0.00008   0.00029   0.00020   0.00049   1.90131
    D1       -0.00198   0.00150  -0.00591   0.02860   0.02270   0.02073
    D2        3.13454   0.00171  -0.00748   0.03179   0.02432  -3.12432
    D3       -3.09952  -0.00205   0.01440  -0.03748  -0.02310  -3.12262
    D4        0.03699  -0.00183   0.01283  -0.03430  -0.02148   0.01551
    D5        0.06664  -0.00247   0.00953  -0.06485  -0.05529   0.01135
    D6       -3.11269   0.00057  -0.00781  -0.00820  -0.01604  -3.12873
    D7       -3.12699  -0.00016   0.00080  -0.00238  -0.00158  -3.12857
    D8        0.01984  -0.00038   0.00242  -0.00567  -0.00325   0.01659
    D9       -3.10740   0.00037  -0.00372   0.00765   0.00393  -3.10347
   D10       -0.00846   0.00025   0.00005   0.00302   0.00307  -0.00539
   D11       -0.31519   0.00031   0.02037   0.02310   0.04347  -0.27171
   D12        1.83986   0.00044   0.02074   0.02688   0.04763   1.88749
   D13       -2.39816   0.00023   0.02091   0.02368   0.04459  -2.35357
   D14        2.86710   0.00040   0.01678   0.02748   0.04426   2.91136
   D15       -1.26104   0.00053   0.01715   0.03126   0.04841  -1.21262
   D16        0.78412   0.00033   0.01732   0.02806   0.04538   0.82950
   D17        0.97211  -0.00001   0.00484   0.00944   0.01428   0.98638
   D18       -1.06814  -0.00004   0.00619   0.00920   0.01539  -1.05275
   D19        3.09075  -0.00001   0.00525   0.00946   0.01471   3.10546
   D20       -1.18754  -0.00006   0.00439   0.00546   0.00985  -1.17769
   D21        3.05541  -0.00009   0.00574   0.00522   0.01096   3.06637
   D22        0.93111  -0.00006   0.00481   0.00548   0.01029   0.94139
   D23        3.04839   0.00029   0.00448   0.01084   0.01531   3.06370
   D24        1.00815   0.00026   0.00583   0.01060   0.01642   1.02457
   D25       -1.11615   0.00029   0.00489   0.01086   0.01575  -1.10040
   D26        3.05885  -0.00029  -0.00274  -0.00267  -0.00541   3.05343
   D27        0.94428  -0.00018  -0.00279  -0.00188  -0.00467   0.93961
   D28       -1.12144  -0.00034  -0.00244  -0.00314  -0.00558  -1.12703
   D29       -1.06455   0.00040  -0.00317   0.00366   0.00049  -1.06406
   D30        3.10407   0.00051  -0.00322   0.00445   0.00124   3.10530
   D31        1.03834   0.00035  -0.00287   0.00319   0.00032   1.03867
   D32        1.00165  -0.00013  -0.00318  -0.00156  -0.00474   0.99691
   D33       -1.11292  -0.00002  -0.00323  -0.00077  -0.00400  -1.11692
   D34        3.10455  -0.00018  -0.00288  -0.00203  -0.00491   3.09963
   D35       -1.38435  -0.00115   0.01426  -0.02080  -0.00655  -1.39090
   D36        0.74000  -0.00041   0.01658  -0.01758  -0.00100   0.73900
   D37        2.79125  -0.00064   0.01420  -0.01811  -0.00390   2.78735
   D38       -3.06230   0.00021   0.00283  -0.00102   0.00182  -3.06048
   D39        1.12766  -0.00006   0.00201  -0.00319  -0.00117   1.12649
   D40       -0.94996  -0.00018   0.00224  -0.00430  -0.00205  -0.95201
   D41        1.08041   0.00012   0.00054  -0.00219  -0.00165   1.07876
   D42       -1.01282  -0.00014  -0.00028  -0.00436  -0.00465  -1.01746
   D43       -3.09044  -0.00026  -0.00005  -0.00547  -0.00553  -3.09597
   D44       -0.99848   0.00020   0.00159  -0.00198  -0.00039  -0.99888
   D45       -3.09171  -0.00006   0.00076  -0.00415  -0.00339  -3.09510
   D46        1.11385  -0.00019   0.00099  -0.00526  -0.00426   1.10959
         Item               Value     Threshold  Converged?
 Maximum Force            0.003926     0.000450     NO 
 RMS     Force            0.000978     0.000300     NO 
 Maximum Displacement     0.099715     0.001800     NO 
 RMS     Displacement     0.030664     0.001200     NO 
 Predicted change in Energy=-2.618991D-04
 GradGradGradGradGradGradGradGradGradGradGradGradGradGradGradGradGradGrad

                          Input orientation:                          
 ---------------------------------------------------------------------
 Center     Atomic      Atomic             Coordinates (Angstroms)
 Number     Number       Type             X           Y           Z
 ---------------------------------------------------------------------
      1          8           0        1.531980   -0.412872   -1.161291
      2          6           0        1.387822    0.234168   -0.132017
      3          6           0        0.219603    0.650545    0.548345
      4          7           0       -1.001560    0.311064    0.075482
      5          6           0       -2.109991    0.657904    0.622074
      6          6           0       -3.446961    0.206827    0.074004
      7          6           0       -3.308260   -0.337677   -1.343135
      8          6           0       -4.097055   -0.836986    0.992693
      9          8           0        2.535738    0.678380    0.549373
     10          6           0        3.758091    0.338904   -0.040722
     11          6           0        4.162956   -1.098080    0.258343
     12          1           0        0.335163    1.248326    1.463727
     13          1           0       -2.133980    1.273088    1.548406
     14          1           0       -4.126181    1.083495    0.052115
     15          1           0       -2.574945   -1.158214   -1.350666
     16          1           0       -2.913496    0.433797   -2.021477
     17          1           0       -4.274984   -0.701659   -1.732753
     18          1           0       -5.113701   -1.113057    0.656995
     19          1           0       -4.167561   -0.465093    2.028361
     20          1           0       -3.475743   -1.748546    1.011840
     21          1           0        3.712527    0.480862   -1.132711
     22          1           0        4.502849    1.041273    0.371863
     23          1           0        5.165127   -1.332234   -0.140774
     24          1           0        3.426560   -1.768050   -0.207027
     25          1           0        4.168970   -1.273694    1.345970
 ---------------------------------------------------------------------
                    Distance matrix (angstroms):
                    1          2          3          4          5
     1  O    0.000000
     2  C    1.224274   0.000000
     3  C    2.403340   1.414566   0.000000
     4  N    2.910759   2.399607   1.352807   0.000000
     5  C    4.194151   3.603179   2.330772   1.283619   0.000000
     6  C    5.167188   4.839248   3.723651   2.447622   1.513718
     7  C    4.844239   4.883339   4.123118   2.784638   2.507804
     8  C    6.041983   5.700545   4.587345   3.426570   2.514056
     9  O    2.263787   1.406887   2.316303   3.587753   4.646343
    10  C    2.603154   2.374338   3.600696   4.761150   5.914004
    11  C    3.067068   3.103005   4.323405   5.356431   6.524235
    12  H    3.329065   2.164026   1.099373   2.143015   2.652500
    13  H    4.860472   4.038102   2.631926   2.092216   1.112258
    14  H    5.977145   5.582069   4.395399   3.218766   2.137991
    15  H    4.178305   4.373483   3.832408   2.582289   2.721428
    16  H    4.606412   4.702260   4.057989   2.840388   2.772040
    17  H    5.842157   5.958649   5.218542   3.874355   3.475747
    18  H    6.925424   6.686355   5.618383   4.390442   3.487090
    19  H    6.531567   6.001539   4.762594   3.799962   2.733561
    20  H    5.619948   5.375297   4.430130   3.352662   2.794315
    21  H    2.356769   2.542931   3.880110   4.869412   6.083775
    22  H    3.645704   3.257101   4.304649   5.560536   6.628667
    23  H    3.884126   4.089220   5.372569   6.385548   7.580892
    24  H    2.517252   2.858489   4.087146   4.900079   6.101316
    25  H    3.739130   3.491831   4.465020   5.555176   6.609118
                    6          7          8          9         10
     6  C    0.000000
     7  C    1.524469   0.000000
     8  C    1.534977   2.515472   0.000000
     9  O    6.020052   6.226258   6.818124   0.000000
    10  C    7.207175   7.217158   8.009618   1.399143   0.000000
    11  C    7.723186   7.678674   8.296700   2.426592   1.522590
    12  H    4.161793   4.865020   4.920870   2.450186   3.847967
    13  H    2.243812   3.512052   2.935113   4.812278   6.173697
    14  H    1.109219   2.153010   2.138640   6.692724   7.919898
    15  H    2.157181   1.100495   2.812710   5.753461   6.638121
    16  H    2.174199   1.100527   3.478637   6.030195   6.960062
    17  H    2.185255   1.104010   2.734598   7.314270   8.275025
    18  H    2.204539   2.803810   1.105657   7.857146   9.016855
    19  H    2.188664   3.481612   1.102671   6.959106   8.230642
    20  H    2.168835   2.750365   1.103330   6.499366   7.602216
    21  H    7.265639   7.071473   8.200221   2.062341   1.102120
    22  H    7.999031   8.115180   8.824490   2.008164   1.103727
    23  H    8.751165   8.615864   9.344411   3.381206   2.186884
    24  H    7.157123   6.978146   7.675349   2.711222   2.139352
    25  H    7.862077   8.001025   8.285089   2.666948   2.166151
                   11         12         13         14         15
    11  C    0.000000
    12  H    4.648717   0.000000
    13  H    6.851140   2.470720   0.000000
    14  H    8.573891   4.682244   2.498738   0.000000
    15  H    6.927614   4.709668   3.809238   3.065842   0.000000
    16  H    7.590811   4.833621   3.749149   2.488473   1.760427
    17  H    8.678736   5.939140   4.387428   2.528769   1.801268
    18  H    9.285231   5.993085   3.920080   2.483126   3.236978
    19  H    8.539974   4.850685   2.717918   2.511052   3.799298
    20  H    7.703284   4.869133   3.349403   3.060163   2.596413
    21  H    2.151970   4.328634   6.480560   7.950618   6.501259
    22  H    2.169158   4.313309   6.744293   8.635055   7.609206
    23  H    1.103842   5.706335   7.932086   9.602154   7.835996
    24  H    1.098958   4.631056   6.576448   8.077275   6.139859
    25  H    1.101730   4.590483   6.801049   8.720089   7.263992
                   16         17         18         19         20
    16  H    0.000000
    17  H    1.796183   0.000000
    18  H    3.795770   2.565851   0.000000
    19  H    4.333805   3.770077   1.787647   0.000000
    20  H    3.778856   3.044264   1.792391   1.777408   0.000000
    21  H    6.685529   8.096835   9.145814   8.543008   7.825636
    22  H    7.816602   9.193344   9.859029   8.954838   8.476472
    23  H    8.480570   9.594150  10.312069   9.620610   8.727340
    24  H    6.952458   7.923308   8.608810   8.022800   7.009123
    25  H    8.025993   9.005894   9.309590   8.403406   7.666731
                   21         22         23         24         25
    21  H    0.000000
    22  H    1.789528   0.000000
    23  H    2.526124   2.516932   0.000000
    24  H    2.448729   3.063627   1.793583   0.000000
    25  H    3.070939   2.533661   1.790576   1.790911   0.000000
 Stoichiometry    C8H14NO2(1-)
 Framework group  C1[X(C8H14NO2)]
 Deg. of freedom    69
 Full point group                 C1      NOp   1
 Largest Abelian subgroup         C1      NOp   1
 Largest concise Abelian subgroup C1      NOp   1
                         Standard orientation:                         
 ---------------------------------------------------------------------
 Center     Atomic      Atomic             Coordinates (Angstroms)
 Number     Number       Type             X           Y           Z
 ---------------------------------------------------------------------
      1          8           0       -1.568949    1.250937   -0.137778
      2          6           0       -1.420401    0.044270   -0.281775
      3          6           0       -0.249266   -0.743501   -0.375898
      4          7           0        0.970061   -0.165034   -0.282608
      5          6           0        2.080755   -0.802416   -0.370812
      6          6           0        3.415931   -0.107591   -0.209986
      7          6           0        3.269202    1.405430   -0.325079
      8          6           0        4.079194   -0.486409    1.121454
      9          8           0       -2.565443   -0.767149   -0.380809
     10          6           0       -3.790438   -0.094163   -0.316949
     11          6           0       -4.184710    0.250497    1.112750
     12          1           0       -0.361039   -1.827367   -0.522055
     13          1           0        2.108513   -1.902991   -0.529181
     14          1           0        4.089931   -0.460874   -1.017006
     15          1           0        2.540556    1.760945    0.419080
     16          1           0        2.864706    1.685219   -1.309589
     17          1           0        4.234897    1.918038   -0.171765
     18          1           0        5.094730   -0.059996    1.218075
     19          1           0        4.155718   -1.581117    1.229349
     20          1           0        3.463278   -0.115406    1.958318
     21          1           0       -3.754280    0.831442   -0.914122
     22          1           0       -4.535933   -0.771699   -0.767943
     23          1           0       -5.188634    0.706813    1.161547
     24          1           0       -3.448177    0.961768    1.511901
     25          1           0       -4.181162   -0.656541    1.738112
 ---------------------------------------------------------------------
 Rotational constants (GHZ):           3.1819816           0.3754631           0.3646429
 Standard basis: def2SVP (5D, 7F)
 There are   235 symmetry adapted cartesian basis functions of A   symmetry.
 There are   224 symmetry adapted basis functions of A   symmetry.
   224 basis functions,   373 primitive gaussians,   235 cartesian basis functions
    43 alpha electrons       43 beta electrons
       nuclear repulsion energy       597.9745033322 Hartrees.
 NAtoms=   25 NActive=   25 NUniq=   25 SFac= 1.00D+00 NAtFMM=   60 NAOKFM=F Big=F
 Integral buffers will be    131072 words long.
 Raffenetti 2 integral format.
 Two-electron integral symmetry is turned on.
 Nuclear repulsion after empirical dispersion term =      597.9736976889 Hartrees.
 One-electron integrals computed using PRISM.
   1 Symmetry operations used in ECPInt.
 ECPInt:  NShTT=    5886 NPrTT=   20688 LenC2=    5359 LenP2D=   14032.
 LDataN:  DoStor=T MaxTD1= 4 Len=   56
 NBasis=   224 RedAO= T EigKep=  1.27D-03  NBF=   224
 NBsUse=   224 1.00D-06 EigRej= -1.00D+00 NBFU=   224
 Initial guess from the checkpoint file:  "A18_crest_conformers_censo-13.chk"
 B after Tr=    -0.000000    0.000000   -0.000000
         Rot=    0.999820   -0.018981   -0.000529   -0.000224 Ang=  -2.18 deg.
 ExpMin= 1.22D-01 ExpMax= 2.27D+03 ExpMxC= 3.41D+02 IAcc=3 IRadAn=         5 AccDes= 0.00D+00
 Harris functional with IExCor= 1009 and IRadAn=       5 diagonalized for initial guess.
 HarFok:  IExCor= 1009 AccDes= 0.00D+00 IRadAn=         5 IDoV= 1 UseB2=F ITyADJ=14
 ICtDFT=  3500011 ScaDFX=  1.000000  1.000000  1.000000  1.000000
 FoFCou: FMM=F IPFlag=           0 FMFlag=      100000 FMFlg1=           0
         NFxFlg=           0 DoJE=T BraDBF=F KetDBF=T FulRan=T
         wScrn=  0.000000 ICntrl=       500 IOpCl=  0 I1Cent=   200000004 NGrid=           0
         NMat0=    1 NMatS0=      1 NMatT0=    0 NMatD0=    1 NMtDS0=    0 NMtDT0=    0
 Petite list used in FoFCou.
 Requested convergence on RMS density matrix=1.00D-08 within 128 cycles.
 Requested convergence on MAX density matrix=1.00D-06.
 Requested convergence on             energy=1.00D-06.
 No special actions if energy rises.
 Integral accuracy reduced to 1.0D-05 until final iterations.
 Initial convergence to 1.0D-05 achieved.  Increase integral accuracy.
 SCF Done:  E(RM062X) =  -517.870056151     A.U. after   13 cycles
            NFock= 13  Conv=0.38D-08     -V/T= 2.0101
   1 Symmetry operations used in ECPInt.
 ECPInt:  NShTT=    5886 NPrTT=   20688 LenC2=    5359 LenP2D=   14032.
 LDataN:  DoStor=T MaxTD1= 5 Len=  102
 Calling FoFJK, ICntrl=      2127 FMM=F ISym2X=0 I1Cent= 0 IOpClX= 0 NMat=1 NMatS=1 NMatT=0.
 ***** Axes restored to original set *****
 -------------------------------------------------------------------
 Center     Atomic                   Forces (Hartrees/Bohr)
 Number     Number              X              Y              Z
 -------------------------------------------------------------------
      1        8           0.000709435   -0.001421123   -0.002138415
      2        6          -0.004322088    0.002010833    0.002889369
      3        6           0.001064461   -0.002043691   -0.002708349
      4        7           0.000802834    0.001549917    0.000658867
      5        6           0.000418364   -0.000655235   -0.000038869
      6        6           0.000048667    0.001157144    0.000433899
      7        6           0.000439670   -0.000664566   -0.001556797
      8        6          -0.000249010   -0.001173406    0.001294675
      9        8           0.001967832    0.000534324    0.000789175
     10        6           0.001266515    0.001068320   -0.000153625
     11        6           0.000049835   -0.001808172    0.000403349
     12        1           0.000033468   -0.000002078    0.000145791
     13        1          -0.000441200   -0.000664857   -0.000034843
     14        1          -0.000154518   -0.000322552   -0.000468401
     15        1          -0.000888898    0.000732943   -0.000010488
     16        1          -0.000279753   -0.000670060    0.000870191
     17        1           0.000635413    0.000278011    0.000509023
     18        1           0.000903475    0.000366010    0.000161627
     19        1          -0.000062121   -0.000059355   -0.000832147
     20        1          -0.000671782    0.000902118   -0.000164528
     21        1          -0.000499606   -0.000176596    0.000143755
     22        1          -0.000087162   -0.000355473   -0.000067852
     23        1          -0.001103231    0.000923616    0.000171928
     24        1           0.000522855    0.000318237    0.000536350
     25        1          -0.000103453    0.000175689   -0.000833685
 -------------------------------------------------------------------
 Cartesian Forces:  Max     0.004322088 RMS     0.001063667

 GradGradGradGradGradGradGradGradGradGradGradGradGradGradGradGradGradGrad
 Berny optimization.
 Using GEDIIS/GDIIS optimizer.
 FormGI is forming the generalized inverse of G from B-inverse, IUseBI=4.
 Internal  Forces:  Max     0.002632816 RMS     0.000600686
 Search for a local minimum.
 Step number   5 out of a maximum of  121
 All quantities printed in internal units (Hartrees-Bohrs-Radians)
 Mixed Optimization -- En-DIIS/RFO-DIIS
 Swapping is turned off.
 Update second derivatives using D2CorX and points    2    3    4    5
 DE= -3.38D-04 DEPred=-2.62D-04 R= 1.29D+00
 TightC=F SS=  1.41D+00  RLast= 1.42D-01 DXNew= 1.0527D+00 4.2639D-01
 Trust test= 1.29D+00 RLast= 1.42D-01 DXMaxT set to 6.26D-01
 ITU=  1  0  1  1  0
     Eigenvalues ---    0.00140   0.00288   0.00369   0.00446   0.01285
     Eigenvalues ---    0.01416   0.01763   0.02337   0.02362   0.02502
     Eigenvalues ---    0.03338   0.04094   0.04881   0.04957   0.05331
     Eigenvalues ---    0.05467   0.05534   0.05627   0.05740   0.05783
     Eigenvalues ---    0.05797   0.05851   0.07881   0.11802   0.14022
     Eigenvalues ---    0.15719   0.15885   0.15998   0.16000   0.16000
     Eigenvalues ---    0.16000   0.16000   0.16000   0.16002   0.16037
     Eigenvalues ---    0.16152   0.16883   0.18226   0.21673   0.22775
     Eigenvalues ---    0.23236   0.24906   0.25022   0.25715   0.26940
     Eigenvalues ---    0.28998   0.29449   0.30051   0.31786   0.33033
     Eigenvalues ---    0.33434   0.33666   0.33870   0.34023   0.34340
     Eigenvalues ---    0.34636   0.34817   0.34913   0.34953   0.35106
     Eigenvalues ---    0.35127   0.35307   0.35679   0.39160   0.46411
     Eigenvalues ---    0.46954   0.57521   0.73966   0.90449
 En-DIIS/RFO-DIIS/Sim-DIIS IScMMF=       -3 using points:     5    4    3
 RFO step:  Lambda=-4.59512263D-04.
 DidBck=F Rises=F RFO-DIIS coefs:    3.00000   -1.12693   -0.87307
 Iteration  1 RMS(Cart)=  0.13693879 RMS(Int)=  0.00864584
 Iteration  2 RMS(Cart)=  0.02385555 RMS(Int)=  0.00018360
 Iteration  3 RMS(Cart)=  0.00035632 RMS(Int)=  0.00009254
 Iteration  4 RMS(Cart)=  0.00000007 RMS(Int)=  0.00009254
 Variable       Old X    -DE/DX   Delta X   Delta X   Delta X     New X
                                 (Linear)    (Quad)   (Total)
    R1        2.31354   0.00263   0.00203   0.00295   0.00498   2.31853
    R2        2.67314  -0.00253   0.00459  -0.00767  -0.00309   2.67006
    R3        2.65863   0.00234  -0.01629   0.00977  -0.00652   2.65211
    R4        2.55643  -0.00093  -0.00303  -0.00172  -0.00475   2.55169
    R5        2.07751   0.00012  -0.00185   0.00153  -0.00031   2.07720
    R6        2.42569   0.00012   0.00198  -0.00120   0.00078   2.42647
    R7        2.86051  -0.00000  -0.00100  -0.00419  -0.00519   2.85532
    R8        2.10186  -0.00039  -0.00090  -0.00029  -0.00119   2.10067
    R9        2.88083   0.00028  -0.00442   0.00072  -0.00369   2.87714
   R10        2.90069   0.00028  -0.00467   0.00187  -0.00280   2.89788
   R11        2.09612  -0.00015   0.00182   0.00018   0.00200   2.09812
   R12        2.07963  -0.00114  -0.00279  -0.00167  -0.00446   2.07517
   R13        2.07969  -0.00111  -0.00330  -0.00268  -0.00598   2.07372
   R14        2.08628  -0.00083  -0.00146  -0.00241  -0.00387   2.08241
   R15        2.08939  -0.00097  -0.00208  -0.00262  -0.00471   2.08468
   R16        2.08375  -0.00080  -0.00137  -0.00184  -0.00321   2.08054
   R17        2.08499  -0.00113  -0.00155  -0.00253  -0.00408   2.08091
   R18        2.64400  -0.00008   0.00351  -0.00231   0.00120   2.64520
   R19        2.87728   0.00026  -0.00000  -0.00036  -0.00036   2.87692
   R20        2.08270  -0.00014   0.00294  -0.00231   0.00063   2.08334
   R21        2.08574  -0.00031  -0.00200  -0.00006  -0.00205   2.08369
   R22        2.08596  -0.00126  -0.00191  -0.00369  -0.00561   2.08035
   R23        2.07673  -0.00077  -0.00463  -0.00014  -0.00477   2.07196
   R24        2.08197  -0.00085  -0.00167  -0.00199  -0.00366   2.07831
    A1        2.28786   0.00022  -0.01009   0.00392  -0.00670   2.28116
    A2        2.06915  -0.00071   0.00183  -0.00171  -0.00041   2.06874
    A3        1.92618   0.00050   0.00962  -0.00222   0.00687   1.93305
    A4        2.09844   0.00136  -0.00494   0.00872   0.00378   2.10222
    A5        2.06430  -0.00070   0.00361  -0.00491  -0.00131   2.06300
    A6        2.12044  -0.00066   0.00133  -0.00380  -0.00247   2.11796
    A7        2.16861  -0.00000  -0.00012  -0.00202  -0.00214   2.16648
    A8        2.12704   0.00104   0.00716   0.00205   0.00908   2.13612
    A9        2.12083  -0.00002  -0.00175   0.00425   0.00237   2.12319
   A10        2.03456  -0.00102  -0.00492  -0.00572  -0.01078   2.02378
   A11        1.94191   0.00025   0.00414  -0.00271   0.00141   1.94332
   A12        1.93907  -0.00031   0.00425  -0.00362   0.00061   1.93969
   A13        1.88859   0.00019   0.00191   0.00528   0.00721   1.89580
   A14        1.93052   0.00013   0.00277   0.00121   0.00396   1.93448
   A15        1.89617  -0.00022  -0.00637  -0.00036  -0.00674   1.88943
   A16        1.86494  -0.00005  -0.00745   0.00051  -0.00694   1.85801
   A17        1.91060   0.00016   0.00671   0.00107   0.00779   1.91839
   A18        1.93396  -0.00024   0.00035  -0.00157  -0.00121   1.93275
   A19        1.94567  -0.00030  -0.00024  -0.00392  -0.00416   1.94150
   A20        1.85400   0.00009  -0.00920   0.00260  -0.00659   1.84741
   A21        1.91267   0.00002  -0.00162  -0.00084  -0.00246   1.91021
   A22        1.90465   0.00029   0.00357   0.00297   0.00654   1.91119
   A23        1.95789  -0.00027   0.00147  -0.00470  -0.00323   1.95466
   A24        1.93892  -0.00016   0.00152  -0.00139   0.00012   1.93905
   A25        1.91104   0.00003   0.00584   0.00141   0.00724   1.91828
   A26        1.88661   0.00013  -0.00265   0.00029  -0.00237   1.88424
   A27        1.89312   0.00009  -0.00334   0.00099  -0.00235   1.89076
   A28        1.87376   0.00020  -0.00325   0.00381   0.00055   1.87431
   A29        2.01745  -0.00073   0.00406  -0.00668  -0.00262   2.01484
   A30        1.95892  -0.00041   0.01462  -0.01216   0.00242   1.96135
   A31        1.92891  -0.00021   0.00028  -0.00623  -0.00605   1.92286
   A32        1.85193   0.00041  -0.01194   0.01092  -0.00101   1.85092
   A33        1.90410   0.00019   0.00701  -0.00359   0.00338   1.90748
   A34        1.92595  -0.00012  -0.00483   0.00519   0.00039   1.92634
   A35        1.89263   0.00016  -0.00621   0.00687   0.00065   1.89328
   A36        1.95045  -0.00110   0.00024  -0.01038  -0.01016   1.94029
   A37        1.89021   0.00049   0.00231   0.00419   0.00650   1.89671
   A38        1.92388   0.00003  -0.00498   0.00295  -0.00206   1.92182
   A39        1.90279   0.00030   0.00584  -0.00022   0.00563   1.90842
   A40        1.89460   0.00046  -0.00517   0.00443  -0.00079   1.89381
   A41        1.90131  -0.00016   0.00202  -0.00087   0.00114   1.90245
    D1        0.02073  -0.00016   0.02467  -0.01747   0.00720   0.02793
    D2       -3.12432  -0.00015   0.02243  -0.01360   0.00884  -3.11549
    D3       -3.12262  -0.00013   0.00428  -0.01949  -0.01522  -3.13784
    D4        0.01551  -0.00011   0.00204  -0.01562  -0.01359   0.00193
    D5        0.01135  -0.00023  -0.07716   0.02760  -0.04952  -0.03817
    D6       -3.12873  -0.00026  -0.05946   0.02933  -0.03016   3.12429
    D7       -3.12857  -0.00011  -0.00033  -0.00903  -0.00936  -3.13793
    D8        0.01659  -0.00012   0.00198  -0.01303  -0.01105   0.00554
    D9       -3.10347  -0.00003  -0.00517  -0.01596  -0.02121  -3.12467
   D10       -0.00539   0.00003   0.00633   0.00045   0.00685   0.00146
   D11       -0.27171   0.00036   0.15837   0.07474   0.23309  -0.03863
   D12        1.88749   0.00048   0.16800   0.07171   0.23969   2.12718
   D13       -2.35357   0.00036   0.16253   0.07346   0.23596  -2.11760
   D14        2.91136   0.00028   0.14735   0.05887   0.20625   3.11760
   D15       -1.21262   0.00041   0.15698   0.05584   0.21285  -0.99977
   D16        0.82950   0.00029   0.15151   0.05759   0.20912   1.03863
   D17        0.98638  -0.00003   0.04552   0.01085   0.05637   1.04275
   D18       -1.05275  -0.00010   0.05248   0.00795   0.06044  -0.99231
   D19        3.10546  -0.00009   0.04785   0.00796   0.05581  -3.12192
   D20       -1.17769   0.00010   0.03510   0.01659   0.05168  -1.12600
   D21        3.06637   0.00003   0.04206   0.01369   0.05575   3.12211
   D22        0.94139   0.00004   0.03743   0.01370   0.05112   0.99251
   D23        3.06370   0.00021   0.04633   0.01549   0.06182   3.12552
   D24        1.02457   0.00015   0.05329   0.01259   0.06588   1.09045
   D25       -1.10040   0.00015   0.04866   0.01260   0.06126  -1.03915
   D26        3.05343  -0.00007  -0.02044   0.00485  -0.01559   3.03784
   D27        0.93961   0.00006  -0.01914   0.00874  -0.01040   0.92921
   D28       -1.12703  -0.00012  -0.01973   0.00400  -0.01574  -1.14277
   D29       -1.06406   0.00012  -0.01011  -0.00036  -0.01046  -1.07452
   D30        3.10530   0.00025  -0.00881   0.00353  -0.00527   3.10003
   D31        1.03867   0.00008  -0.00940  -0.00121  -0.01061   1.02806
   D32        0.99691  -0.00010  -0.02063   0.00017  -0.02046   0.97645
   D33       -1.11692   0.00003  -0.01933   0.00406  -0.01527  -1.13218
   D34        3.09963  -0.00015  -0.01992  -0.00068  -0.02061   3.07903
   D35       -1.39090  -0.00011   0.03690   0.01611   0.05299  -1.33791
   D36        0.73900  -0.00030   0.05614  -0.00145   0.05468   0.79368
   D37        2.78735   0.00001   0.04202   0.00971   0.05176   2.83911
   D38       -3.06048  -0.00018   0.01358  -0.01411  -0.00052  -3.06100
   D39        1.12649  -0.00019   0.00471  -0.01020  -0.00546   1.12103
   D40       -0.95201  -0.00031   0.00377  -0.01340  -0.00959  -0.96160
   D41        1.07876   0.00024  -0.00141   0.00460   0.00315   1.08190
   D42       -1.01746   0.00023  -0.01028   0.00850  -0.00179  -1.01926
   D43       -3.09597   0.00011  -0.01122   0.00531  -0.00592  -3.10189
   D44       -0.99888  -0.00000   0.00477  -0.00474   0.00002  -0.99886
   D45       -3.09510  -0.00001  -0.00410  -0.00083  -0.00492  -3.10002
   D46        1.10959  -0.00013  -0.00504  -0.00402  -0.00905   1.10054
         Item               Value     Threshold  Converged?
 Maximum Force            0.002633     0.000450     NO 
 RMS     Force            0.000601     0.000300     NO 
 Maximum Displacement     0.495685     0.001800     NO 
 RMS     Displacement     0.157028     0.001200     NO 
 Predicted change in Energy=-2.720387D-04
 GradGradGradGradGradGradGradGradGradGradGradGradGradGradGradGradGradGrad

                          Input orientation:                          
 ---------------------------------------------------------------------
 Center     Atomic      Atomic             Coordinates (Angstroms)
 Number     Number       Type             X           Y           Z
 ---------------------------------------------------------------------
      1          8           0        1.575169   -0.254338   -1.210284
      2          6           0        1.417681    0.281264   -0.117746
      3          6           0        0.237192    0.609759    0.585755
      4          7           0       -0.973292    0.302349    0.072411
      5          6           0       -2.089225    0.570663    0.648122
      6          6           0       -3.422160    0.189154    0.047482
      7          6           0       -3.247560   -0.480347   -1.308739
      8          6           0       -4.221314   -0.708387    1.000044
      9          8           0        2.553499    0.687193    0.599733
     10          6           0        3.782331    0.388948   -0.000606
     11          6           0        4.158570   -1.078791    0.147318
     12          1           0        0.334830    1.117176    1.555937
     13          1           0       -2.128819    1.088065    1.631203
     14          1           0       -4.023885    1.111332   -0.094754
     15          1           0       -2.640671   -1.389279   -1.201840
     16          1           0       -2.692637    0.171492   -1.995306
     17          1           0       -4.221503   -0.739780   -1.754220
     18          1           0       -5.238126   -0.909639    0.622464
     19          1           0       -4.313943   -0.246812    1.995287
     20          1           0       -3.703490   -1.671375    1.130781
     21          1           0        3.756419    0.652210   -1.070852
     22          1           0        4.528794    1.028741    0.498669
     23          1           0        5.162952   -1.274621   -0.258632
     24          1           0        3.423334   -1.685934   -0.393954
     25          1           0        4.148825   -1.366575    1.208748
 ---------------------------------------------------------------------
                    Distance matrix (angstroms):
                    1          2          3          4          5
     1  O    0.000000
     2  C    1.226911   0.000000
     3  C    2.400542   1.412932   0.000000
     4  N    2.906865   2.398616   1.350295   0.000000
     5  C    4.190714   3.601207   2.327581   1.284033   0.000000
     6  C    5.172229   4.843537   3.722567   2.451609   1.510972
     7  C    4.829026   4.874730   4.113506   2.773532   2.505128
     8  C    6.220203   5.833278   4.667700   3.525867   2.511100
     9  O    2.262690   1.403437   2.317643   3.586702   4.644438
    10  C    2.597826   2.369997   3.600082   4.756973   5.910079
    11  C    3.032617   3.071234   4.291927   5.314995   6.481238
    12  H    3.327381   2.161603   1.099207   2.139153   2.645533
    13  H    4.857533   4.035767   2.630541   2.093424   1.111629
    14  H    5.870168   5.504561   4.344128   3.160461   2.141752
    15  H    4.365944   4.520641   3.933668   2.695454   2.750968
    16  H    4.360248   4.520177   3.929104   2.692346   2.740650
    17  H    5.842340   5.959948   5.213128   3.869559   3.469167
    18  H    7.085857   6.801906   5.682343   4.467692   3.479588
    19  H    6.705027   6.131500   4.840798   3.893453   2.726260
    20  H    5.945824   5.621211   4.585804   3.531248   2.804558
    21  H    2.366247   2.552588   3.889873   4.878486   6.093691
    22  H    3.645643   3.258483   4.312886   5.566175   6.635537
    23  H    3.849520   4.058039   5.341066   6.344282   7.537993
    24  H    2.476201   2.822907   4.047411   4.847792   6.047020
    25  H    3.703038   3.454578   4.426611   5.505693   6.555948
                    6          7          8          9         10
     6  C    0.000000
     7  C    1.522514   0.000000
     8  C    1.533493   2.516084   0.000000
     9  O    6.021754   6.217531   6.928635   0.000000
    10  C    7.207422   7.203211   8.140257   1.399781   0.000000
    11  C    7.686684   7.571591   8.431299   2.428916   1.522398
    12  H    4.153509   4.857156   4.939650   2.453916   3.852065
    13  H    2.233594   3.514933   2.829158   4.811313   6.171974
    14  H    1.110278   2.147064   2.132824   6.627533   7.840135
    15  H    2.159393   1.098134   2.794698   5.876802   6.772002
    16  H    2.169216   1.097364   3.476084   5.875553   6.778742
    17  H    2.178990   1.101964   2.754443   7.312865   8.271067
    18  H    2.199018   2.806455   1.103166   7.953603   9.134724
    19  H    2.186158   3.479698   1.100972   7.069774   8.362861
    20  H    2.171232   2.752758   1.101172   6.707814   7.846177
    21  H    7.279910   7.098943   8.353686   2.058906   1.102454
    22  H    8.007881   8.125008   8.934953   2.007153   1.102641
    23  H    8.714384   8.512949   9.485217   3.375611   2.177189
    24  H    7.111371   6.840401   7.831952   2.715834   2.142134
    25  H    7.815922   7.863183   8.398571   2.670941   2.163034
                   11         12         13         14         15
    11  C    0.000000
    12  H    4.628981   0.000000
    13  H    6.813842   2.464971   0.000000
    14  H    8.473949   4.660817   2.563346   0.000000
    15  H    6.938754   4.768779   3.798072   3.064633   0.000000
    16  H    7.286500   4.761429   3.782798   2.503522   1.751655
    17  H    8.599791   5.930059   4.379661   2.493892   1.796108
    18  H    9.410221   6.003098   3.830948   2.464367   3.210126
    19  H    8.711525   4.864626   2.586353   2.509374   3.785061
    20  H    7.945461   4.925932   3.216289   3.057457   2.578814
    21  H    2.154537   4.338604   6.490539   7.854725   6.716219
    22  H    2.168457   4.326081   6.753516   8.573640   7.754985
    23  H    1.100876   5.685430   7.894535   9.493030   7.861254
    24  H    1.096435   4.604167   6.528609   7.960860   6.124772
    25  H    1.099795   4.564659   6.753706   8.639001   7.204770
                   16         17         18         19         20
    16  H    0.000000
    17  H    1.796098   0.000000
    18  H    3.808028   2.590560   0.000000
    19  H    4.327637   3.782904   1.782721   0.000000
    20  H    3.767015   3.075620   1.787102   1.774655   0.000000
    21  H    6.532690   8.127230   9.284855   8.679873   8.117665
    22  H    7.687904   9.207110   9.958181   9.058748   8.686812
    23  H    8.174201   9.517922  10.444710   9.795310   8.983411
    24  H    6.589345   7.822344   8.755377   8.224658   7.288117
    25  H    7.709554   8.901373   9.416335   8.572687   7.858615
                   21         22         23         24         25
    21  H    0.000000
    22  H    1.789339   0.000000
    23  H    2.520063   2.506220   0.000000
    24  H    2.456838   3.064030   1.792697   0.000000
    25  H    3.070188   2.527080   1.786089   1.788011   0.000000
 Stoichiometry    C8H14NO2(1-)
 Framework group  C1[X(C8H14NO2)]
 Deg. of freedom    69
 Full point group                 C1      NOp   1
 Largest Abelian subgroup         C1      NOp   1
 Largest concise Abelian subgroup C1      NOp   1
                         Standard orientation:                         
 ---------------------------------------------------------------------
 Center     Atomic      Atomic             Coordinates (Angstroms)
 Number     Number       Type             X           Y           Z
 ---------------------------------------------------------------------
      1          8           0       -1.610290    1.228309   -0.272635
      2          6           0       -1.444151    0.012842   -0.291344
      3          6           0       -0.258098   -0.754797   -0.310968
      4          7           0        0.948878   -0.150273   -0.278460
      5          6           0        2.069335   -0.777144   -0.297167
      6          6           0        3.398524   -0.061076   -0.237690
      7          6           0        3.213252    1.449883   -0.210715
      8          6           0        4.226292   -0.530702    0.964746
      9          8           0       -2.574830   -0.817782   -0.326881
     10          6           0       -3.808078   -0.156665   -0.289356
     11          6           0       -4.159083    0.336408    1.107559
     12          1           0       -0.348491   -1.849536   -0.351378
     13          1           0        2.116187   -1.886801   -0.343912
     14          1           0        3.983539   -0.323638   -1.144077
     15          1           0        2.622319    1.738647    0.668666
     16          1           0        2.637624    1.786413   -1.082270
     17          1           0        4.184054    1.970777   -0.187546
     18          1           0        5.240106   -0.095781    0.963583
     19          1           0        4.327225   -1.627010    0.972539
     20          1           0        3.725615   -0.239629    1.901324
     21          1           0       -3.802944    0.697406   -0.986451
     22          1           0       -4.556536   -0.887596   -0.637736
     23          1           0       -5.166500    0.779667    1.131252
     24          1           0       -3.423012    1.091191    1.408678
     25          1           0       -4.128324   -0.498918    1.822284
 ---------------------------------------------------------------------
 Rotational constants (GHZ):           3.2618354           0.3739211           0.3603427
 Standard basis: def2SVP (5D, 7F)
 There are   235 symmetry adapted cartesian basis functions of A   symmetry.
 There are   224 symmetry adapted basis functions of A   symmetry.
   224 basis functions,   373 primitive gaussians,   235 cartesian basis functions
    43 alpha electrons       43 beta electrons
       nuclear repulsion energy       597.9600883216 Hartrees.
 NAtoms=   25 NActive=   25 NUniq=   25 SFac= 1.00D+00 NAtFMM=   60 NAOKFM=F Big=F
 Integral buffers will be    131072 words long.
 Raffenetti 2 integral format.
 Two-electron integral symmetry is turned on.
 Nuclear repulsion after empirical dispersion term =      597.9592862227 Hartrees.
 One-electron integrals computed using PRISM.
   1 Symmetry operations used in ECPInt.
 ECPInt:  NShTT=    5886 NPrTT=   20688 LenC2=    5354 LenP2D=   14030.
 LDataN:  DoStor=T MaxTD1= 4 Len=   56
 NBasis=   224 RedAO= T EigKep=  1.20D-03  NBF=   224
 NBsUse=   224 1.00D-06 EigRej= -1.00D+00 NBFU=   224
 Initial guess from the checkpoint file:  "A18_crest_conformers_censo-13.chk"
 B after Tr=     0.000000    0.000000    0.000000
         Rot=    0.999972    0.006090   -0.003777   -0.002208 Ang=   0.86 deg.
 ExpMin= 1.22D-01 ExpMax= 2.27D+03 ExpMxC= 3.41D+02 IAcc=3 IRadAn=         5 AccDes= 0.00D+00
 Harris functional with IExCor= 1009 and IRadAn=       5 diagonalized for initial guess.
 HarFok:  IExCor= 1009 AccDes= 0.00D+00 IRadAn=         5 IDoV= 1 UseB2=F ITyADJ=14
 ICtDFT=  3500011 ScaDFX=  1.000000  1.000000  1.000000  1.000000
 FoFCou: FMM=F IPFlag=           0 FMFlag=      100000 FMFlg1=           0
         NFxFlg=           0 DoJE=T BraDBF=F KetDBF=T FulRan=T
         wScrn=  0.000000 ICntrl=       500 IOpCl=  0 I1Cent=   200000004 NGrid=           0
         NMat0=    1 NMatS0=      1 NMatT0=    0 NMatD0=    1 NMtDS0=    0 NMtDT0=    0
 Petite list used in FoFCou.
 Requested convergence on RMS density matrix=1.00D-08 within 128 cycles.
 Requested convergence on MAX density matrix=1.00D-06.
 Requested convergence on             energy=1.00D-06.
 No special actions if energy rises.
 Integral accuracy reduced to 1.0D-05 until final iterations.
 Initial convergence to 1.0D-05 achieved.  Increase integral accuracy.
 SCF Done:  E(RM062X) =  -517.870402698     A.U. after   14 cycles
            NFock= 14  Conv=0.51D-08     -V/T= 2.0100
   1 Symmetry operations used in ECPInt.
 ECPInt:  NShTT=    5886 NPrTT=   20688 LenC2=    5354 LenP2D=   14030.
 LDataN:  DoStor=T MaxTD1= 5 Len=  102
 Calling FoFJK, ICntrl=      2127 FMM=F ISym2X=0 I1Cent= 0 IOpClX= 0 NMat=1 NMatS=1 NMatT=0.
 ***** Axes restored to original set *****
 -------------------------------------------------------------------
 Center     Atomic                   Forces (Hartrees/Bohr)
 Number     Number              X              Y              Z
 -------------------------------------------------------------------
      1        8           0.000580572   -0.000978838    0.000610847
      2        6          -0.004626105    0.002412911   -0.003108126
      3        6           0.002437332   -0.000939704   -0.000451910
      4        7          -0.001974071    0.000124787    0.000325077
      5        6           0.000746045   -0.000711841   -0.000042444
      6        6          -0.000172834    0.000414480    0.000266122
      7        6          -0.000017647    0.000637003   -0.001210249
      8        6           0.000041321   -0.000166916    0.000621244
      9        8           0.002473571   -0.000450245    0.002626587
     10        6          -0.000391343    0.001054496   -0.000963924
     11        6           0.000520881    0.000272173    0.000900717
     12        1           0.000165080    0.000006766    0.000511020
     13        1           0.000175052    0.000023323    0.000352020
     14        1          -0.000224590    0.000080747   -0.000519526
     15        1           0.000219154   -0.000968487    0.000482940
     16        1           0.000109764    0.000544658   -0.000044196
     17        1          -0.000408692   -0.000336106   -0.000102420
     18        1          -0.000293975    0.000051138   -0.000301790
     19        1          -0.000081357    0.000417511    0.000311085
     20        1           0.000366821   -0.000320558   -0.000088801
     21        1           0.000062088   -0.000614391    0.000092760
     22        1           0.000175050   -0.000032794    0.000173042
     23        1           0.000524414   -0.000155268   -0.000510266
     24        1          -0.000283170   -0.000209029   -0.000398409
     25        1          -0.000123360   -0.000155819    0.000468598
 -------------------------------------------------------------------
 Cartesian Forces:  Max     0.004626105 RMS     0.000997594

 GradGradGradGradGradGradGradGradGradGradGradGradGradGradGradGradGradGrad
 Berny optimization.
 Using GEDIIS/GDIIS optimizer.
 FormGI is forming the generalized inverse of G from B-inverse, IUseBI=4.
 Internal  Forces:  Max     0.003534476 RMS     0.000547104
 Search for a local minimum.
 Step number   6 out of a maximum of  121
 All quantities printed in internal units (Hartrees-Bohrs-Radians)
 Mixed Optimization -- En-DIIS/RFO-DIIS
 Swapping is turned off.
 Update second derivatives using D2CorX and points    5    6
 DE= -3.47D-04 DEPred=-2.72D-04 R= 1.27D+00
 TightC=F SS=  1.41D+00  RLast= 5.88D-01 DXNew= 1.0527D+00 1.7644D+00
 Trust test= 1.27D+00 RLast= 5.88D-01 DXMaxT set to 1.05D+00
 ITU=  1  1  0  1  1  0
     Eigenvalues ---    0.00117   0.00286   0.00369   0.00443   0.01286
     Eigenvalues ---    0.01423   0.01796   0.02323   0.02360   0.02504
     Eigenvalues ---    0.03338   0.04056   0.04903   0.05116   0.05347
     Eigenvalues ---    0.05478   0.05571   0.05608   0.05734   0.05744
     Eigenvalues ---    0.05814   0.05823   0.08218   0.11831   0.13993
     Eigenvalues ---    0.15314   0.15896   0.16000   0.16000   0.16000
     Eigenvalues ---    0.16000   0.16000   0.16001   0.16031   0.16072
     Eigenvalues ---    0.16180   0.16922   0.18260   0.21177   0.22665
     Eigenvalues ---    0.23183   0.24863   0.25269   0.25704   0.26978
     Eigenvalues ---    0.28877   0.29422   0.29880   0.31599   0.32996
     Eigenvalues ---    0.33297   0.33509   0.33867   0.33934   0.34201
     Eigenvalues ---    0.34638   0.34780   0.34923   0.34954   0.35071
     Eigenvalues ---    0.35123   0.35334   0.35530   0.40689   0.46407
     Eigenvalues ---    0.46650   0.58425   0.74056   0.90287
 En-DIIS/RFO-DIIS/Sim-DIIS IScMMF=       -3 using points:     6    5    4    3
 RFO step:  Lambda=-2.62994507D-04.
 DidBck=F Rises=F RFO-DIIS coefs:    1.25126    0.17227   -0.54300    0.11946
 Iteration  1 RMS(Cart)=  0.04401045 RMS(Int)=  0.00070838
 Iteration  2 RMS(Cart)=  0.00156200 RMS(Int)=  0.00006003
 Iteration  3 RMS(Cart)=  0.00000139 RMS(Int)=  0.00006002
 Iteration  4 RMS(Cart)=  0.00000000 RMS(Int)=  0.00006002
 Variable       Old X    -DE/DX   Delta X   Delta X   Delta X     New X
                                 (Linear)    (Quad)   (Total)
    R1        2.31853  -0.00004   0.00218  -0.00077   0.00141   2.31994
    R2        2.67006  -0.00112  -0.00206  -0.00184  -0.00391   2.66615
    R3        2.65211   0.00353   0.00015   0.00694   0.00709   2.65920
    R4        2.55169   0.00139  -0.00153   0.00168   0.00015   2.55184
    R5        2.07720   0.00047  -0.00012   0.00112   0.00100   2.07821
    R6        2.42647  -0.00060   0.00052  -0.00143  -0.00091   2.42556
    R7        2.85532   0.00055  -0.00025  -0.00056  -0.00080   2.85452
    R8        2.10067   0.00032  -0.00084   0.00124   0.00040   2.10107
    R9        2.87714   0.00082  -0.00034   0.00153   0.00119   2.87832
   R10        2.89788   0.00033  -0.00036   0.00045   0.00009   2.89797
   R11        2.09812   0.00026   0.00017   0.00074   0.00092   2.09904
   R12        2.07517   0.00097  -0.00238   0.00321   0.00083   2.07600
   R13        2.07372   0.00041  -0.00249   0.00151  -0.00098   2.07274
   R14        2.08241   0.00048  -0.00166   0.00137  -0.00029   2.08212
   R15        2.08468   0.00037  -0.00202   0.00122  -0.00081   2.08387
   R16        2.08054   0.00046  -0.00156   0.00138  -0.00018   2.08036
   R17        2.08091   0.00044  -0.00213   0.00166  -0.00047   2.08044
   R18        2.64520   0.00049   0.00076   0.00062   0.00139   2.64659
   R19        2.87692   0.00044   0.00051   0.00102   0.00153   2.87845
   R20        2.08334  -0.00024   0.00038  -0.00092  -0.00054   2.08280
   R21        2.08369   0.00018  -0.00090   0.00066  -0.00025   2.08344
   R22        2.08035   0.00069  -0.00247   0.00233  -0.00014   2.08022
   R23        2.07196   0.00050  -0.00225   0.00172  -0.00053   2.07143
   R24        2.07831   0.00050  -0.00170   0.00153  -0.00017   2.07814
    A1        2.28116   0.00115  -0.00176   0.00423   0.00213   2.28329
    A2        2.06874  -0.00017  -0.00099   0.00167   0.00033   2.06907
    A3        1.93305  -0.00096   0.00305  -0.00497  -0.00227   1.93078
    A4        2.10222   0.00092   0.00264   0.00209   0.00473   2.10695
    A5        2.06300  -0.00058  -0.00116  -0.00177  -0.00293   2.06007
    A6        2.11796  -0.00034  -0.00147  -0.00032  -0.00179   2.11617
    A7        2.16648   0.00032   0.00001  -0.00024  -0.00023   2.16625
    A8        2.13612  -0.00012   0.00433  -0.00361   0.00067   2.13678
    A9        2.12319  -0.00013   0.00004   0.00090   0.00089   2.12408
   A10        2.02378   0.00025  -0.00429   0.00288  -0.00146   2.02232
   A11        1.94332   0.00002   0.00235  -0.00306  -0.00071   1.94260
   A12        1.93969  -0.00047   0.00033  -0.00275  -0.00243   1.93726
   A13        1.89580   0.00030   0.00195   0.00297   0.00493   1.90073
   A14        1.93448   0.00045   0.00101   0.00148   0.00247   1.93695
   A15        1.88943  -0.00034  -0.00291  -0.00103  -0.00395   1.88549
   A16        1.85801   0.00005  -0.00302   0.00276  -0.00026   1.85774
   A17        1.91839  -0.00044   0.00207  -0.00308  -0.00100   1.91739
   A18        1.93275  -0.00038  -0.00065  -0.00117  -0.00182   1.93093
   A19        1.94150   0.00014  -0.00135   0.00064  -0.00071   1.94079
   A20        1.84741   0.00051  -0.00140   0.00377   0.00237   1.84978
   A21        1.91021  -0.00002  -0.00053  -0.00151  -0.00204   1.90817
   A22        1.91119   0.00020   0.00187   0.00147   0.00334   1.91453
   A23        1.95466  -0.00024  -0.00105  -0.00172  -0.00277   1.95189
   A24        1.93905  -0.00017  -0.00016  -0.00095  -0.00112   1.93793
   A25        1.91828  -0.00021   0.00167  -0.00058   0.00109   1.91937
   A26        1.88424   0.00017  -0.00063   0.00072   0.00009   1.88432
   A27        1.89076   0.00023  -0.00056   0.00125   0.00069   1.89146
   A28        1.87431   0.00026   0.00076   0.00148   0.00223   1.87654
   A29        2.01484   0.00108  -0.00021   0.00415   0.00394   2.01878
   A30        1.96135   0.00031   0.00156   0.00069   0.00225   1.96360
   A31        1.92286   0.00018  -0.00219   0.00386   0.00167   1.92453
   A32        1.85092  -0.00001  -0.00029  -0.00135  -0.00164   1.84929
   A33        1.90748  -0.00023   0.00165  -0.00112   0.00054   1.90802
   A34        1.92634  -0.00053  -0.00126  -0.00358  -0.00484   1.92150
   A35        1.89328   0.00029   0.00040   0.00155   0.00194   1.89522
   A36        1.94029  -0.00002  -0.00449   0.00165  -0.00285   1.93744
   A37        1.89671  -0.00016   0.00275  -0.00252   0.00024   1.89694
   A38        1.92182   0.00008  -0.00099   0.00145   0.00045   1.92227
   A39        1.90842  -0.00007   0.00249  -0.00255  -0.00005   1.90838
   A40        1.89381   0.00012   0.00001   0.00170   0.00169   1.89549
   A41        1.90245   0.00005   0.00035   0.00022   0.00057   1.90302
    D1        0.02793  -0.00082   0.01426  -0.02917  -0.01495   0.01299
    D2       -3.11549  -0.00085   0.01611  -0.02888  -0.01281  -3.12830
    D3       -3.13784   0.00059  -0.02052   0.01878  -0.00170  -3.13954
    D4        0.00193   0.00057  -0.01867   0.01907   0.00044   0.00237
    D5       -0.03817   0.00042  -0.04043   0.02090  -0.01962  -0.05779
    D6        3.12429  -0.00082  -0.01062  -0.02054  -0.03107   3.09322
    D7       -3.13793   0.00012  -0.00341   0.00400   0.00060  -3.13734
    D8        0.00554   0.00014  -0.00531   0.00370  -0.00161   0.00393
    D9       -3.12467  -0.00029  -0.00188  -0.01506  -0.01696   3.14155
   D10        0.00146  -0.00010   0.00300  -0.00098   0.00204   0.00351
   D11       -0.03863   0.00008   0.06720   0.01356   0.08076   0.04213
   D12        2.12718   0.00034   0.07044   0.01122   0.08166   2.20885
   D13       -2.11760   0.00031   0.06814   0.01480   0.08292  -2.03468
   D14        3.11760  -0.00010   0.06252   0.00025   0.06277  -3.10281
   D15       -0.99977   0.00016   0.06576  -0.00209   0.06368  -0.93610
   D16        1.03863   0.00012   0.06345   0.00148   0.06493   1.10356
   D17        1.04275  -0.00002   0.01789  -0.00205   0.01585   1.05860
   D18       -0.99231  -0.00015   0.01873  -0.00411   0.01463  -0.97768
   D19       -3.12192  -0.00024   0.01773  -0.00561   0.01213  -3.10978
   D20       -1.12600   0.00025   0.01505   0.00266   0.01771  -1.10829
   D21        3.12211   0.00012   0.01589   0.00061   0.01650   3.13861
   D22        0.99251   0.00003   0.01490  -0.00090   0.01400   1.00651
   D23        3.12552   0.00014   0.01987  -0.00089   0.01898  -3.13868
   D24        1.09045   0.00001   0.02071  -0.00294   0.01777   1.10822
   D25       -1.03915  -0.00008   0.01971  -0.00444   0.01527  -1.02388
   D26        3.03784   0.00006  -0.00490   0.01128   0.00639   3.04423
   D27        0.92921   0.00012  -0.00325   0.01221   0.00896   0.93817
   D28       -1.14277   0.00004  -0.00515   0.01134   0.00619  -1.13658
   D29       -1.07452   0.00007  -0.00090   0.00640   0.00550  -1.06902
   D30        3.10003   0.00014   0.00074   0.00733   0.00807   3.10810
   D31        1.02806   0.00006  -0.00115   0.00646   0.00530   1.03335
   D32        0.97645  -0.00007  -0.00562   0.00756   0.00194   0.97839
   D33       -1.13218  -0.00001  -0.00398   0.00849   0.00451  -1.12767
   D34        3.07903  -0.00009  -0.00588   0.00762   0.00174   3.08077
   D35       -1.33791  -0.00084   0.00370  -0.03078  -0.02707  -1.36498
   D36        0.79368  -0.00080   0.00536  -0.02897  -0.02361   0.77006
   D37        2.83911  -0.00037   0.00454  -0.02592  -0.02138   2.81773
   D38       -3.06100   0.00002  -0.00072   0.00300   0.00227  -3.05873
   D39        1.12103   0.00022  -0.00284   0.00677   0.00394   1.12496
   D40       -0.96160   0.00021  -0.00435   0.00717   0.00283  -0.95878
   D41        1.08190  -0.00025  -0.00017  -0.00160  -0.00178   1.08012
   D42       -1.01926  -0.00005  -0.00229   0.00217  -0.00012  -1.01937
   D43       -3.10189  -0.00006  -0.00380   0.00257  -0.00123  -3.10311
   D44       -0.99886  -0.00015  -0.00092  -0.00063  -0.00156  -1.00042
   D45       -3.10002   0.00005  -0.00304   0.00314   0.00010  -3.09991
   D46        1.10054   0.00004  -0.00456   0.00354  -0.00101   1.09953
         Item               Value     Threshold  Converged?
 Maximum Force            0.003534     0.000450     NO 
 RMS     Force            0.000547     0.000300     NO 
 Maximum Displacement     0.169038     0.001800     NO 
 RMS     Displacement     0.043862     0.001200     NO 
 Predicted change in Energy=-1.337813D-04
 GradGradGradGradGradGradGradGradGradGradGradGradGradGradGradGradGradGrad

                          Input orientation:                          
 ---------------------------------------------------------------------
 Center     Atomic      Atomic             Coordinates (Angstroms)
 Number     Number       Type             X           Y           Z
 ---------------------------------------------------------------------
      1          8           0        1.579650   -0.191790   -1.254441
      2          6           0        1.419853    0.301820   -0.141806
      3          6           0        0.241781    0.584893    0.581076
      4          7           0       -0.971384    0.293984    0.064246
      5          6           0       -2.083184    0.527029    0.661817
      6          6           0       -3.420185    0.185548    0.047351
      7          6           0       -3.250035   -0.502289   -1.300941
      8          6           0       -4.259370   -0.674291    1.000344
      9          8           0        2.556708    0.686948    0.592641
     10          6           0        3.790625    0.397378   -0.003213
     11          6           0        4.181342   -1.067163    0.147206
     12          1           0        0.342982    1.047852    1.573473
     13          1           0       -2.117992    0.998614    1.668090
     14          1           0       -3.991767    1.123996   -0.115143
     15          1           0       -2.689340   -1.438458   -1.174163
     16          1           0       -2.651782    0.118655   -1.978875
     17          1           0       -4.226245   -0.721474   -1.762413
     18          1           0       -5.274993   -0.849369    0.608055
     19          1           0       -4.354361   -0.193678    1.986205
     20          1           0       -3.773296   -1.650244    1.152919
     21          1           0        3.769168    0.661040   -1.073166
     22          1           0        4.529734    1.040452    0.502459
     23          1           0        5.189937   -1.249748   -0.254247
     24          1           0        3.456460   -1.681909   -0.398863
     25          1           0        4.168664   -1.355325    1.208410
 ---------------------------------------------------------------------
                    Distance matrix (angstroms):
                    1          2          3          4          5
     1  O    0.000000
     2  C    1.227658   0.000000
     3  C    2.400469   1.410866   0.000000
     4  N    2.912505   2.400111   1.350374   0.000000
     5  C    4.195843   3.601083   2.327086   1.283550   0.000000
     6  C    5.180289   4.845128   3.722141   2.451259   1.510546
     7  C    4.839879   4.878323   4.112995   2.773091   2.504686
     8  C    6.277820   5.874596   4.692728   3.553124   2.508696
     9  O    2.266834   1.407187   2.317205   3.589019   4.643163
    10  C    2.607892   2.376741   3.601507   4.763609   5.912758
    11  C    3.082157   3.095716   4.293911   5.330120   6.484640
    12  H    3.326133   2.158332   1.099739   2.138607   2.643606
    13  H    4.861153   4.034550   2.630835   2.093688   1.111841
    14  H    5.836950   5.473785   4.324151   3.137486   2.145397
    15  H    4.448022   4.580371   3.970678   2.736127   2.757061
    16  H    4.304207   4.470636   3.891456   2.651193   2.731909
    17  H    5.852095   5.962543   5.211697   3.868070   3.468193
    18  H    7.133543   6.834361   5.700231   4.485983   3.476349
    19  H    6.761233   6.173775   4.868786   3.921259   2.726108
    20  H    6.047851   5.696988   4.630733   3.579937   2.799674
    21  H    2.356728   2.552597   3.896764   4.888892   6.105583
    22  H    3.648029   3.260676   4.312801   5.568800   6.634733
    23  H    3.892792   4.078423   5.343025   6.359750   7.542837
    24  H    2.544579   2.854649   4.053742   4.870772   6.057400
    25  H    3.757983   3.482122   4.424749   5.518099   6.551917
                    6          7          8          9         10
     6  C    0.000000
     7  C    1.523142   0.000000
     8  C    1.533542   2.518780   0.000000
     9  O    6.022624   6.222395   6.962623   0.000000
    10  C    7.214098   7.215565   8.182789   1.400515   0.000000
    11  C    7.704704   7.592204   8.492809   2.432026   1.523209
    12  H    4.151390   4.855405   4.947312   2.448034   3.846466
    13  H    2.232393   3.514167   2.798213   4.806928   6.169805
    14  H    1.110764   2.145014   2.133017   6.601099   7.817041
    15  H    2.159543   1.098574   2.788804   5.929584   6.836034
    16  H    2.168066   1.096847   3.476903   5.836439   6.744296
    17  H    2.178914   1.101810   2.763359   7.316993   8.283527
    18  H    2.196760   2.804494   1.102739   7.980981   9.171339
    19  H    2.185327   3.481394   1.100879   7.104956   8.405232
    20  H    2.171889   2.759172   1.100923   6.770918   7.921004
    21  H    7.291669   7.118596   8.398808   2.060496   1.102170
    22  H    8.008695   8.133701   8.968644   2.006471   1.102511
    23  H    8.734142   8.537411   9.549584   3.376670   2.175802
    24  H    7.139660   6.868938   7.906143   2.721050   2.142810
    25  H    7.830260   7.877918   8.458065   2.673659   2.164003
                   11         12         13         14         15
    11  C    0.000000
    12  H    4.608745   0.000000
    13  H    6.801627   2.463284   0.000000
    14  H    8.465797   4.652663   2.589725   0.000000
    15  H    7.006436   4.788133   3.787369   3.063334   0.000000
    16  H    7.253824   4.738270   3.789408   2.505947   1.753161
    17  H    8.628653   5.927604   4.378559   2.484801   1.795044
    18  H    9.470062   6.007755   3.808591   2.462490   3.195142
    19  H    8.775141   4.876143   2.554232   2.506672   3.782816
    20  H    8.039136   4.939669   3.165736   3.058124   2.575873
    21  H    2.155430   4.346617   6.502853   7.833534   6.791937
    22  H    2.165554   4.321576   6.749274   8.544261   7.814799
    23  H    1.100803   5.666789   7.883929   9.484604   7.935040
    24  H    1.096156   4.586441   6.521657   7.964276   6.199291
    25  H    1.099705   4.532590   6.728624   8.630844   7.260563
                   16         17         18         19         20
    16  H    0.000000
    17  H    1.797667   0.000000
    18  H    3.809267   2.595255   0.000000
    19  H    4.326452   3.787759   1.782356   0.000000
    20  H    3.767616   3.093046   1.787001   1.775834   0.000000
    21  H    6.507156   8.143281   9.322268   8.722500   8.196722
    22  H    7.653816   9.214184   9.985752   9.091298   8.752328
    23  H    8.144901   9.550818  10.508027   9.860452   9.081853
    24  H    6.561180   7.861657   8.828662   8.301343   7.394484
    25  H    7.671368   8.927600   9.476237   8.636917   7.947628
                   21         22         23         24         25
    21  H    0.000000
    22  H    1.790254   0.000000
    23  H    2.518000   2.500698   0.000000
    24  H    2.458023   3.061951   1.792378   0.000000
    25  H    3.070979   2.523586   1.787039   1.788076   0.000000
 Stoichiometry    C8H14NO2(1-)
 Framework group  C1[X(C8H14NO2)]
 Deg. of freedom    69
 Full point group                 C1      NOp   1
 Largest Abelian subgroup         C1      NOp   1
 Largest concise Abelian subgroup C1      NOp   1
                         Standard orientation:                         
 ---------------------------------------------------------------------
 Center     Atomic      Atomic             Coordinates (Angstroms)
 Number     Number       Type             X           Y           Z
 ---------------------------------------------------------------------
      1          8           0       -1.617488    1.248977   -0.287429
      2          6           0       -1.446814    0.033435   -0.309135
      3          6           0       -0.261342   -0.731532   -0.313938
      4          7           0        0.947467   -0.130731   -0.277510
      5          6           0        2.065357   -0.761430   -0.283849
      6          6           0        3.397135   -0.049830   -0.242089
      7          6           0        3.215412    1.458554   -0.133861
      8          6           0        4.268518   -0.581385    0.902415
      9          8           0       -2.577159   -0.803779   -0.348732
     10          6           0       -3.816078   -0.153629   -0.286856
     11          6           0       -4.177605    0.278743    1.128247
     12          1           0       -0.353172   -1.826888   -0.348425
     13          1           0        2.109585   -1.871663   -0.324036
     14          1           0        3.948732   -0.263082   -1.182334
     15          1           0        2.674021    1.703867    0.790034
     16          1           0        2.594088    1.833039   -0.956533
     17          1           0        4.187037    1.978098   -0.136121
     18          1           0        5.279981   -0.142410    0.885774
     19          1           0        4.372382   -1.675822    0.844508
     20          1           0        3.802900   -0.343503    1.871252
     21          1           0       -3.818437    0.727349   -0.949163
     22          1           0       -4.557526   -0.877864   -0.662715
     23          1           0       -5.189739    0.710219    1.162605
     24          1           0       -3.451608    1.028893    1.462555
     25          1           0       -4.140835   -0.584259    1.808854
 ---------------------------------------------------------------------
 Rotational constants (GHZ):           3.2805945           0.3716907           0.3579288
 Standard basis: def2SVP (5D, 7F)
 There are   235 symmetry adapted cartesian basis functions of A   symmetry.
 There are   224 symmetry adapted basis functions of A   symmetry.
   224 basis functions,   373 primitive gaussians,   235 cartesian basis functions
    43 alpha electrons       43 beta electrons
       nuclear repulsion energy       597.1489712386 Hartrees.
 NAtoms=   25 NActive=   25 NUniq=   25 SFac= 1.00D+00 NAtFMM=   60 NAOKFM=F Big=F
 Integral buffers will be    131072 words long.
 Raffenetti 2 integral format.
 Two-electron integral symmetry is turned on.
 Nuclear repulsion after empirical dispersion term =      597.1481698311 Hartrees.
 One-electron integrals computed using PRISM.
   1 Symmetry operations used in ECPInt.
 ECPInt:  NShTT=    5886 NPrTT=   20688 LenC2=    5353 LenP2D=   14020.
 LDataN:  DoStor=T MaxTD1= 4 Len=   56
 NBasis=   224 RedAO= T EigKep=  1.18D-03  NBF=   224
 NBsUse=   224 1.00D-06 EigRej= -1.00D+00 NBFU=   224
 Initial guess from the checkpoint file:  "A18_crest_conformers_censo-13.chk"
 B after Tr=    -0.000000   -0.000000    0.000000
         Rot=    0.999840   -0.017863   -0.000564   -0.000339 Ang=  -2.05 deg.
 ExpMin= 1.22D-01 ExpMax= 2.27D+03 ExpMxC= 3.41D+02 IAcc=3 IRadAn=         5 AccDes= 0.00D+00
 Harris functional with IExCor= 1009 and IRadAn=       5 diagonalized for initial guess.
 HarFok:  IExCor= 1009 AccDes= 0.00D+00 IRadAn=         5 IDoV= 1 UseB2=F ITyADJ=14
 ICtDFT=  3500011 ScaDFX=  1.000000  1.000000  1.000000  1.000000
 FoFCou: FMM=F IPFlag=           0 FMFlag=      100000 FMFlg1=           0
         NFxFlg=           0 DoJE=T BraDBF=F KetDBF=T FulRan=T
         wScrn=  0.000000 ICntrl=       500 IOpCl=  0 I1Cent=   200000004 NGrid=           0
         NMat0=    1 NMatS0=      1 NMatT0=    0 NMatD0=    1 NMtDS0=    0 NMtDT0=    0
 Petite list used in FoFCou.
 Requested convergence on RMS density matrix=1.00D-08 within 128 cycles.
 Requested convergence on MAX density matrix=1.00D-06.
 Requested convergence on             energy=1.00D-06.
 No special actions if energy rises.
 Integral accuracy reduced to 1.0D-05 until final iterations.
 Initial convergence to 1.0D-05 achieved.  Increase integral accuracy.
 SCF Done:  E(RM062X) =  -517.870523995     A.U. after   13 cycles
            NFock= 13  Conv=0.39D-08     -V/T= 2.0100
   1 Symmetry operations used in ECPInt.
 ECPInt:  NShTT=    5886 NPrTT=   20688 LenC2=    5353 LenP2D=   14020.
 LDataN:  DoStor=T MaxTD1= 5 Len=  102
 Calling FoFJK, ICntrl=      2127 FMM=F ISym2X=0 I1Cent= 0 IOpClX= 0 NMat=1 NMatS=1 NMatT=0.
 ***** Axes restored to original set *****
 -------------------------------------------------------------------
 Center     Atomic                   Forces (Hartrees/Bohr)
 Number     Number              X              Y              Z
 -------------------------------------------------------------------
      1        8           0.000998127    0.000008251    0.002007696
      2        6          -0.001869202   -0.000019179   -0.003776412
      3        6           0.001491213    0.000143917    0.000918902
      4        7          -0.001406110    0.000047186   -0.000215881
      5        6           0.000371362    0.000011314    0.000025407
      6        6          -0.000375916   -0.000442399    0.000188920
      7        6          -0.000139043    0.000571584   -0.000472010
      8        6           0.000102715    0.000381039   -0.000126945
      9        8           0.001795989   -0.001030470    0.001323373
     10        6          -0.000820386    0.001351083   -0.000236757
     11        6          -0.000240493    0.001186718    0.000694835
     12        1           0.000080823   -0.000053079    0.000206592
     13        1           0.000345793    0.000057971    0.000254186
     14        1          -0.000048157    0.000160782   -0.000244902
     15        1           0.000245773   -0.000875513    0.000307628
     16        1           0.000215260    0.000495091   -0.000198965
     17        1          -0.000483805   -0.000279409   -0.000241661
     18        1          -0.000486400   -0.000085244   -0.000205592
     19        1          -0.000041462    0.000290468    0.000436985
     20        1           0.000392319   -0.000468354    0.000022798
     21        1          -0.000137023   -0.000522483    0.000116015
     22        1           0.000334982    0.000253447   -0.000045070
     23        1           0.000455083   -0.000361281   -0.000505586
     24        1          -0.000620096   -0.000586290   -0.000622552
     25        1          -0.000161348   -0.000235152    0.000388998
 -------------------------------------------------------------------
 Cartesian Forces:  Max     0.003776412 RMS     0.000774640

 GradGradGradGradGradGradGradGradGradGradGradGradGradGradGradGradGradGrad
 Berny optimization.
 Using GEDIIS/GDIIS optimizer.
 FormGI is forming the generalized inverse of G from B-inverse, IUseBI=4.
 Internal  Forces:  Max     0.002239017 RMS     0.000496873
 Search for a local minimum.
 Step number   7 out of a maximum of  121
 All quantities printed in internal units (Hartrees-Bohrs-Radians)
 Mixed Optimization -- En-DIIS/RFO-DIIS
 Swapping is turned off.
 Update second derivatives using D2CorX and points    6    7
 DE= -1.21D-04 DEPred=-1.34D-04 R= 9.07D-01
 TightC=F SS=  1.41D+00  RLast= 1.97D-01 DXNew= 1.7705D+00 5.9244D-01
 Trust test= 9.07D-01 RLast= 1.97D-01 DXMaxT set to 1.05D+00
 ITU=  1  1  1  0  1  1  0
     Eigenvalues ---    0.00120   0.00283   0.00370   0.00442   0.01228
     Eigenvalues ---    0.01417   0.01751   0.02328   0.02360   0.02501
     Eigenvalues ---    0.03352   0.04067   0.04900   0.05366   0.05421
     Eigenvalues ---    0.05482   0.05567   0.05652   0.05715   0.05754
     Eigenvalues ---    0.05822   0.05863   0.07996   0.11689   0.14087
     Eigenvalues ---    0.15207   0.15898   0.15983   0.16000   0.16000
     Eigenvalues ---    0.16000   0.16000   0.16001   0.16020   0.16036
     Eigenvalues ---    0.16141   0.16848   0.18167   0.21038   0.22754
     Eigenvalues ---    0.23198   0.24371   0.25030   0.25757   0.28705
     Eigenvalues ---    0.28994   0.29784   0.30747   0.32682   0.33082
     Eigenvalues ---    0.33377   0.33647   0.33862   0.34004   0.34455
     Eigenvalues ---    0.34638   0.34756   0.34921   0.34947   0.35055
     Eigenvalues ---    0.35120   0.35419   0.36809   0.37894   0.46632
     Eigenvalues ---    0.49180   0.57367   0.74032   0.91562
 En-DIIS/RFO-DIIS/Sim-DIIS IScMMF=       -3 using points:     7    6    5    4    3
 RFO step:  Lambda=-1.25256400D-04.
 DidBck=F Rises=F RFO-DIIS coefs:    1.35446   -0.26316   -0.99894    0.47847    0.42917
 Iteration  1 RMS(Cart)=  0.02175047 RMS(Int)=  0.00018952
 Iteration  2 RMS(Cart)=  0.00026835 RMS(Int)=  0.00003614
 Iteration  3 RMS(Cart)=  0.00000005 RMS(Int)=  0.00003614
 Variable       Old X    -DE/DX   Delta X   Delta X   Delta X     New X
                                 (Linear)    (Quad)   (Total)
    R1        2.31994  -0.00169   0.00009  -0.00242  -0.00234   2.31760
    R2        2.66615   0.00010  -0.00399   0.00313  -0.00087   2.66528
    R3        2.65920   0.00109   0.00988  -0.00328   0.00659   2.66579
    R4        2.55184   0.00139   0.00103   0.00190   0.00293   2.55477
    R5        2.07821   0.00017   0.00120  -0.00070   0.00051   2.07871
    R6        2.42556  -0.00024  -0.00116   0.00043  -0.00073   2.42483
    R7        2.85452   0.00082  -0.00017   0.00411   0.00394   2.85846
    R8        2.10107   0.00024   0.00040   0.00031   0.00071   2.10178
    R9        2.87832   0.00056   0.00225   0.00080   0.00305   2.88137
   R10        2.89797   0.00003   0.00204  -0.00157   0.00047   2.89845
   R11        2.09904   0.00020  -0.00040   0.00039  -0.00001   2.09903
   R12        2.07600   0.00091   0.00108   0.00182   0.00290   2.07890
   R13        2.07274   0.00052   0.00057   0.00129   0.00186   2.07460
   R14        2.08212   0.00059   0.00016   0.00178   0.00194   2.08406
   R15        2.08387   0.00054   0.00019   0.00156   0.00174   2.08562
   R16        2.08036   0.00052   0.00021   0.00130   0.00151   2.08187
   R17        2.08044   0.00059   0.00008   0.00159   0.00167   2.08212
   R18        2.64659  -0.00119  -0.00102  -0.00100  -0.00202   2.64457
   R19        2.87845  -0.00015   0.00058  -0.00000   0.00057   2.87902
   R20        2.08280  -0.00024  -0.00151   0.00085  -0.00066   2.08214
   R21        2.08344   0.00035   0.00063   0.00041   0.00105   2.08449
   R22        2.08022   0.00066   0.00024   0.00231   0.00255   2.08276
   R23        2.07143   0.00105   0.00147   0.00145   0.00292   2.07435
   R24        2.07814   0.00044   0.00032   0.00107   0.00138   2.07953
    A1        2.28329   0.00154   0.00494   0.00257   0.00771   2.29100
    A2        2.06907  -0.00124  -0.00089  -0.00418  -0.00488   2.06419
    A3        1.93078  -0.00030  -0.00462   0.00163  -0.00279   1.92799
    A4        2.10695   0.00009   0.00456  -0.00367   0.00088   2.10783
    A5        2.06007  -0.00011  -0.00297   0.00189  -0.00108   2.05898
    A6        2.11617   0.00001  -0.00159   0.00179   0.00020   2.11637
    A7        2.16625   0.00025  -0.00016   0.00146   0.00130   2.16755
    A8        2.13678  -0.00004  -0.00213   0.00024  -0.00184   2.13494
    A9        2.12408  -0.00035   0.00131  -0.00375  -0.00240   2.12168
   A10        2.02232   0.00039   0.00067   0.00353   0.00425   2.02657
   A11        1.94260   0.00010  -0.00188   0.00291   0.00105   1.94365
   A12        1.93726  -0.00020  -0.00281   0.00147  -0.00132   1.93594
   A13        1.90073   0.00005   0.00151  -0.00189  -0.00039   1.90034
   A14        1.93695   0.00017  -0.00008   0.00074   0.00068   1.93762
   A15        1.88549  -0.00018   0.00089  -0.00277  -0.00188   1.88361
   A16        1.85774   0.00006   0.00269  -0.00084   0.00185   1.85960
   A17        1.91739  -0.00023  -0.00283  -0.00107  -0.00391   1.91348
   A18        1.93093  -0.00026  -0.00096  -0.00068  -0.00165   1.92928
   A19        1.94079   0.00018  -0.00055   0.00241   0.00186   1.94265
   A20        1.84978   0.00031   0.00465   0.00020   0.00485   1.85462
   A21        1.90817  -0.00007  -0.00016  -0.00105  -0.00122   1.90696
   A22        1.91453   0.00008   0.00011   0.00006   0.00016   1.91469
   A23        1.95189   0.00003  -0.00200   0.00243   0.00042   1.95232
   A24        1.93793  -0.00006  -0.00113   0.00026  -0.00087   1.93706
   A25        1.91937  -0.00020  -0.00175  -0.00099  -0.00273   1.91664
   A26        1.88432   0.00003   0.00107  -0.00014   0.00093   1.88525
   A27        1.89146   0.00010   0.00163  -0.00029   0.00134   1.89279
   A28        1.87654   0.00011   0.00246  -0.00141   0.00105   1.87759
   A29        2.01878  -0.00224  -0.00073  -0.00585  -0.00658   2.01219
   A30        1.96360  -0.00133  -0.00585   0.00138  -0.00445   1.95915
   A31        1.92453   0.00048  -0.00016   0.00084   0.00074   1.92527
   A32        1.84929   0.00060   0.00502  -0.00075   0.00425   1.85354
   A33        1.90802  -0.00018  -0.00276  -0.00144  -0.00418   1.90384
   A34        1.92150   0.00050   0.00048   0.00153   0.00198   1.92348
   A35        1.89522   0.00000   0.00374  -0.00161   0.00213   1.89735
   A36        1.93744   0.00028  -0.00226   0.00594   0.00369   1.94113
   A37        1.89694  -0.00013  -0.00030  -0.00283  -0.00314   1.89380
   A38        1.92227   0.00013   0.00229  -0.00084   0.00146   1.92373
   A39        1.90838  -0.00023  -0.00217  -0.00131  -0.00348   1.90490
   A40        1.89549  -0.00000   0.00301  -0.00077   0.00226   1.89776
   A41        1.90302  -0.00006  -0.00065  -0.00026  -0.00092   1.90210
    D1        0.01299  -0.00044  -0.01505   0.00332  -0.01175   0.00123
    D2       -3.12830  -0.00042  -0.01292   0.00329  -0.00965  -3.13795
    D3       -3.13954   0.00021  -0.00584   0.00484  -0.00097  -3.14051
    D4        0.00237   0.00022  -0.00371   0.00482   0.00113   0.00350
    D5       -0.05779   0.00074   0.02228   0.00902   0.03125  -0.02654
    D6        3.09322   0.00016   0.01425   0.00766   0.02196   3.11518
    D7       -3.13734   0.00006  -0.00060   0.00553   0.00493  -3.13241
    D8        0.00393   0.00005  -0.00280   0.00555   0.00276   0.00669
    D9        3.14155   0.00006  -0.00511   0.01000   0.00490  -3.13674
   D10        0.00351   0.00005  -0.00153   0.00215   0.00062   0.00412
   D11        0.04213  -0.00004  -0.02466  -0.00471  -0.02937   0.01276
   D12        2.20885   0.00011  -0.02816  -0.00055  -0.02870   2.18015
   D13       -2.03468   0.00010  -0.02559  -0.00186  -0.02744  -2.06213
   D14       -3.10281  -0.00003  -0.02801   0.00269  -0.02532  -3.12814
   D15       -0.93610   0.00011  -0.03151   0.00686  -0.02465  -0.96075
   D16        1.10356   0.00010  -0.02894   0.00555  -0.02340   1.08016
   D17        1.05860   0.00005  -0.01053   0.00328  -0.00726   1.05134
   D18       -0.97768  -0.00003  -0.01393   0.00409  -0.00985  -0.98753
   D19       -3.10978  -0.00008  -0.01301   0.00283  -0.01019  -3.11997
   D20       -1.10829   0.00011  -0.00551  -0.00129  -0.00680  -1.11509
   D21        3.13861   0.00003  -0.00891  -0.00049  -0.00939   3.12922
   D22        1.00651  -0.00001  -0.00799  -0.00175  -0.00974   0.99677
   D23       -3.13868   0.00005  -0.00925   0.00094  -0.00830   3.13620
   D24        1.10822  -0.00002  -0.01264   0.00175  -0.01089   1.09733
   D25       -1.02388  -0.00007  -0.01173   0.00049  -0.01123  -1.03511
   D26        3.04423  -0.00002   0.01048   0.00135   0.01184   3.05607
   D27        0.93817  -0.00004   0.01128  -0.00032   0.01097   0.94914
   D28       -1.13658  -0.00001   0.01004   0.00191   0.01195  -1.12463
   D29       -1.06902   0.00009   0.00600   0.00672   0.01272  -1.05630
   D30        3.10810   0.00007   0.00680   0.00506   0.01186   3.11996
   D31        1.03335   0.00010   0.00556   0.00728   0.01284   1.04619
   D32        0.97839  -0.00000   0.00861   0.00331   0.01192   0.99031
   D33       -1.12767  -0.00003   0.00941   0.00165   0.01105  -1.11662
   D34        3.08077   0.00000   0.00816   0.00387   0.01203   3.09280
   D35       -1.36498   0.00033  -0.02339  -0.00181  -0.02520  -1.39018
   D36        0.77006  -0.00049  -0.03105  -0.00209  -0.03313   0.73694
   D37        2.81773   0.00010  -0.02380  -0.00399  -0.02781   2.78992
   D38       -3.05873  -0.00039  -0.00578  -0.00341  -0.00920  -3.06793
   D39        1.12496  -0.00019  -0.00151  -0.00363  -0.00515   1.11981
   D40       -0.95878  -0.00012  -0.00188  -0.00107  -0.00298  -0.96176
   D41        1.08012   0.00005   0.00022  -0.00440  -0.00415   1.07597
   D42       -1.01937   0.00024   0.00450  -0.00462  -0.00010  -1.01948
   D43       -3.10311   0.00032   0.00412  -0.00206   0.00207  -3.10104
   D44       -1.00042  -0.00015  -0.00293  -0.00246  -0.00538  -1.00580
   D45       -3.09991   0.00005   0.00135  -0.00268  -0.00133  -3.10124
   D46        1.09953   0.00012   0.00097  -0.00012   0.00084   1.10037
         Item               Value     Threshold  Converged?
 Maximum Force            0.002239     0.000450     NO 
 RMS     Force            0.000497     0.000300     NO 
 Maximum Displacement     0.070111     0.001800     NO 
 RMS     Displacement     0.021776     0.001200     NO 
 Predicted change in Energy=-5.130946D-05
 GradGradGradGradGradGradGradGradGradGradGradGradGradGradGradGradGradGrad

                          Input orientation:                          
 ---------------------------------------------------------------------
 Center     Atomic      Atomic             Coordinates (Angstroms)
 Number     Number       Type             X           Y           Z
 ---------------------------------------------------------------------
      1          8           0        1.583602   -0.227399   -1.238148
      2          6           0        1.416385    0.283669   -0.135897
      3          6           0        0.239894    0.578004    0.584159
      4          7           0       -0.976473    0.289770    0.069308
      5          6           0       -2.087383    0.537354    0.661834
      6          6           0       -3.425954    0.190796    0.048501
      7          6           0       -3.257231   -0.482780   -1.308962
      8          6           0       -4.253247   -0.684729    0.998006
      9          8           0        2.555399    0.671603    0.600419
     10          6           0        3.784268    0.394220   -0.008994
     11          6           0        4.194743   -1.063483    0.157435
     12          1           0        0.344240    1.049572    1.572466
     13          1           0       -2.118118    1.021692    1.662582
     14          1           0       -4.004634    1.126593   -0.103824
     15          1           0       -2.681322   -1.412669   -1.191176
     16          1           0       -2.674988    0.155756   -1.986089
     17          1           0       -4.234031   -0.715150   -1.765160
     18          1           0       -5.266293   -0.875117    0.603596
     19          1           0       -4.356209   -0.207549    1.985625
     20          1           0       -3.749481   -1.653193    1.147267
     21          1           0        3.741721    0.636074   -1.083101
     22          1           0        4.523384    1.055675    0.473642
     23          1           0        5.197223   -1.246058   -0.262606
     24          1           0        3.464510   -1.693168   -0.367165
     25          1           0        4.202966   -1.337012    1.223304
 ---------------------------------------------------------------------
                    Distance matrix (angstroms):
                    1          2          3          4          5
     1  O    0.000000
     2  C    1.226421   0.000000
     3  C    2.403129   1.410407   0.000000
     4  N    2.920769   2.401649   1.351924   0.000000
     5  C    4.203679   3.602378   2.328927   1.283163   0.000000
     6  C    5.189028   4.846739   3.724956   2.451568   1.512631
     7  C    4.848082   4.879161   4.115708   2.774584   2.508636
     8  C    6.267244   5.862445   4.685518   3.542510   2.509475
     9  O    2.265595   1.410676   2.317454   3.591935   4.645129
    10  C    2.596181   2.373856   3.598360   4.762530   5.911581
    11  C    3.076483   3.101634   4.303186   5.346077   6.502477
    12  H    3.326593   2.157454   1.100007   2.140342   2.646584
    13  H    4.865923   4.033848   2.630604   2.092269   1.112217
    14  H    5.860749   5.486256   4.334776   3.146428   2.146925
    15  H    4.426810   4.558769   3.955767   2.719123   2.754814
    16  H    4.340716   4.492094   3.909093   2.669751   2.739050
    17  H    5.861783   5.964842   5.216086   3.871282   3.473783
    18  H    7.122684   6.822597   5.694737   4.477163   3.479071
    19  H    6.758289   6.169684   4.868815   3.916914   2.730362
    20  H    6.013723   5.664284   4.605479   3.553403   2.792259
    21  H    2.329613   2.535462   3.878907   4.869222   6.085474
    22  H    3.635770   3.258983   4.311459   5.567632   6.633726
    23  H    3.879124   4.080546   5.349704   6.370515   7.556497
    24  H    2.538682   2.855903   4.057264   4.883122   6.071045
    25  H    3.761789   3.498438   4.447666   5.550199   6.587639
                    6          7          8          9         10
     6  C    0.000000
     7  C    1.524755   0.000000
     8  C    1.533792   2.520899   0.000000
     9  O    6.025975   6.226155   6.953803   0.000000
    10  C    7.213320   7.213997   8.171893   1.399444   0.000000
    11  C    7.723996   7.617050   8.498150   2.427799   1.523511
    12  H    4.156239   4.860177   4.947191   2.444782   3.842433
    13  H    2.237427   3.520098   2.812883   4.805468   6.166527
    14  H    1.110761   2.145006   2.134649   6.613396   7.823833
    15  H    2.159254   1.100109   2.791660   5.914157   6.816616
    16  H    2.169040   1.097833   3.478813   5.857736   6.759272
    17  H    2.182452   1.102838   2.763400   7.322255   8.282991
    18  H    2.197988   2.801453   1.103661   7.973157   9.159647
    19  H    2.185521   3.483936   1.101678   7.103663   8.402857
    20  H    2.170772   2.765002   1.101808   6.742049   7.892161
    21  H    7.270100   7.091415   8.366304   2.059820   1.101821
    22  H    8.007542   8.129114   8.962880   2.009116   1.103065
    23  H    8.747601   8.553084   9.550687   3.376607   2.179742
    24  H    7.155459   6.894478   7.902178   2.711981   2.141896
    25  H    7.868594   7.924432   8.484325   2.671516   2.165879
                   11         12         13         14         15
    11  C    0.000000
    12  H    4.614509   0.000000
    13  H    6.816572   2.464165   0.000000
    14  H    8.490847   4.661393   2.586530   0.000000
    15  H    7.015765   4.780625   3.793053   3.062898   0.000000
    16  H    7.298935   4.751627   3.791142   2.500681   1.758376
    17  H    8.652280   5.934186   4.386699   2.490919   1.796357
    18  H    9.473424   6.010093   3.824963   2.469630   3.192530
    19  H    8.785994   4.883162   2.573799   2.503865   3.788090
    20  H    8.027342   4.923848   3.175201   3.059010   2.582079
    21  H    2.152360   4.331962   6.482684   7.823401   6.742737
    22  H    2.167677   4.321192   6.747169   8.547842   7.795648
    23  H    1.102150   5.673522   7.897042   9.504150   7.934827
    24  H    1.097701   4.584853   6.531162   7.988023   6.207167
    25  H    1.100437   4.550545   6.761106   8.671523   7.295811
                   16         17         18         19         20
    16  H    0.000000
    17  H    1.799417   0.000000
    18  H    3.805789   2.588853   0.000000
    19  H    4.328165   3.786948   1.784350   0.000000
    20  H    3.774222   3.097894   1.789329   1.777878   0.000000
    21  H    6.497711   8.118105   9.288324   8.700876   8.144531
    22  H    7.660072   9.210884   9.979110   9.095549   8.731096
    23  H    8.179682   9.564941  10.505860   9.869200   9.066257
    24  H    6.613083   7.885331   8.822614   8.300984   7.371348
    25  H    7.735296   8.972210   9.500750   8.666966   7.959093
                   21         22         23         24         25
    21  H    0.000000
    22  H    1.791790   0.000000
    23  H    2.516768   2.508804   0.000000
    24  H    2.452504   3.063381   1.792522   0.000000
    25  H    3.070068   2.527768   1.790182   1.789345   0.000000
 Stoichiometry    C8H14NO2(1-)
 Framework group  C1[X(C8H14NO2)]
 Deg. of freedom    69
 Full point group                 C1      NOp   1
 Largest Abelian subgroup         C1      NOp   1
 Largest concise Abelian subgroup C1      NOp   1
                         Standard orientation:                         
 ---------------------------------------------------------------------
 Center     Atomic      Atomic             Coordinates (Angstroms)
 Number     Number       Type             X           Y           Z
 ---------------------------------------------------------------------
      1          8           0       -1.620213    1.249564   -0.255360
      2          6           0       -1.442964    0.036802   -0.298944
      3          6           0       -0.259571   -0.730414   -0.313447
      4          7           0        0.952555   -0.132964   -0.274694
      5          6           0        2.069021   -0.765114   -0.294578
      6          6           0        3.402619   -0.053129   -0.243156
      7          6           0        3.222230    1.458024   -0.149602
      8          6           0        4.259192   -0.577692    0.915997
      9          8           0       -2.575686   -0.802758   -0.344627
     10          6           0       -3.809887   -0.144483   -0.301431
     11          6           0       -4.194452    0.268071    1.113841
     12          1           0       -0.355067   -1.825301   -0.359456
     13          1           0        2.108575   -1.875228   -0.350320
     14          1           0        3.963835   -0.273275   -1.176089
     15          1           0        2.663123    1.707681    0.764351
     16          1           0        2.618881    1.826646   -0.989438
     17          1           0        4.194935    1.977509   -0.134338
     18          1           0        5.268487   -0.131159    0.915981
     19          1           0        4.370850   -1.672276    0.860200
     20          1           0        3.773337   -0.341292    1.876226
     21          1           0       -3.788874    0.750134   -0.944259
     22          1           0       -4.551322   -0.853786   -0.706297
     23          1           0       -5.200703    0.717029    1.138951
     24          1           0       -3.463092    1.003510    1.473270
     25          1           0       -4.180784   -0.606281    1.781886
 ---------------------------------------------------------------------
 Rotational constants (GHZ):           3.2882453           0.3713424           0.3575921
 Standard basis: def2SVP (5D, 7F)
 There are   235 symmetry adapted cartesian basis functions of A   symmetry.
 There are   224 symmetry adapted basis functions of A   symmetry.
   224 basis functions,   373 primitive gaussians,   235 cartesian basis functions
    43 alpha electrons       43 beta electrons
       nuclear repulsion energy       597.0198847943 Hartrees.
 NAtoms=   25 NActive=   25 NUniq=   25 SFac= 1.00D+00 NAtFMM=   60 NAOKFM=F Big=F
 Integral buffers will be    131072 words long.
 Raffenetti 2 integral format.
 Two-electron integral symmetry is turned on.
 Nuclear repulsion after empirical dispersion term =      597.0190839231 Hartrees.
 One-electron integrals computed using PRISM.
   1 Symmetry operations used in ECPInt.
 ECPInt:  NShTT=    5886 NPrTT=   20688 LenC2=    5351 LenP2D=   14015.
 LDataN:  DoStor=T MaxTD1= 4 Len=   56
 NBasis=   224 RedAO= T EigKep=  1.18D-03  NBF=   224
 NBsUse=   224 1.00D-06 EigRej= -1.00D+00 NBFU=   224
 Initial guess from the checkpoint file:  "A18_crest_conformers_censo-13.chk"
 B after Tr=     0.000000    0.000000    0.000000
         Rot=    0.999999   -0.001366    0.000588    0.000086 Ang=  -0.17 deg.
 ExpMin= 1.22D-01 ExpMax= 2.27D+03 ExpMxC= 3.41D+02 IAcc=3 IRadAn=         5 AccDes= 0.00D+00
 Harris functional with IExCor= 1009 and IRadAn=       5 diagonalized for initial guess.
 HarFok:  IExCor= 1009 AccDes= 0.00D+00 IRadAn=         5 IDoV= 1 UseB2=F ITyADJ=14
 ICtDFT=  3500011 ScaDFX=  1.000000  1.000000  1.000000  1.000000
 FoFCou: FMM=F IPFlag=           0 FMFlag=      100000 FMFlg1=           0
         NFxFlg=           0 DoJE=T BraDBF=F KetDBF=T FulRan=T
         wScrn=  0.000000 ICntrl=       500 IOpCl=  0 I1Cent=   200000004 NGrid=           0
         NMat0=    1 NMatS0=      1 NMatT0=    0 NMatD0=    1 NMtDS0=    0 NMtDT0=    0
 Petite list used in FoFCou.
 Requested convergence on RMS density matrix=1.00D-08 within 128 cycles.
 Requested convergence on MAX density matrix=1.00D-06.
 Requested convergence on             energy=1.00D-06.
 No special actions if energy rises.
 Integral accuracy reduced to 1.0D-05 until final iterations.
 Initial convergence to 1.0D-05 achieved.  Increase integral accuracy.
 SCF Done:  E(RM062X) =  -517.870577700     A.U. after   12 cycles
            NFock= 12  Conv=0.54D-08     -V/T= 2.0100
   1 Symmetry operations used in ECPInt.
 ECPInt:  NShTT=    5886 NPrTT=   20688 LenC2=    5351 LenP2D=   14015.
 LDataN:  DoStor=T MaxTD1= 5 Len=  102
 Calling FoFJK, ICntrl=      2127 FMM=F ISym2X=0 I1Cent= 0 IOpClX= 0 NMat=1 NMatS=1 NMatT=0.
 ***** Axes restored to original set *****
 -------------------------------------------------------------------
 Center     Atomic                   Forces (Hartrees/Bohr)
 Number     Number              X              Y              Z
 -------------------------------------------------------------------
      1        8          -0.000480941    0.000022192    0.000203690
      2        6          -0.000146682   -0.000418646   -0.000729294
      3        6           0.000080869    0.000245002    0.000294907
      4        7          -0.000040322    0.000059943   -0.000283382
      5        6          -0.000103236   -0.000131850   -0.000358312
      6        6          -0.000069338   -0.000007012   -0.000026260
      7        6           0.000329649   -0.000085479    0.000411359
      8        6           0.000058844    0.000163386   -0.000041547
      9        8           0.000458178   -0.000325177    0.000271675
     10        6           0.000314074    0.000537287    0.000043314
     11        6          -0.000142107    0.000172455    0.000149523
     12        1           0.000009172    0.000000225   -0.000113487
     13        1          -0.000139253   -0.000174059    0.000026744
     14        1          -0.000003965    0.000081959    0.000012147
     15        1          -0.000045847    0.000165718   -0.000248868
     16        1           0.000038483   -0.000212881    0.000087207
     17        1           0.000031904    0.000116323    0.000180089
     18        1           0.000030662    0.000020669    0.000071107
     19        1          -0.000000372   -0.000085489   -0.000007453
     20        1          -0.000079598   -0.000010522    0.000011670
     21        1          -0.000002799   -0.000062598    0.000194176
     22        1           0.000080470    0.000078874   -0.000049700
     23        1          -0.000180667   -0.000018400    0.000030923
     24        1          -0.000007049   -0.000064501   -0.000067999
     25        1           0.000009871   -0.000067418   -0.000062230
 -------------------------------------------------------------------
 Cartesian Forces:  Max     0.000729294 RMS     0.000198749

 GradGradGradGradGradGradGradGradGradGradGradGradGradGradGradGradGradGrad
 Berny optimization.
 Using GEDIIS/GDIIS optimizer.
 FormGI is forming the generalized inverse of G from B-inverse, IUseBI=4.
 Internal  Forces:  Max     0.000795026 RMS     0.000191357
 Search for a local minimum.
 Step number   8 out of a maximum of  121
 All quantities printed in internal units (Hartrees-Bohrs-Radians)
 Mixed Optimization -- En-DIIS/RFO-DIIS
 Swapping is turned off.
 Update second derivatives using D2CorX and points    6    7    8
 DE= -5.37D-05 DEPred=-5.13D-05 R= 1.05D+00
 TightC=F SS=  1.41D+00  RLast= 1.06D-01 DXNew= 1.7705D+00 3.1768D-01
 Trust test= 1.05D+00 RLast= 1.06D-01 DXMaxT set to 1.05D+00
 ITU=  1  1  1  1  0  1  1  0
     Eigenvalues ---    0.00119   0.00292   0.00370   0.00443   0.01019
     Eigenvalues ---    0.01416   0.01984   0.02332   0.02362   0.02508
     Eigenvalues ---    0.03353   0.04061   0.04918   0.05370   0.05449
     Eigenvalues ---    0.05490   0.05557   0.05604   0.05732   0.05775
     Eigenvalues ---    0.05840   0.05909   0.07789   0.11619   0.14023
     Eigenvalues ---    0.15602   0.15743   0.15926   0.16000   0.16000
     Eigenvalues ---    0.16000   0.16000   0.16014   0.16023   0.16103
     Eigenvalues ---    0.16274   0.17028   0.18132   0.21294   0.22782
     Eigenvalues ---    0.23239   0.24298   0.24989   0.26175   0.28888
     Eigenvalues ---    0.29088   0.29980   0.30715   0.32924   0.33075
     Eigenvalues ---    0.33418   0.33789   0.33926   0.34253   0.34351
     Eigenvalues ---    0.34632   0.34763   0.34916   0.34956   0.35068
     Eigenvalues ---    0.35153   0.35400   0.35546   0.38200   0.46646
     Eigenvalues ---    0.49062   0.56584   0.74010   0.90323
 En-DIIS/RFO-DIIS/Sim-DIIS IScMMF=       -3 using points:     8    7    6    5    4    3
 RFO step:  Lambda=-5.80197966D-05.
 DidBck=T Rises=F RFO-DIIS coefs:    0.76205    0.52854   -0.02607   -0.90505    0.42362
                  RFO-DIIS coefs:    0.21691
 Iteration  1 RMS(Cart)=  0.03101429 RMS(Int)=  0.00029378
 Iteration  2 RMS(Cart)=  0.00049403 RMS(Int)=  0.00002709
 Iteration  3 RMS(Cart)=  0.00000010 RMS(Int)=  0.00002709
 Variable       Old X    -DE/DX   Delta X   Delta X   Delta X     New X
                                 (Linear)    (Quad)   (Total)
    R1        2.31760  -0.00026   0.00153  -0.00174  -0.00021   2.31739
    R2        2.66528  -0.00005  -0.00275   0.00253  -0.00022   2.66506
    R3        2.66579   0.00077   0.00290  -0.00104   0.00186   2.66766
    R4        2.55477   0.00008  -0.00100   0.00151   0.00051   2.55528
    R5        2.07871  -0.00010   0.00061  -0.00065  -0.00004   2.07867
    R6        2.42483  -0.00002  -0.00050   0.00039  -0.00011   2.42472
    R7        2.85846  -0.00047  -0.00249   0.00181  -0.00067   2.85778
    R8        2.10178  -0.00005  -0.00001   0.00014   0.00013   2.10192
    R9        2.88137  -0.00033  -0.00026  -0.00026  -0.00052   2.88085
   R10        2.89845  -0.00004   0.00039  -0.00093  -0.00054   2.89791
   R11        2.09903   0.00007   0.00036   0.00035   0.00071   2.09975
   R12        2.07890  -0.00019  -0.00060   0.00090   0.00031   2.07921
   R13        2.07460  -0.00016  -0.00119   0.00082  -0.00037   2.07423
   R14        2.08406  -0.00013  -0.00102   0.00108   0.00005   2.08411
   R15        2.08562  -0.00006  -0.00115   0.00114  -0.00001   2.08561
   R16        2.08187  -0.00004  -0.00073   0.00093   0.00021   2.08208
   R17        2.08212  -0.00003  -0.00096   0.00119   0.00024   2.08235
   R18        2.64457  -0.00016   0.00014  -0.00018  -0.00004   2.64453
   R19        2.87902  -0.00010   0.00009  -0.00008   0.00001   2.87903
   R20        2.08214  -0.00020  -0.00069   0.00032  -0.00037   2.08176
   R21        2.08449   0.00008  -0.00023   0.00042   0.00019   2.08468
   R22        2.08276  -0.00017  -0.00138   0.00145   0.00007   2.08283
   R23        2.07435   0.00007  -0.00061   0.00093   0.00032   2.07467
   R24        2.07953  -0.00004  -0.00072   0.00087   0.00014   2.07967
    A1        2.29100  -0.00030  -0.00018  -0.00005  -0.00008   2.29092
    A2        2.06419   0.00075   0.00082   0.00042   0.00140   2.06559
    A3        1.92799  -0.00046  -0.00111  -0.00037  -0.00132   1.92667
    A4        2.10783  -0.00010   0.00318  -0.00303   0.00015   2.10798
    A5        2.05898   0.00003  -0.00177   0.00149  -0.00028   2.05871
    A6        2.11637   0.00007  -0.00142   0.00154   0.00013   2.11649
    A7        2.16755  -0.00030  -0.00102   0.00040  -0.00062   2.16693
    A8        2.13494   0.00023   0.00063   0.00075   0.00135   2.13629
    A9        2.12168   0.00004   0.00205  -0.00228  -0.00026   2.12142
   A10        2.02657  -0.00027  -0.00260   0.00153  -0.00110   2.02547
   A11        1.94365  -0.00020  -0.00164   0.00103  -0.00060   1.94305
   A12        1.93594   0.00011  -0.00144   0.00143   0.00000   1.93594
   A13        1.90034  -0.00001   0.00287  -0.00202   0.00085   1.90119
   A14        1.93762   0.00006   0.00083   0.00055   0.00140   1.93902
   A15        1.88361   0.00011  -0.00047  -0.00053  -0.00100   1.88261
   A16        1.85960  -0.00007  -0.00003  -0.00066  -0.00068   1.85891
   A17        1.91348   0.00035   0.00082   0.00076   0.00158   1.91506
   A18        1.92928   0.00011  -0.00048   0.00028  -0.00020   1.92908
   A19        1.94265  -0.00031  -0.00162   0.00037  -0.00125   1.94140
   A20        1.85462  -0.00023   0.00028  -0.00112  -0.00084   1.85379
   A21        1.90696   0.00000  -0.00052  -0.00028  -0.00080   1.90615
   A22        1.91469   0.00009   0.00163  -0.00008   0.00155   1.91624
   A23        1.95232   0.00002  -0.00212   0.00186  -0.00026   1.95206
   A24        1.93706   0.00007  -0.00047   0.00060   0.00014   1.93719
   A25        1.91664   0.00008   0.00130  -0.00044   0.00086   1.91751
   A26        1.88525  -0.00005  -0.00008  -0.00036  -0.00045   1.88480
   A27        1.89279  -0.00005   0.00018  -0.00045  -0.00027   1.89252
   A28        1.87759  -0.00007   0.00131  -0.00136  -0.00004   1.87755
   A29        2.01219   0.00080   0.00080   0.00123   0.00204   2.01423
   A30        1.95915  -0.00058  -0.00189   0.00076  -0.00112   1.95803
   A31        1.92527   0.00017  -0.00123   0.00165   0.00045   1.92572
   A32        1.85354   0.00021   0.00156  -0.00101   0.00054   1.85408
   A33        1.90384   0.00006  -0.00006  -0.00033  -0.00038   1.90345
   A34        1.92348   0.00022  -0.00016   0.00052   0.00035   1.92383
   A35        1.89735  -0.00008   0.00190  -0.00167   0.00024   1.89759
   A36        1.94113   0.00002  -0.00406   0.00425   0.00020   1.94133
   A37        1.89380   0.00001   0.00167  -0.00201  -0.00035   1.89345
   A38        1.92373   0.00012   0.00071  -0.00013   0.00059   1.92431
   A39        1.90490  -0.00006   0.00047  -0.00114  -0.00068   1.90421
   A40        1.89776  -0.00005   0.00113  -0.00096   0.00019   1.89794
   A41        1.90210  -0.00005   0.00012  -0.00007   0.00004   1.90215
    D1        0.00123   0.00004  -0.00903   0.00738  -0.00166  -0.00043
    D2       -3.13795   0.00003  -0.00815   0.00688  -0.00129  -3.13923
    D3       -3.14051   0.00003  -0.00203   0.00209   0.00007  -3.14044
    D4        0.00350   0.00001  -0.00116   0.00160   0.00045   0.00395
    D5       -0.02654   0.00018   0.00087   0.00567   0.00652  -0.02001
    D6        3.11518   0.00019  -0.00516   0.01018   0.00504   3.12022
    D7       -3.13241  -0.00006  -0.00317   0.00217  -0.00100  -3.13341
    D8        0.00669  -0.00005  -0.00407   0.00268  -0.00139   0.00530
    D9       -3.13674  -0.00001  -0.01098   0.00679  -0.00419  -3.14093
   D10        0.00412  -0.00001   0.00025   0.00082   0.00107   0.00519
   D11        0.01276   0.00009   0.04652  -0.00338   0.04314   0.05590
   D12        2.18015   0.00011   0.04538  -0.00087   0.04452   2.22467
   D13       -2.06213   0.00008   0.04626  -0.00206   0.04420  -2.01793
   D14       -3.12814   0.00009   0.03586   0.00229   0.03815  -3.08999
   D15       -0.96075   0.00012   0.03472   0.00480   0.03952  -0.92122
   D16        1.08016   0.00008   0.03559   0.00361   0.03920   1.11937
   D17        1.05134   0.00005   0.00788   0.00323   0.01111   1.06245
   D18       -0.98753   0.00005   0.00734   0.00398   0.01131  -0.97622
   D19       -3.11997   0.00007   0.00671   0.00363   0.01034  -3.10963
   D20       -1.11509  -0.00000   0.01030   0.00022   0.01052  -1.10457
   D21        3.12922   0.00000   0.00975   0.00096   0.01072   3.13994
   D22        0.99677   0.00003   0.00913   0.00062   0.00975   1.00653
   D23        3.13620  -0.00002   0.01013   0.00103   0.01116  -3.13582
   D24        1.09733  -0.00001   0.00958   0.00177   0.01136   1.10869
   D25       -1.03511   0.00001   0.00896   0.00143   0.01039  -1.02472
   D26        3.05607   0.00002   0.00077  -0.00503  -0.00425   3.05182
   D27        0.94914   0.00002   0.00267  -0.00626  -0.00359   0.94555
   D28       -1.12463   0.00002   0.00050  -0.00467  -0.00418  -1.12880
   D29       -1.05630  -0.00011  -0.00176  -0.00226  -0.00401  -1.06031
   D30        3.11996  -0.00010   0.00014  -0.00349  -0.00335   3.11660
   D31        1.04619  -0.00011  -0.00203  -0.00190  -0.00394   1.04226
   D32        0.99031   0.00002  -0.00188  -0.00299  -0.00486   0.98545
   D33       -1.11662   0.00002   0.00002  -0.00422  -0.00420  -1.12082
   D34        3.09280   0.00001  -0.00215  -0.00264  -0.00479   3.08801
   D35       -1.39018   0.00016   0.00392  -0.00375   0.00017  -1.39001
   D36        0.73694  -0.00004   0.00168  -0.00247  -0.00078   0.73615
   D37        2.78992   0.00008   0.00422  -0.00417   0.00004   2.78996
   D38       -3.06793  -0.00008  -0.00092   0.00023  -0.00070  -3.06863
   D39        1.11981  -0.00003  -0.00008   0.00033   0.00025   1.12006
   D40       -0.96176  -0.00005  -0.00165   0.00172   0.00006  -0.96170
   D41        1.07597   0.00004   0.00189  -0.00215  -0.00024   1.07573
   D42       -1.01948   0.00009   0.00274  -0.00204   0.00070  -1.01877
   D43       -3.10104   0.00008   0.00116  -0.00065   0.00052  -3.10053
   D44       -1.00580  -0.00004  -0.00030  -0.00022  -0.00051  -1.00631
   D45       -3.10124   0.00002   0.00055  -0.00011   0.00044  -3.10080
   D46        1.10037  -0.00000  -0.00102   0.00128   0.00025   1.10063
         Item               Value     Threshold  Converged?
 Maximum Force            0.000795     0.000450     NO 
 RMS     Force            0.000191     0.000300     YES
 Maximum Displacement     0.099791     0.001800     NO 
 RMS     Displacement     0.031025     0.001200     NO 
 Predicted change in Energy=-2.556276D-05
 GradGradGradGradGradGradGradGradGradGradGradGradGradGradGradGradGradGrad

                          Input orientation:                          
 ---------------------------------------------------------------------
 Center     Atomic      Atomic             Coordinates (Angstroms)
 Number     Number       Type             X           Y           Z
 ---------------------------------------------------------------------
      1          8           0        1.589362   -0.207033   -1.244366
      2          6           0        1.419898    0.284738   -0.133835
      3          6           0        0.242050    0.564254    0.589671
      4          7           0       -0.973504    0.284108    0.067778
      5          6           0       -2.085044    0.518735    0.664257
      6          6           0       -3.423597    0.188052    0.043050
      7          6           0       -3.253594   -0.509127   -1.301971
      8          6           0       -4.277073   -0.655342    0.997987
      9          8           0        2.557005    0.661153    0.613219
     10          6           0        3.789225    0.404129    0.001701
     11          6           0        4.205384   -1.055185    0.137036
     12          1           0        0.344599    1.017931    1.586480
     13          1           0       -2.116767    0.984539    1.673813
     14          1           0       -3.983440    1.132001   -0.130637
     15          1           0       -2.706302   -1.453619   -1.164115
     16          1           0       -2.643100    0.102949   -1.978333
     17          1           0       -4.230274   -0.720364   -1.768648
     18          1           0       -5.290972   -0.828859    0.598036
     19          1           0       -4.377645   -0.161772    1.977889
     20          1           0       -3.796588   -1.632756    1.165481
     21          1           0        3.749003    0.669133   -1.066816
     22          1           0        4.523794    1.058143    0.501350
     23          1           0        5.209804   -1.224473   -0.284025
     24          1           0        3.479505   -1.675841   -0.404447
     25          1           0        4.211242   -1.353024    1.196463
 ---------------------------------------------------------------------
                    Distance matrix (angstroms):
                    1          2          3          4          5
     1  O    0.000000
     2  C    1.226310   0.000000
     3  C    2.402879   1.410289   0.000000
     4  N    2.920827   2.401879   1.352193   0.000000
     5  C    4.203671   3.602266   2.328734   1.283105   0.000000
     6  C    5.190694   4.847688   3.725224   2.452100   1.512274
     7  C    4.852712   4.882242   4.117036   2.775652   2.507601
     8  C    6.296364   5.883898   4.698576   3.558290   2.508949
     9  O    2.267312   1.411662   2.317102   3.592237   4.644514
    10  C    2.601076   2.376202   3.599139   4.764700   5.912627
    11  C    3.077532   3.102854   4.305285   5.349709   6.505742
    12  H    3.326208   2.157156   1.099985   2.140642   2.646292
    13  H    4.865287   4.033028   2.629833   2.092129   1.112288
    14  H    5.838624   5.469362   4.323881   3.133370   2.147524
    15  H    4.473606   4.594441   3.979994   2.745877   2.760269
    16  H    4.306801   4.465778   3.889928   2.647062   2.732689
    17  H    5.865709   5.967184   5.216665   3.871430   3.472233
    18  H    7.149834   6.841894   5.705714   4.490033   3.478271
    19  H    6.781604   6.186295   4.878098   3.928805   2.728504
    20  H    6.070298   5.707603   4.633466   3.584567   2.794551
    21  H    2.337357   2.538296   3.879906   4.872127   6.087310
    22  H    3.641303   3.261256   4.311039   5.568429   6.632816
    23  H    3.881371   4.082115   5.351772   6.374393   7.559949
    24  H    2.536829   2.856411   4.060470   4.888117   6.076389
    25  H    3.761010   3.499080   4.449566   5.552993   6.590140
                    6          7          8          9         10
     6  C    0.000000
     7  C    1.524480   0.000000
     8  C    1.533506   2.521645   0.000000
     9  O    6.026319   6.229011   6.970354   0.000000
    10  C    7.216177   7.220450   8.196355   1.399422   0.000000
    11  C    7.730189   7.616120   8.535408   2.426875   1.523516
    12  H    4.155741   4.860252   4.950356   2.443208   3.841058
    13  H    2.236423   3.518338   2.795152   4.803497   6.165516
    14  H    1.111139   2.144295   2.134153   6.599427   7.807793
    15  H    2.160288   1.100272   2.789131   5.944205   6.855817
    16  H    2.168504   1.097637   3.478988   5.836851   6.736917
    17  H    2.181329   1.102865   2.767795   7.324550   8.289209
    18  H    2.197546   2.804133   1.103657   7.988186   9.182911
    19  H    2.185449   3.484483   1.101787   7.115399   8.421599
    20  H    2.171247   2.765086   1.101934   6.777548   7.940267
    21  H    7.273888   7.104926   8.392589   2.059961   1.101622
    22  H    8.008004   8.136097   8.979864   2.009571   1.103167
    23  H    8.754303   8.554358   9.590011   3.376089   2.179914
    24  H    7.164299   6.892126   7.948129   2.710755   2.141765
    25  H    7.873757   7.916951   8.519252   2.670877   2.166366
                   11         12         13         14         15
    11  C    0.000000
    12  H    4.615664   0.000000
    13  H    6.818486   2.463142   0.000000
    14  H    8.480110   4.657620   2.600433   0.000000
    15  H    7.044370   4.793989   3.787612   3.063428   0.000000
    16  H    7.260702   4.740404   3.793732   2.503886   1.757797
    17  H    8.654713   5.933634   4.384535   2.485008   1.796000
    18  H    9.510233   6.012264   3.810681   2.466896   3.189988
    19  H    8.823566   4.883082   2.553049   2.505020   3.786085
    20  H    8.088439   4.934857   3.151259   3.059202   2.578339
    21  H    2.151933   4.330312   6.482113   7.802651   6.796066
    22  H    2.168010   4.317962   6.743674   8.530996   7.833071
    23  H    1.102185   5.674274   7.898830   9.491693   7.968174
    24  H    1.097870   4.587792   6.535676   7.978377   6.236240
    25  H    1.100512   4.552413   6.762823   8.665412   7.309915
                   16         17         18         19         20
    16  H    0.000000
    17  H    1.800259   0.000000
    18  H    3.810141   2.595775   0.000000
    19  H    4.327865   3.790816   1.784143   0.000000
    20  H    3.771840   3.103169   1.789254   1.778040   0.000000
    21  H    6.481544   8.129707   9.313263   8.717972   8.198646
    22  H    7.643664   9.216815   9.994987   9.105162   8.769878
    23  H    8.142532   9.569394  10.545181   9.907814   9.131422
    24  H    6.567153   7.887628   8.868124   8.348817   7.443659
    25  H    7.692931   8.969467   9.535457   8.706244   8.012774
                   21         22         23         24         25
    21  H    0.000000
    22  H    1.791863   0.000000
    23  H    2.516435   2.509534   0.000000
    24  H    2.451584   3.063606   1.792253   0.000000
    25  H    3.070051   2.528754   1.790390   1.789571   0.000000
 Stoichiometry    C8H14NO2(1-)
 Framework group  C1[X(C8H14NO2)]
 Deg. of freedom    69
 Full point group                 C1      NOp   1
 Largest Abelian subgroup         C1      NOp   1
 Largest concise Abelian subgroup C1      NOp   1
                         Standard orientation:                         
 ---------------------------------------------------------------------
 Center     Atomic      Atomic             Coordinates (Angstroms)
 Number     Number       Type             X           Y           Z
 ---------------------------------------------------------------------
      1          8           0       -1.626040    1.246847   -0.275998
      2          6           0       -1.445689    0.034069   -0.297883
      3          6           0       -0.260373   -0.730092   -0.298243
      4          7           0        0.950513   -0.128865   -0.271602
      5          6           0        2.068099   -0.759188   -0.278870
      6          6           0        3.401080   -0.045647   -0.247308
      7          6           0        3.219587    1.463292   -0.128132
      8          6           0        4.284966   -0.586304    0.883213
      9          8           0       -2.575875   -0.811292   -0.326776
     10          6           0       -3.813991   -0.159491   -0.302102
     11          6           0       -4.203195    0.283244    1.102749
     12          1           0       -0.353283   -1.825854   -0.323516
     13          1           0        2.109439   -1.870174   -0.313299
     14          1           0        3.941915   -0.250046   -1.196175
     15          1           0        2.690689    1.700990    0.806943
     16          1           0        2.587308    1.840412   -0.942264
     17          1           0        4.191464    1.984510   -0.137993
     18          1           0        5.294572   -0.140902    0.863918
     19          1           0        4.394156   -1.680227    0.810111
     20          1           0        3.823920   -0.362370    1.858686
     21          1           0       -3.796693    0.720393   -0.964731
     22          1           0       -4.550690   -0.882086   -0.692111
     23          1           0       -5.211759    0.727578    1.116130
     24          1           0       -3.476466    1.031197    1.445896
     25          1           0       -4.185746   -0.575105    1.791269
 ---------------------------------------------------------------------
 Rotational constants (GHZ):           3.3122866           0.3704760           0.3562352
 Standard basis: def2SVP (5D, 7F)
 There are   235 symmetry adapted cartesian basis functions of A   symmetry.
 There are   224 symmetry adapted basis functions of A   symmetry.
   224 basis functions,   373 primitive gaussians,   235 cartesian basis functions
    43 alpha electrons       43 beta electrons
       nuclear repulsion energy       596.7868368830 Hartrees.
 NAtoms=   25 NActive=   25 NUniq=   25 SFac= 1.00D+00 NAtFMM=   60 NAOKFM=F Big=F
 Integral buffers will be    131072 words long.
 Raffenetti 2 integral format.
 Two-electron integral symmetry is turned on.
 Nuclear repulsion after empirical dispersion term =      596.7860371779 Hartrees.
 One-electron integrals computed using PRISM.
   1 Symmetry operations used in ECPInt.
 ECPInt:  NShTT=    5886 NPrTT=   20688 LenC2=    5350 LenP2D=   14010.
 LDataN:  DoStor=T MaxTD1= 4 Len=   56
 NBasis=   224 RedAO= T EigKep=  1.18D-03  NBF=   224
 NBsUse=   224 1.00D-06 EigRej= -1.00D+00 NBFU=   224
 Initial guess from the checkpoint file:  "A18_crest_conformers_censo-13.chk"
 B after Tr=    -0.000000    0.000000   -0.000000
         Rot=    0.999999    0.001394   -0.000377   -0.000333 Ang=   0.17 deg.
 ExpMin= 1.22D-01 ExpMax= 2.27D+03 ExpMxC= 3.41D+02 IAcc=3 IRadAn=         5 AccDes= 0.00D+00
 Harris functional with IExCor= 1009 and IRadAn=       5 diagonalized for initial guess.
 HarFok:  IExCor= 1009 AccDes= 0.00D+00 IRadAn=         5 IDoV= 1 UseB2=F ITyADJ=14
 ICtDFT=  3500011 ScaDFX=  1.000000  1.000000  1.000000  1.000000
 FoFCou: FMM=F IPFlag=           0 FMFlag=      100000 FMFlg1=           0
         NFxFlg=           0 DoJE=T BraDBF=F KetDBF=T FulRan=T
         wScrn=  0.000000 ICntrl=       500 IOpCl=  0 I1Cent=   200000004 NGrid=           0
         NMat0=    1 NMatS0=      1 NMatT0=    0 NMatD0=    1 NMtDS0=    0 NMtDT0=    0
 Petite list used in FoFCou.
 Requested convergence on RMS density matrix=1.00D-08 within 128 cycles.
 Requested convergence on MAX density matrix=1.00D-06.
 Requested convergence on             energy=1.00D-06.
 No special actions if energy rises.
 Integral accuracy reduced to 1.0D-05 until final iterations.
 Initial convergence to 1.0D-05 achieved.  Increase integral accuracy.
 SCF Done:  E(RM062X) =  -517.870602910     A.U. after   12 cycles
            NFock= 12  Conv=0.47D-08     -V/T= 2.0100
   1 Symmetry operations used in ECPInt.
 ECPInt:  NShTT=    5886 NPrTT=   20688 LenC2=    5350 LenP2D=   14010.
 LDataN:  DoStor=T MaxTD1= 5 Len=  102
 Calling FoFJK, ICntrl=      2127 FMM=F ISym2X=0 I1Cent= 0 IOpClX= 0 NMat=1 NMatS=1 NMatT=0.
 ***** Axes restored to original set *****
 -------------------------------------------------------------------
 Center     Atomic                   Forces (Hartrees/Bohr)
 Number     Number              X              Y              Z
 -------------------------------------------------------------------
      1        8          -0.000064598    0.000251579    0.000229251
      2        6           0.000129153   -0.000517108   -0.000346450
      3        6          -0.000161246    0.000289758    0.000202117
      4        7           0.000160338   -0.000063788   -0.000157601
      5        6          -0.000049037   -0.000023325   -0.000014346
      6        6          -0.000069257    0.000032925   -0.000008480
      7        6           0.000099307   -0.000086602    0.000211551
      8        6           0.000081048    0.000099802   -0.000091638
      9        8           0.000167610   -0.000199750   -0.000015336
     10        6          -0.000022318    0.000161206    0.000204752
     11        6          -0.000060098    0.000021560   -0.000007573
     12        1          -0.000039177    0.000018263   -0.000127313
     13        1          -0.000079549   -0.000095854   -0.000009119
     14        1           0.000038453    0.000008450   -0.000004029
     15        1          -0.000074002    0.000121199   -0.000110585
     16        1          -0.000024453   -0.000095361    0.000078202
     17        1           0.000095814    0.000056493    0.000060606
     18        1           0.000103407    0.000001514    0.000061696
     19        1           0.000013152   -0.000083796   -0.000068311
     20        1          -0.000079316    0.000039633    0.000030853
     21        1          -0.000049529    0.000003376   -0.000013574
     22        1           0.000004292    0.000065515   -0.000096435
     23        1          -0.000153814   -0.000011308    0.000073432
     24        1           0.000030721    0.000010185    0.000032464
     25        1           0.000003099   -0.000004567   -0.000114133
 -------------------------------------------------------------------
 Cartesian Forces:  Max     0.000517108 RMS     0.000124458

 GradGradGradGradGradGradGradGradGradGradGradGradGradGradGradGradGradGrad
 Berny optimization.
 Using GEDIIS/GDIIS optimizer.
 FormGI is forming the generalized inverse of G from B-inverse, IUseBI=4.
 Internal  Forces:  Max     0.000317713 RMS     0.000091741
 Search for a local minimum.
 Step number   9 out of a maximum of  121
 All quantities printed in internal units (Hartrees-Bohrs-Radians)
 Mixed Optimization -- En-DIIS/RFO-DIIS
 Swapping is turned off.
 Update second derivatives using D2CorX and points    6    7    8    9
 DE= -2.52D-05 DEPred=-2.56D-05 R= 9.86D-01
 TightC=F SS=  1.41D+00  RLast= 1.08D-01 DXNew= 1.7705D+00 3.2419D-01
 Trust test= 9.86D-01 RLast= 1.08D-01 DXMaxT set to 1.05D+00
 ITU=  1  1  1  1  1  0  1  1  0
     Eigenvalues ---    0.00113   0.00292   0.00370   0.00446   0.00940
     Eigenvalues ---    0.01417   0.01923   0.02349   0.02394   0.02508
     Eigenvalues ---    0.03371   0.04066   0.04907   0.05371   0.05441
     Eigenvalues ---    0.05505   0.05538   0.05586   0.05733   0.05773
     Eigenvalues ---    0.05845   0.05901   0.08111   0.11715   0.13994
     Eigenvalues ---    0.15488   0.15784   0.15915   0.16000   0.16000
     Eigenvalues ---    0.16000   0.16004   0.16021   0.16026   0.16116
     Eigenvalues ---    0.16252   0.17007   0.18146   0.21430   0.22607
     Eigenvalues ---    0.23454   0.24322   0.25078   0.25849   0.28843
     Eigenvalues ---    0.29234   0.29919   0.30794   0.32988   0.33332
     Eigenvalues ---    0.33478   0.33776   0.33900   0.34228   0.34591
     Eigenvalues ---    0.34694   0.34783   0.34937   0.34950   0.35100
     Eigenvalues ---    0.35171   0.35418   0.35588   0.39554   0.46526
     Eigenvalues ---    0.50023   0.56973   0.74004   0.89657
 En-DIIS/RFO-DIIS/Sim-DIIS IScMMF=       -3 using points:     9    8    7    6    5    4    3
 RFO step:  Lambda=-1.45451776D-05.
 DidBck=F Rises=F RFO-DIIS coefs:    1.52365   -0.48776    0.03039   -0.00916   -0.13215
                  RFO-DIIS coefs:    0.03788    0.03714
 Iteration  1 RMS(Cart)=  0.02284315 RMS(Int)=  0.00017051
 Iteration  2 RMS(Cart)=  0.00029416 RMS(Int)=  0.00000392
 Iteration  3 RMS(Cart)=  0.00000004 RMS(Int)=  0.00000392
 Variable       Old X    -DE/DX   Delta X   Delta X   Delta X     New X
                                 (Linear)    (Quad)   (Total)
    R1        2.31739  -0.00032   0.00012  -0.00047  -0.00035   2.31704
    R2        2.66506   0.00005  -0.00079   0.00072  -0.00007   2.66499
    R3        2.66766  -0.00001   0.00200  -0.00145   0.00055   2.66820
    R4        2.55528  -0.00016   0.00023  -0.00027  -0.00004   2.55523
    R5        2.07867  -0.00011   0.00012  -0.00036  -0.00024   2.07843
    R6        2.42472   0.00001  -0.00017   0.00011  -0.00006   2.42465
    R7        2.85778  -0.00025  -0.00051  -0.00024  -0.00075   2.85704
    R8        2.10192  -0.00005   0.00008  -0.00007   0.00001   2.10193
    R9        2.88085  -0.00020  -0.00011  -0.00049  -0.00059   2.88026
   R10        2.89791  -0.00014  -0.00023  -0.00065  -0.00088   2.89703
   R11        2.09975  -0.00001   0.00047  -0.00007   0.00040   2.10015
   R12        2.07921  -0.00015   0.00016  -0.00019  -0.00003   2.07918
   R13        2.07423  -0.00011  -0.00041  -0.00005  -0.00046   2.07377
   R14        2.08411  -0.00012  -0.00009  -0.00012  -0.00022   2.08389
   R15        2.08561  -0.00012  -0.00019  -0.00017  -0.00036   2.08525
   R16        2.08208  -0.00010   0.00001  -0.00015  -0.00014   2.08194
   R17        2.08235  -0.00007  -0.00003   0.00000  -0.00003   2.08232
   R18        2.64453  -0.00030  -0.00007  -0.00048  -0.00055   2.64398
   R19        2.87903  -0.00007   0.00011  -0.00016  -0.00005   2.87898
   R20        2.08176   0.00001  -0.00034   0.00041   0.00007   2.08184
   R21        2.08468  -0.00000   0.00008  -0.00008  -0.00000   2.08468
   R22        2.08283  -0.00017  -0.00014  -0.00016  -0.00030   2.08253
   R23        2.07467  -0.00004   0.00014  -0.00020  -0.00006   2.07461
   R24        2.07967  -0.00011  -0.00004  -0.00016  -0.00020   2.07946
    A1        2.29092   0.00000   0.00040   0.00008   0.00049   2.29142
    A2        2.06559   0.00004   0.00047  -0.00067  -0.00018   2.06541
    A3        1.92667  -0.00004  -0.00092   0.00060  -0.00031   1.92636
    A4        2.10798  -0.00016   0.00086  -0.00126  -0.00040   2.10758
    A5        2.05871   0.00011  -0.00061   0.00093   0.00032   2.05903
    A6        2.11649   0.00005  -0.00025   0.00033   0.00008   2.11657
    A7        2.16693  -0.00017  -0.00040  -0.00028  -0.00068   2.16625
    A8        2.13629  -0.00002   0.00094  -0.00051   0.00042   2.13671
    A9        2.12142   0.00010   0.00004   0.00032   0.00034   2.12176
   A10        2.02547  -0.00008  -0.00096   0.00019  -0.00079   2.02468
   A11        1.94305  -0.00006  -0.00038  -0.00017  -0.00055   1.94250
   A12        1.93594   0.00003  -0.00034   0.00005  -0.00029   1.93565
   A13        1.90119  -0.00001   0.00109  -0.00028   0.00082   1.90200
   A14        1.93902   0.00000   0.00103  -0.00021   0.00082   1.93984
   A15        1.88261   0.00004  -0.00100   0.00019  -0.00080   1.88181
   A16        1.85891   0.00000  -0.00042   0.00045   0.00003   1.85894
   A17        1.91506   0.00014   0.00079   0.00037   0.00116   1.91622
   A18        1.92908   0.00000  -0.00038  -0.00015  -0.00052   1.92856
   A19        1.94140  -0.00006  -0.00087   0.00044  -0.00043   1.94097
   A20        1.85379  -0.00007  -0.00011  -0.00032  -0.00043   1.85336
   A21        1.90615  -0.00003  -0.00067  -0.00006  -0.00073   1.90542
   A22        1.91624   0.00002   0.00127  -0.00031   0.00096   1.91719
   A23        1.95206   0.00001  -0.00055   0.00034  -0.00022   1.95184
   A24        1.93719   0.00003  -0.00009   0.00017   0.00008   1.93728
   A25        1.91751   0.00008   0.00060   0.00042   0.00102   1.91852
   A26        1.88480  -0.00002  -0.00023  -0.00004  -0.00027   1.88453
   A27        1.89252  -0.00005  -0.00005  -0.00033  -0.00038   1.89215
   A28        1.87755  -0.00006   0.00034  -0.00061  -0.00027   1.87728
   A29        2.01423  -0.00023   0.00078  -0.00163  -0.00085   2.01338
   A30        1.95803  -0.00030  -0.00104   0.00007  -0.00097   1.95706
   A31        1.92572   0.00004   0.00000  -0.00043  -0.00043   1.92529
   A32        1.85408   0.00012   0.00075   0.00005   0.00081   1.85489
   A33        1.90345   0.00005  -0.00040   0.00012  -0.00028   1.90318
   A34        1.92383   0.00016   0.00013   0.00082   0.00095   1.92478
   A35        1.89759  -0.00007   0.00062  -0.00065  -0.00002   1.89757
   A36        1.94133   0.00005  -0.00057   0.00095   0.00038   1.94171
   A37        1.89345   0.00001   0.00001  -0.00019  -0.00018   1.89327
   A38        1.92431   0.00004   0.00047  -0.00024   0.00023   1.92454
   A39        1.90421  -0.00002  -0.00038   0.00015  -0.00024   1.90398
   A40        1.89794  -0.00004   0.00046  -0.00050  -0.00004   1.89790
   A41        1.90215  -0.00003   0.00001  -0.00018  -0.00017   1.90198
    D1       -0.00043   0.00013  -0.00269   0.00531   0.00261   0.00218
    D2       -3.13923   0.00012  -0.00207   0.00438   0.00230  -3.13693
    D3       -3.14044  -0.00002  -0.00139   0.00259   0.00120  -3.13924
    D4        0.00395  -0.00003  -0.00077   0.00166   0.00089   0.00484
    D5       -0.02001   0.00002   0.00313  -0.00013   0.00300  -0.01702
    D6        3.12022   0.00015   0.00201   0.00219   0.00421   3.12443
    D7       -3.13341  -0.00005  -0.00084  -0.00091  -0.00175  -3.13516
    D8        0.00530  -0.00004  -0.00148   0.00006  -0.00143   0.00387
    D9       -3.14093  -0.00006  -0.00410  -0.00188  -0.00598   3.13627
   D10        0.00519  -0.00005   0.00087  -0.00141  -0.00053   0.00466
   D11        0.05590   0.00005   0.03391  -0.00035   0.03356   0.08946
   D12        2.22467   0.00003   0.03472  -0.00071   0.03401   2.25867
   D13       -2.01793   0.00005   0.03467  -0.00030   0.03437  -1.98356
   D14       -3.08999   0.00004   0.02919  -0.00079   0.02840  -3.06159
   D15       -0.92122   0.00002   0.03000  -0.00116   0.02885  -0.89238
   D16        1.11937   0.00004   0.02995  -0.00075   0.02920   1.14857
   D17        1.06245   0.00001   0.00804   0.00178   0.00982   1.07227
   D18       -0.97622   0.00002   0.00791   0.00204   0.00995  -0.96627
   D19       -3.10963   0.00003   0.00715   0.00224   0.00939  -3.10024
   D20       -1.10457   0.00002   0.00800   0.00200   0.00999  -1.09458
   D21        3.13994   0.00002   0.00788   0.00226   0.01013  -3.13312
   D22        1.00653   0.00004   0.00712   0.00245   0.00957   1.01610
   D23       -3.13582  -0.00001   0.00852   0.00146   0.00998  -3.12583
   D24        1.10869  -0.00001   0.00840   0.00172   0.01012   1.11881
   D25       -1.02472   0.00001   0.00764   0.00192   0.00956  -1.01516
   D26        3.05182   0.00002  -0.00145   0.00066  -0.00079   3.05103
   D27        0.94555   0.00001  -0.00072   0.00036  -0.00036   0.94519
   D28       -1.12880   0.00002  -0.00146   0.00074  -0.00072  -1.12952
   D29       -1.06031  -0.00004  -0.00144   0.00032  -0.00112  -1.06143
   D30        3.11660  -0.00004  -0.00071   0.00002  -0.00069   3.11592
   D31        1.04226  -0.00004  -0.00145   0.00040  -0.00105   1.04121
   D32        0.98545   0.00001  -0.00233   0.00070  -0.00163   0.98382
   D33       -1.12082   0.00001  -0.00160   0.00040  -0.00120  -1.12202
   D34        3.08801   0.00001  -0.00234   0.00078  -0.00156   3.08646
   D35       -1.39001   0.00008  -0.00122  -0.00035  -0.00157  -1.39158
   D36        0.73615  -0.00004  -0.00244  -0.00047  -0.00290   0.73325
   D37        2.78996  -0.00003  -0.00126  -0.00143  -0.00269   2.78727
   D38       -3.06863  -0.00006  -0.00114  -0.00002  -0.00115  -3.06978
   D39        1.12006  -0.00006  -0.00032  -0.00066  -0.00098   1.11908
   D40       -0.96170  -0.00005  -0.00062  -0.00018  -0.00080  -0.96249
   D41        1.07573   0.00005  -0.00017   0.00041   0.00024   1.07596
   D42       -1.01877   0.00005   0.00064  -0.00024   0.00041  -1.01836
   D43       -3.10053   0.00006   0.00035   0.00024   0.00059  -3.09994
   D44       -1.00631   0.00000  -0.00077   0.00063  -0.00013  -1.00644
   D45       -3.10080  -0.00000   0.00005  -0.00001   0.00004  -3.10076
   D46        1.10063   0.00001  -0.00025   0.00047   0.00022   1.10085
         Item               Value     Threshold  Converged?
 Maximum Force            0.000318     0.000450     YES
 RMS     Force            0.000092     0.000300     YES
 Maximum Displacement     0.075479     0.001800     NO 
 RMS     Displacement     0.022838     0.001200     NO 
 Predicted change in Energy=-7.202565D-06
 GradGradGradGradGradGradGradGradGradGradGradGradGradGradGradGradGradGrad

                          Input orientation:                          
 ---------------------------------------------------------------------
 Center     Atomic      Atomic             Coordinates (Angstroms)
 Number     Number       Type             X           Y           Z
 ---------------------------------------------------------------------
      1          8           0        1.594607   -0.189454   -1.246870
      2          6           0        1.422757    0.286231   -0.129924
      3          6           0        0.243770    0.555144    0.595670
      4          7           0       -0.970558    0.279295    0.068717
      5          6           0       -2.082801    0.503400    0.667854
      6          6           0       -3.420590    0.185723    0.039219
      7          6           0       -3.249046   -0.528325   -1.296367
      8          6           0       -4.293906   -0.633784    0.996268
      9          8           0        2.558544    0.654065    0.623930
     10          6           0        3.791038    0.410831    0.008004
     11          6           0        4.211315   -1.049117    0.121779
     12          1           0        0.344246    0.996542    1.598048
     13          1           0       -2.116271    0.954807    1.683879
     14          1           0       -3.965434    1.135596   -0.150479
     15          1           0       -2.725718   -1.483980   -1.143364
     16          1           0       -2.615623    0.063007   -1.969698
     17          1           0       -4.224240   -0.721784   -1.773470
     18          1           0       -5.307028   -0.796047    0.590192
     19          1           0       -4.394793   -0.127904    1.969756
     20          1           0       -3.830577   -1.616748    1.178841
     21          1           0        3.748314    0.690670   -1.056665
     22          1           0        4.523978    1.060431    0.515737
     23          1           0        5.215370   -1.210019   -0.303010
     24          1           0        3.486294   -1.663711   -0.427644
     25          1           0        4.219322   -1.362398    1.176617
 ---------------------------------------------------------------------
                    Distance matrix (angstroms):
                    1          2          3          4          5
     1  O    0.000000
     2  C    1.226123   0.000000
     3  C    2.402944   1.410252   0.000000
     4  N    2.920713   2.401555   1.352170   0.000000
     5  C    4.203516   3.601743   2.328265   1.283071   0.000000
     6  C    5.191049   4.847342   3.724734   2.451996   1.511880
     7  C    4.855745   4.883630   4.117459   2.776186   2.506541
     8  C    6.316936   5.898727   4.707922   3.569132   2.507993
     9  O    2.267288   1.411953   2.317059   3.592113   4.643997
    10  C    2.599877   2.375563   3.598512   4.763799   5.911510
    11  C    3.075610   3.102025   4.305768   5.349701   6.505720
    12  H    3.326191   2.157224   1.099859   2.140562   2.645563
    13  H    4.865105   4.032568   2.629397   2.092301   1.112293
    14  H    5.819956   5.454764   4.314054   3.122592   2.147940
    15  H    4.511288   4.622830   4.000016   2.767466   2.764694
    16  H    4.279282   4.443322   3.872910   2.628336   2.726632
    17  H    5.866827   5.967069   5.215983   3.870692   3.470864
    18  H    7.167658   6.854189   5.712889   4.498140   3.477101
    19  H    6.798778   6.198714   4.885789   3.937658   2.727417
    20  H    6.111781   5.738617   4.653763   3.606531   2.794791
    21  H    2.334363   2.535869   3.876906   4.868620   6.083661
    22  H    3.640084   3.260956   4.310671   5.567758   6.631965
    23  H    3.878447   4.080764   5.351657   6.373535   7.559212
    24  H    2.534372   2.854662   4.060105   4.887247   6.075467
    25  H    3.760081   3.499399   4.451907   5.554948   6.592176
                    6          7          8          9         10
     6  C    0.000000
     7  C    1.524166   0.000000
     8  C    1.533041   2.521712   0.000000
     9  O    6.025884   6.230064   6.982354   0.000000
    10  C    7.215208   7.221231   8.211833   1.399131   0.000000
    11  C    7.731599   7.611790   8.560141   2.425827   1.523491
    12  H    4.154680   4.859486   4.953035   2.443218   3.840791
    13  H    2.235541   3.516351   2.781820   4.802899   6.164477
    14  H    1.111349   2.143573   2.133923   6.587402   7.791871
    15  H    2.160847   1.100254   2.785691   5.968082   6.883609
    16  H    2.167666   1.097393   3.478376   5.817926   6.713985
    17  H    2.180657   1.102749   2.772011   7.324387   8.288615
    18  H    2.196837   2.804652   1.103469   7.998199   9.196211
    19  H    2.185042   3.484341   1.101713   7.125421   8.434841
    20  H    2.171574   2.765773   1.101918   6.803337   7.973140
    21  H    7.269740   7.106789   8.405118   2.059439   1.101660
    22  H    8.006769   8.138045   8.992016   2.009918   1.103166
    23  H    8.754715   8.549726   9.614910   3.375315   2.180048
    24  H    7.165433   6.885390   7.976202   2.708988   2.141584
    25  H    7.877728   7.911248   8.546253   2.670162   2.166430
                   11         12         13         14         15
    11  C    0.000000
    12  H    4.617176   0.000000
    13  H    6.818667   2.462367   0.000000
    14  H    8.467958   4.652958   2.610930   0.000000
    15  H    7.064851   4.805519   3.783175   3.063478   0.000000
    16  H    7.226215   4.728754   3.793848   2.506390   1.757304
    17  H    8.652034   5.932186   4.382665   2.480109   1.795423
    18  H    9.533221   6.013821   3.800338   2.465707   3.184593
    19  H    8.850353   4.884776   2.538829   2.505230   3.783685
    20  H    8.130905   4.943093   3.131581   3.059522   2.575069
    21  H    2.151734   4.327671   6.478712   7.779526   6.830059
    22  H    2.168676   4.318060   6.743043   8.515845   7.860327
    23  H    1.102027   5.675455   7.898555   9.476937   7.990127
    24  H    1.097838   4.588338   6.534823   7.964998   6.255690
    25  H    1.100405   4.556140   6.765094   8.659756   7.323296
                   16         17         18         19         20
    16  H    0.000000
    17  H    1.800569   0.000000
    18  H    3.812436   2.600931   0.000000
    19  H    4.326799   3.793879   1.783755   0.000000
    20  H    3.769746   3.109996   1.788845   1.777791   0.000000
    21  H    6.459666   8.128373   9.323180   8.725794   8.231722
    22  H    7.625362   9.216728  10.005036   9.114319   8.798045
    23  H    8.106966   9.565922  10.568351   9.934369   9.175537
    24  H    6.526322   7.883578   8.894456   8.379605   7.491302
    25  H    7.658168   8.967002   9.561171   8.738193   8.053917
                   21         22         23         24         25
    21  H    0.000000
    22  H    1.791878   0.000000
    23  H    2.516519   2.510640   0.000000
    24  H    2.451006   3.063937   1.791947   0.000000
    25  H    3.069932   2.529758   1.790147   1.789350   0.000000
 Stoichiometry    C8H14NO2(1-)
 Framework group  C1[X(C8H14NO2)]
 Deg. of freedom    69
 Full point group                 C1      NOp   1
 Largest Abelian subgroup         C1      NOp   1
 Largest concise Abelian subgroup C1      NOp   1
                         Standard orientation:                         
 ---------------------------------------------------------------------
 Center     Atomic      Atomic             Coordinates (Angstroms)
 Number     Number       Type             X           Y           Z
 ---------------------------------------------------------------------
      1          8           0       -1.631149    1.242460   -0.293126
      2          6           0       -1.447743    0.030137   -0.296771
      3          6           0       -0.260880   -0.731487   -0.287008
      4          7           0        0.948494   -0.126986   -0.268030
      5          6           0        2.067160   -0.755356   -0.265079
      6          6           0        3.398873   -0.039741   -0.250353
      7          6           0        3.216055    1.467193   -0.113200
      8          6           0        4.303441   -0.590222    0.858224
      9          8           0       -2.576160   -0.818400   -0.313227
     10          6           0       -3.815003   -0.168233   -0.302377
     11          6           0       -4.207440    0.295796    1.094654
     12          1           0       -0.351160   -1.827582   -0.297713
     13          1           0        2.110852   -1.866650   -0.282746
     14          1           0        3.923449   -0.232659   -1.210926
     15          1           0        2.712433    1.696336    0.837809
     16          1           0        2.560391    1.848508   -0.906280
     17          1           0        4.185811    1.991237   -0.144909
     18          1           0        5.311836   -0.143383    0.824786
     19          1           0        4.412810   -1.683115    0.772223
     20          1           0        3.860809   -0.376992    1.844547
     21          1           0       -3.796254    0.701685   -0.978059
     22          1           0       -4.550057   -0.897067   -0.683785
     23          1           0       -5.215946    0.740042    1.099409
     24          1           0       -3.481665    1.049170    1.427709
     25          1           0       -4.191070   -0.551629    1.796432
 ---------------------------------------------------------------------
 Rotational constants (GHZ):           3.3309094           0.3700472           0.3554550
 Standard basis: def2SVP (5D, 7F)
 There are   235 symmetry adapted cartesian basis functions of A   symmetry.
 There are   224 symmetry adapted basis functions of A   symmetry.
   224 basis functions,   373 primitive gaussians,   235 cartesian basis functions
    43 alpha electrons       43 beta electrons
       nuclear repulsion energy       596.7524827895 Hartrees.
 NAtoms=   25 NActive=   25 NUniq=   25 SFac= 1.00D+00 NAtFMM=   60 NAOKFM=F Big=F
 Integral buffers will be    131072 words long.
 Raffenetti 2 integral format.
 Two-electron integral symmetry is turned on.
 Nuclear repulsion after empirical dispersion term =      596.7516840566 Hartrees.
 One-electron integrals computed using PRISM.
   1 Symmetry operations used in ECPInt.
 ECPInt:  NShTT=    5886 NPrTT=   20688 LenC2=    5347 LenP2D=   14008.
 LDataN:  DoStor=T MaxTD1= 4 Len=   56
 NBasis=   224 RedAO= T EigKep=  1.17D-03  NBF=   224
 NBsUse=   224 1.00D-06 EigRej= -1.00D+00 NBFU=   224
 Initial guess from the checkpoint file:  "A18_crest_conformers_censo-13.chk"
 B after Tr=     0.000000   -0.000000    0.000000
         Rot=    0.999999    0.001458   -0.000301   -0.000270 Ang=   0.17 deg.
 ExpMin= 1.22D-01 ExpMax= 2.27D+03 ExpMxC= 3.41D+02 IAcc=3 IRadAn=         5 AccDes= 0.00D+00
 Harris functional with IExCor= 1009 and IRadAn=       5 diagonalized for initial guess.
 HarFok:  IExCor= 1009 AccDes= 0.00D+00 IRadAn=         5 IDoV= 1 UseB2=F ITyADJ=14
 ICtDFT=  3500011 ScaDFX=  1.000000  1.000000  1.000000  1.000000
 FoFCou: FMM=F IPFlag=           0 FMFlag=      100000 FMFlg1=           0
         NFxFlg=           0 DoJE=T BraDBF=F KetDBF=T FulRan=T
         wScrn=  0.000000 ICntrl=       500 IOpCl=  0 I1Cent=   200000004 NGrid=           0
         NMat0=    1 NMatS0=      1 NMatT0=    0 NMatD0=    1 NMtDS0=    0 NMtDT0=    0
 Petite list used in FoFCou.
 Requested convergence on RMS density matrix=1.00D-08 within 128 cycles.
 Requested convergence on MAX density matrix=1.00D-06.
 Requested convergence on             energy=1.00D-06.
 No special actions if energy rises.
 Integral accuracy reduced to 1.0D-05 until final iterations.
 Initial convergence to 1.0D-05 achieved.  Increase integral accuracy.
 SCF Done:  E(RM062X) =  -517.870609546     A.U. after   11 cycles
            NFock= 11  Conv=0.76D-08     -V/T= 2.0100
   1 Symmetry operations used in ECPInt.
 ECPInt:  NShTT=    5886 NPrTT=   20688 LenC2=    5347 LenP2D=   14008.
 LDataN:  DoStor=T MaxTD1= 5 Len=  102
 Calling FoFJK, ICntrl=      2127 FMM=F ISym2X=0 I1Cent= 0 IOpClX= 0 NMat=1 NMatS=1 NMatT=0.
 ***** Axes restored to original set *****
 -------------------------------------------------------------------
 Center     Atomic                   Forces (Hartrees/Bohr)
 Number     Number              X              Y              Z
 -------------------------------------------------------------------
      1        8          -0.000154067    0.000093282    0.000038821
      2        6           0.000219757   -0.000165544   -0.000064343
      3        6          -0.000153689    0.000092204    0.000081950
      4        7           0.000176571   -0.000019608   -0.000047553
      5        6          -0.000036994    0.000110130    0.000137139
      6        6          -0.000072199   -0.000071755    0.000013318
      7        6          -0.000037598   -0.000038597   -0.000000369
      8        6           0.000018930    0.000063321   -0.000084851
      9        8          -0.000057613   -0.000123495   -0.000038668
     10        6           0.000059269    0.000033334    0.000064128
     11        6           0.000003354    0.000027224   -0.000028070
     12        1          -0.000018483    0.000009216   -0.000059511
     13        1           0.000014851   -0.000006256   -0.000033721
     14        1           0.000045331   -0.000023321    0.000008789
     15        1          -0.000046927    0.000012032    0.000003746
     16        1          -0.000024731    0.000015475    0.000014201
     17        1           0.000045762   -0.000005482   -0.000027442
     18        1           0.000030506   -0.000020888    0.000027870
     19        1           0.000003497   -0.000034864   -0.000014967
     20        1          -0.000015619    0.000021821    0.000013721
     21        1           0.000013776    0.000008419    0.000010608
     22        1           0.000005534    0.000024857   -0.000037946
     23        1          -0.000044676   -0.000020906    0.000038594
     24        1           0.000019841    0.000020771    0.000019948
     25        1           0.000005616   -0.000001371   -0.000035391
 -------------------------------------------------------------------
 Cartesian Forces:  Max     0.000219757 RMS     0.000063438

 GradGradGradGradGradGradGradGradGradGradGradGradGradGradGradGradGradGrad
 Berny optimization.
 Using GEDIIS/GDIIS optimizer.
 FormGI is forming the generalized inverse of G from B-inverse, IUseBI=4.
 Internal  Forces:  Max     0.000225916 RMS     0.000046041
 Search for a local minimum.
 Step number  10 out of a maximum of  121
 All quantities printed in internal units (Hartrees-Bohrs-Radians)
 Mixed Optimization -- En-DIIS/RFO-DIIS
 Swapping is turned off.
 Update second derivatives using D2CorX and points    6    7    8    9   10
 DE= -6.64D-06 DEPred=-7.20D-06 R= 9.21D-01
 TightC=F SS=  1.41D+00  RLast= 8.34D-02 DXNew= 1.7705D+00 2.5022D-01
 Trust test= 9.21D-01 RLast= 8.34D-02 DXMaxT set to 1.05D+00
 ITU=  1  1  1  1  1  1  0  1  1  0
     Eigenvalues ---    0.00122   0.00295   0.00370   0.00447   0.00848
     Eigenvalues ---    0.01422   0.01944   0.02347   0.02379   0.02517
     Eigenvalues ---    0.03443   0.04106   0.04897   0.05378   0.05419
     Eigenvalues ---    0.05498   0.05521   0.05579   0.05736   0.05769
     Eigenvalues ---    0.05845   0.05919   0.08029   0.11682   0.13966
     Eigenvalues ---    0.15366   0.15751   0.15912   0.15998   0.16000
     Eigenvalues ---    0.16000   0.16003   0.16006   0.16022   0.16107
     Eigenvalues ---    0.16404   0.17059   0.18271   0.21349   0.22216
     Eigenvalues ---    0.23699   0.24370   0.25114   0.25631   0.28893
     Eigenvalues ---    0.29299   0.29883   0.31422   0.32970   0.33404
     Eigenvalues ---    0.33573   0.33814   0.33902   0.34217   0.34567
     Eigenvalues ---    0.34651   0.34774   0.34930   0.34945   0.35104
     Eigenvalues ---    0.35150   0.35474   0.35657   0.39010   0.46436
     Eigenvalues ---    0.50481   0.56951   0.74096   0.89019
 En-DIIS/RFO-DIIS/Sim-DIIS IScMMF=       -3 using points:    10    9    8    7    6    5    4    3
 RFO step:  Lambda=-1.89774094D-06.
 DidBck=F Rises=F RFO-DIIS coefs:    1.34567   -0.32182    0.08211   -0.17679    0.05322
                  RFO-DIIS coefs:    0.04969   -0.01367   -0.01841
 Iteration  1 RMS(Cart)=  0.00473875 RMS(Int)=  0.00000865
 Iteration  2 RMS(Cart)=  0.00001469 RMS(Int)=  0.00000177
 Iteration  3 RMS(Cart)=  0.00000000 RMS(Int)=  0.00000177
 Variable       Old X    -DE/DX   Delta X   Delta X   Delta X     New X
                                 (Linear)    (Quad)   (Total)
    R1        2.31704  -0.00009  -0.00054   0.00029  -0.00025   2.31679
    R2        2.66499   0.00009   0.00032  -0.00012   0.00019   2.66518
    R3        2.66820  -0.00000   0.00021   0.00016   0.00036   2.66857
    R4        2.55523  -0.00009   0.00033  -0.00042  -0.00009   2.55514
    R5        2.07843  -0.00005  -0.00013  -0.00007  -0.00020   2.07823
    R6        2.42465   0.00009  -0.00002   0.00014   0.00012   2.42478
    R7        2.85704   0.00009   0.00026   0.00004   0.00030   2.85734
    R8        2.10193  -0.00003   0.00007  -0.00017  -0.00010   2.10182
    R9        2.88026   0.00001  -0.00001   0.00004   0.00004   2.88030
   R10        2.89703  -0.00007  -0.00032  -0.00006  -0.00038   2.89665
   R11        2.10015  -0.00004   0.00009  -0.00020  -0.00011   2.10004
   R12        2.07918  -0.00003   0.00029  -0.00033  -0.00005   2.07913
   R13        2.07377  -0.00001   0.00016  -0.00021  -0.00005   2.07372
   R14        2.08389  -0.00003   0.00020  -0.00028  -0.00007   2.08382
   R15        2.08525  -0.00003   0.00017  -0.00029  -0.00011   2.08514
   R16        2.08194  -0.00003   0.00017  -0.00025  -0.00008   2.08186
   R17        2.08232  -0.00002   0.00026  -0.00030  -0.00003   2.08229
   R18        2.64398   0.00002  -0.00046   0.00039  -0.00008   2.64390
   R19        2.87898  -0.00003  -0.00007  -0.00005  -0.00012   2.87887
   R20        2.08184  -0.00001   0.00003  -0.00008  -0.00005   2.08178
   R21        2.08468   0.00000   0.00014  -0.00009   0.00004   2.08472
   R22        2.08253  -0.00005   0.00026  -0.00041  -0.00016   2.08237
   R23        2.07461  -0.00004   0.00034  -0.00038  -0.00004   2.07457
   R24        2.07946  -0.00003   0.00014  -0.00023  -0.00009   2.07937
    A1        2.29142  -0.00015   0.00076  -0.00120  -0.00044   2.29097
    A2        2.06541   0.00017  -0.00051   0.00126   0.00074   2.06615
    A3        1.92636  -0.00002  -0.00023  -0.00006  -0.00030   1.92606
    A4        2.10758  -0.00010  -0.00056  -0.00000  -0.00056   2.10702
    A5        2.05903   0.00006   0.00030   0.00008   0.00038   2.05941
    A6        2.11657   0.00004   0.00026  -0.00008   0.00018   2.11675
    A7        2.16625   0.00003  -0.00007   0.00012   0.00005   2.16630
    A8        2.13671  -0.00004  -0.00012  -0.00008  -0.00019   2.13652
    A9        2.12176   0.00001  -0.00027   0.00027   0.00000   2.12177
   A10        2.02468   0.00003   0.00037  -0.00019   0.00019   2.02487
   A11        1.94250   0.00004  -0.00002   0.00024   0.00022   1.94272
   A12        1.93565   0.00000   0.00000   0.00000   0.00000   1.93565
   A13        1.90200  -0.00003  -0.00018  -0.00012  -0.00030   1.90170
   A14        1.93984  -0.00004   0.00020  -0.00025  -0.00005   1.93978
   A15        1.88181  -0.00000  -0.00021   0.00004  -0.00017   1.88164
   A16        1.85894   0.00002   0.00021   0.00009   0.00029   1.85923
   A17        1.91622  -0.00001   0.00009  -0.00002   0.00006   1.91628
   A18        1.92856  -0.00004  -0.00020  -0.00016  -0.00036   1.92820
   A19        1.94097   0.00007   0.00014   0.00026   0.00041   1.94137
   A20        1.85336   0.00003   0.00011   0.00023   0.00034   1.85370
   A21        1.90542  -0.00003  -0.00025  -0.00007  -0.00031   1.90510
   A22        1.91719  -0.00002   0.00010  -0.00024  -0.00014   1.91705
   A23        1.95184   0.00003   0.00025   0.00004   0.00029   1.95213
   A24        1.93728   0.00002   0.00005   0.00011   0.00016   1.93743
   A25        1.91852   0.00001  -0.00001   0.00003   0.00002   1.91855
   A26        1.88453  -0.00002  -0.00002   0.00002   0.00000   1.88454
   A27        1.89215  -0.00002  -0.00007  -0.00013  -0.00020   1.89195
   A28        1.87728  -0.00002  -0.00022  -0.00008  -0.00030   1.87698
   A29        2.01338   0.00023  -0.00110   0.00203   0.00093   2.01431
   A30        1.95706  -0.00006  -0.00077   0.00021  -0.00057   1.95649
   A31        1.92529   0.00002  -0.00006   0.00009   0.00003   1.92532
   A32        1.85489   0.00002   0.00065  -0.00019   0.00046   1.85535
   A33        1.90318   0.00002  -0.00052   0.00041  -0.00012   1.90306
   A34        1.92478   0.00003   0.00081  -0.00034   0.00047   1.92525
   A35        1.89757  -0.00003  -0.00005  -0.00021  -0.00026   1.89731
   A36        1.94171   0.00005   0.00094  -0.00040   0.00054   1.94225
   A37        1.89327  -0.00001  -0.00051   0.00029  -0.00021   1.89306
   A38        1.92454   0.00001   0.00016  -0.00003   0.00013   1.92467
   A39        1.90398  -0.00001  -0.00047   0.00030  -0.00016   1.90382
   A40        1.89790  -0.00003   0.00002  -0.00016  -0.00015   1.89776
   A41        1.90198  -0.00000  -0.00018   0.00002  -0.00016   1.90182
    D1        0.00218   0.00008   0.00084   0.00213   0.00297   0.00515
    D2       -3.13693   0.00007   0.00072   0.00158   0.00231  -3.13462
    D3       -3.13924   0.00001   0.00102   0.00122   0.00225  -3.13699
    D4        0.00484  -0.00000   0.00091   0.00068   0.00159   0.00642
    D5       -0.01702   0.00002   0.00570  -0.00001   0.00569  -0.01133
    D6        3.12443   0.00008   0.00554   0.00076   0.00630   3.13073
    D7       -3.13516  -0.00000   0.00003  -0.00025  -0.00022  -3.13538
    D8        0.00387   0.00001   0.00015   0.00031   0.00046   0.00433
    D9        3.13627   0.00004  -0.00022   0.00136   0.00113   3.13741
   D10        0.00466   0.00003  -0.00026   0.00079   0.00053   0.00519
   D11        0.08946  -0.00000   0.00259  -0.00059   0.00200   0.09146
   D12        2.25867  -0.00002   0.00283  -0.00073   0.00210   2.26077
   D13       -1.98356  -0.00000   0.00297  -0.00070   0.00227  -1.98129
   D14       -3.06159   0.00001   0.00262  -0.00005   0.00258  -3.05902
   D15       -0.89238  -0.00001   0.00286  -0.00019   0.00267  -0.88971
   D16        1.14857   0.00001   0.00300  -0.00016   0.00284   1.15142
   D17        1.07227   0.00001   0.00159   0.00104   0.00263   1.07490
   D18       -0.96627   0.00001   0.00152   0.00087   0.00239  -0.96388
   D19       -3.10024   0.00001   0.00143   0.00111   0.00254  -3.09770
   D20       -1.09458   0.00001   0.00146   0.00104   0.00250  -1.09208
   D21       -3.13312  -0.00000   0.00139   0.00087   0.00226  -3.13086
   D22        1.01610   0.00001   0.00130   0.00111   0.00241   1.01851
   D23       -3.12583   0.00000   0.00123   0.00105   0.00228  -3.12355
   D24        1.11881  -0.00001   0.00115   0.00088   0.00204   1.12085
   D25       -1.01516   0.00000   0.00107   0.00112   0.00219  -1.01297
   D26        3.05103  -0.00001   0.00032   0.00091   0.00124   3.05227
   D27        0.94519  -0.00002   0.00015   0.00078   0.00093   0.94612
   D28       -1.12952  -0.00001   0.00040   0.00079   0.00119  -1.12833
   D29       -1.06143   0.00002   0.00044   0.00105   0.00149  -1.05995
   D30        3.11592   0.00001   0.00026   0.00091   0.00118   3.11709
   D31        1.04121   0.00002   0.00051   0.00092   0.00144   1.04264
   D32        0.98382   0.00001   0.00042   0.00101   0.00143   0.98524
   D33       -1.12202  -0.00000   0.00024   0.00088   0.00112  -1.12090
   D34        3.08646   0.00001   0.00049   0.00089   0.00138   3.08783
   D35       -1.39158  -0.00000  -0.00138  -0.00043  -0.00181  -1.39339
   D36        0.73325  -0.00001  -0.00263   0.00030  -0.00233   0.73092
   D37        2.78727  -0.00002  -0.00235  -0.00001  -0.00236   2.78491
   D38       -3.06978  -0.00000  -0.00127   0.00125  -0.00002  -3.06980
   D39        1.11908  -0.00001  -0.00095   0.00093  -0.00001   1.11907
   D40       -0.96249  -0.00000  -0.00052   0.00075   0.00023  -0.96226
   D41        1.07596   0.00000  -0.00031   0.00071   0.00040   1.07636
   D42       -1.01836  -0.00000   0.00002   0.00040   0.00041  -1.01795
   D43       -3.09994   0.00000   0.00045   0.00021   0.00066  -3.09928
   D44       -1.00644   0.00001  -0.00041   0.00092   0.00051  -1.00593
   D45       -3.10076   0.00000  -0.00009   0.00060   0.00052  -3.10025
   D46        1.10085   0.00001   0.00034   0.00042   0.00076   1.10161
         Item               Value     Threshold  Converged?
 Maximum Force            0.000226     0.000450     YES
 RMS     Force            0.000046     0.000300     YES
 Maximum Displacement     0.014604     0.001800     NO 
 RMS     Displacement     0.004738     0.001200     NO 
 Predicted change in Energy=-9.236179D-07
 GradGradGradGradGradGradGradGradGradGradGradGradGradGradGradGradGradGrad

                          Input orientation:                          
 ---------------------------------------------------------------------
 Center     Atomic      Atomic             Coordinates (Angstroms)
 Number     Number       Type             X           Y           Z
 ---------------------------------------------------------------------
      1          8           0        1.593431   -0.189460   -1.245681
      2          6           0        1.422308    0.283984   -0.127814
      3          6           0        0.243250    0.554167    0.597390
      4          7           0       -0.970792    0.279239    0.069419
      5          6           0       -2.083461    0.504025    0.667648
      6          6           0       -3.420880    0.185875    0.038083
      7          6           0       -3.248621   -0.531848   -1.295463
      8          6           0       -4.296086   -0.630115    0.996087
      9          8           0        2.558201    0.648188    0.627999
     10          6           0        3.791233    0.411306    0.010767
     11          6           0        4.214420   -1.048289    0.117226
     12          1           0        0.343410    0.994924    1.599966
     13          1           0       -2.117532    0.955758    1.683447
     14          1           0       -3.964221    1.135877   -0.154911
     15          1           0       -2.728827   -1.488860   -1.139111
     16          1           0       -2.611872    0.056203   -1.968488
     17          1           0       -4.223110   -0.723460   -1.774656
     18          1           0       -5.308465   -0.793745    0.588872
     19          1           0       -4.398622   -0.121207    1.967777
     20          1           0       -3.833335   -1.612538    1.182885
     21          1           0        3.747629    0.696159   -1.052505
     22          1           0        4.522849    1.060294    0.521234
     23          1           0        5.218706   -1.205602   -0.308147
     24          1           0        3.490558   -1.661366   -0.435373
     25          1           0        4.222797   -1.367039    1.170370
 ---------------------------------------------------------------------
                    Distance matrix (angstroms):
                    1          2          3          4          5
     1  O    0.000000
     2  C    1.225993   0.000000
     3  C    2.402682   1.410354   0.000000
     4  N    2.919659   2.401219   1.352123   0.000000
     5  C    4.202533   3.601610   2.328311   1.283136   0.000000
     6  C    5.189628   4.847022   3.724823   2.452066   1.512039
     7  C    4.854397   4.883294   4.117703   2.776557   2.506878
     8  C    6.317129   5.899048   4.708190   3.569764   2.507959
     9  O    2.267844   1.412145   2.317063   3.591926   4.644070
    10  C    2.601907   2.376389   3.598989   4.764218   5.912032
    11  C    3.076474   3.103367   4.309132   5.352667   6.509681
    12  H    3.326112   2.157471   1.099753   2.140539   2.645732
    13  H    4.864418   4.032669   2.629465   2.092314   1.112238
    14  H    5.816682   5.453544   4.313601   3.121661   2.147812
    15  H    4.514610   4.625755   4.002828   2.770812   2.766309
    16  H    4.274035   4.440110   3.870842   2.626015   2.725614
    17  H    5.864905   5.966387   5.216062   3.870864   3.471262
    18  H    7.167072   6.854083   5.713010   4.498503   3.477221
    19  H    6.799682   6.199912   4.886825   3.938799   2.727861
    20  H    6.113336   5.739034   4.653596   3.607323   2.794167
    21  H    2.337137   2.536151   3.875951   4.867858   6.082553
    22  H    3.642165   3.261484   4.310097   5.567251   6.631305
    23  H    3.879966   4.082159   5.354620   6.376300   7.562846
    24  H    2.534206   2.855982   4.064504   4.891258   6.080728
    25  H    3.759995   3.500557   4.456023   5.558390   6.597159
                    6          7          8          9         10
     6  C    0.000000
     7  C    1.524187   0.000000
     8  C    1.532840   2.521516   0.000000
     9  O    6.025873   6.229878   6.982178   0.000000
    10  C    7.215688   7.221864   8.213413   1.399091   0.000000
    11  C    7.734807   7.613106   8.565979   2.425281   1.523430
    12  H    4.154987   4.859756   4.952812   2.443408   3.841048
    13  H    2.235768   3.516567   2.780927   4.803234   6.165046
    14  H    1.111292   2.143420   2.133930   6.587320   7.790990
    15  H    2.160894   1.100229   2.784388   5.970119   6.887963
    16  H    2.167403   1.097367   3.477975   5.815656   6.711431
    17  H    2.180937   1.102710   2.773275   7.323957   8.288856
    18  H    2.196817   2.803974   1.103408   7.997822   9.197330
    19  H    2.184947   3.484231   1.101672   7.126315   8.437250
    20  H    2.171401   2.766224   1.101901   6.802244   7.975202
    21  H    7.268927   7.107358   8.405777   2.059402   1.101631
    22  H    8.006302   8.138246   8.992029   2.010241   1.103188
    23  H    8.757770   8.551279   9.620992   3.375084   2.180315
    24  H    7.169688   6.887096   7.984008   2.708152   2.141358
    25  H    7.881587   7.912014   8.552474   2.669492   2.166434
                   11         12         13         14         15
    11  C    0.000000
    12  H    4.621467   0.000000
    13  H    6.823700   2.462669   0.000000
    14  H    8.469640   4.653509   2.611946   0.000000
    15  H    7.069735   4.807324   3.783738   3.063346   0.000000
    16  H    7.222768   4.727446   3.793442   2.506711   1.757488
    17  H    8.653129   5.932454   4.383116   2.479462   1.795170
    18  H    9.537955   6.013763   3.800120   2.466506   3.181768
    19  H    8.858246   4.885479   2.538517   2.504949   3.783047
    20  H    8.137590   4.941459   3.129008   3.059512   2.574277
    21  H    2.151573   4.325919   6.477109   7.776352   6.835663
    22  H    2.168980   4.316903   6.742131   8.514296   7.863951
    23  H    1.101944   5.679060   7.903058   9.477982   7.995875
    24  H    1.097818   4.593802   6.541361   7.967242   6.261449
    25  H    1.100357   4.562134   6.771884   8.663038   7.326228
                   16         17         18         19         20
    16  H    0.000000
    17  H    1.800425   0.000000
    18  H    3.812364   2.601769   0.000000
    19  H    4.326445   3.794643   1.783676   0.000000
    20  H    3.769326   3.112785   1.788653   1.777547   0.000000
    21  H    6.456921   8.128315   9.323454   8.726489   8.233959
    22  H    7.623068   9.216544  10.004838   9.114882   8.798161
    23  H    8.103508   9.567183  10.573344   9.942271   9.183041
    24  H    6.522280   7.885050   8.900823   8.389659   7.500704
    25  H    7.654460   8.967760   9.566179   8.747390   8.059882
                   21         22         23         24         25
    21  H    0.000000
    22  H    1.791707   0.000000
    23  H    2.516909   2.511250   0.000000
    24  H    2.450482   3.064009   1.791760   0.000000
    25  H    3.069812   2.530485   1.789947   1.789193   0.000000
 Stoichiometry    C8H14NO2(1-)
 Framework group  C1[X(C8H14NO2)]
 Deg. of freedom    69
 Full point group                 C1      NOp   1
 Largest Abelian subgroup         C1      NOp   1
 Largest concise Abelian subgroup C1      NOp   1
                         Standard orientation:                         
 ---------------------------------------------------------------------
 Center     Atomic      Atomic             Coordinates (Angstroms)
 Number     Number       Type             X           Y           Z
 ---------------------------------------------------------------------
      1          8           0       -1.630143    1.240979   -0.296325
      2          6           0       -1.447333    0.028693   -0.295007
      3          6           0       -0.260382   -0.732977   -0.284730
      4          7           0        0.948629   -0.127793   -0.267947
      5          6           0        2.067731   -0.755515   -0.264443
      6          6           0        3.399018   -0.038751   -0.250792
      7          6           0        3.215459    1.468016   -0.112569
      8          6           0        4.305206   -0.589152    0.856221
      9          8           0       -2.575702   -0.820317   -0.305881
     10          6           0       -3.815260   -0.171515   -0.302990
     11          6           0       -4.211097    0.301904    1.089858
     12          1           0       -0.350262   -1.829023   -0.292554
     13          1           0        2.112087   -1.866756   -0.280227
     14          1           0        3.922266   -0.230636   -1.212229
     15          1           0        2.715217    1.696564    0.840336
     16          1           0        2.556695    1.848647   -0.903369
     17          1           0        4.184417    1.993241   -0.147627
     18          1           0        5.312841   -0.140741    0.822930
     19          1           0        4.416226   -1.681736    0.768953
     20          1           0        3.862974   -0.378022    1.843156
     21          1           0       -3.795588    0.693769   -0.984523
     22          1           0       -4.548795   -0.903433   -0.681469
     23          1           0       -5.219936    0.745215    1.089945
     24          1           0       -3.486688    1.058311    1.418922
     25          1           0       -4.195145   -0.540375    1.797740
 ---------------------------------------------------------------------
 Rotational constants (GHZ):           3.3345446           0.3699615           0.3552762
 Standard basis: def2SVP (5D, 7F)
 There are   235 symmetry adapted cartesian basis functions of A   symmetry.
 There are   224 symmetry adapted basis functions of A   symmetry.
   224 basis functions,   373 primitive gaussians,   235 cartesian basis functions
    43 alpha electrons       43 beta electrons
       nuclear repulsion energy       596.7199935367 Hartrees.
 NAtoms=   25 NActive=   25 NUniq=   25 SFac= 1.00D+00 NAtFMM=   60 NAOKFM=F Big=F
 Integral buffers will be    131072 words long.
 Raffenetti 2 integral format.
 Two-electron integral symmetry is turned on.
 Nuclear repulsion after empirical dispersion term =      596.7191949097 Hartrees.
 One-electron integrals computed using PRISM.
   1 Symmetry operations used in ECPInt.
 ECPInt:  NShTT=    5886 NPrTT=   20688 LenC2=    5347 LenP2D=   14006.
 LDataN:  DoStor=T MaxTD1= 4 Len=   56
 NBasis=   224 RedAO= T EigKep=  1.18D-03  NBF=   224
 NBsUse=   224 1.00D-06 EigRej= -1.00D+00 NBFU=   224
 Initial guess from the checkpoint file:  "A18_crest_conformers_censo-13.chk"
 B after Tr=     0.000000   -0.000000   -0.000000
         Rot=    0.999999    0.001204    0.000034   -0.000046 Ang=   0.14 deg.
 Requested convergence on RMS density matrix=1.00D-08 within 128 cycles.
 Requested convergence on MAX density matrix=1.00D-06.
 Requested convergence on             energy=1.00D-06.
 No special actions if energy rises.
 SCF Done:  E(RM062X) =  -517.870610477     A.U. after    9 cycles
            NFock=  9  Conv=0.57D-08     -V/T= 2.0100
   1 Symmetry operations used in ECPInt.
 ECPInt:  NShTT=    5886 NPrTT=   20688 LenC2=    5347 LenP2D=   14006.
 LDataN:  DoStor=T MaxTD1= 5 Len=  102
 Calling FoFJK, ICntrl=      2127 FMM=F ISym2X=0 I1Cent= 0 IOpClX= 0 NMat=1 NMatS=1 NMatT=0.
 ***** Axes restored to original set *****
 -------------------------------------------------------------------
 Center     Atomic                   Forces (Hartrees/Bohr)
 Number     Number              X              Y              Z
 -------------------------------------------------------------------
      1        8           0.000074312    0.000049582   -0.000016374
      2        6           0.000154599    0.000009032    0.000132135
      3        6          -0.000096111    0.000026575   -0.000023766
      4        7           0.000076926   -0.000029639    0.000031830
      5        6          -0.000018586    0.000000540    0.000023535
      6        6          -0.000012274    0.000008427   -0.000015995
      7        6           0.000012298    0.000011104    0.000001951
      8        6           0.000011286    0.000009183   -0.000002571
      9        8          -0.000123619   -0.000029839   -0.000077557
     10        6          -0.000060743   -0.000090249    0.000011634
     11        6           0.000023458   -0.000023620   -0.000046445
     12        1          -0.000005773    0.000019824   -0.000000121
     13        1          -0.000002267   -0.000001184   -0.000011986
     14        1          -0.000012541   -0.000005086    0.000004000
     15        1          -0.000005744    0.000000319    0.000000731
     16        1          -0.000000591   -0.000003595   -0.000000991
     17        1           0.000001188    0.000000986    0.000002340
     18        1          -0.000001453   -0.000000438    0.000002597
     19        1          -0.000004698   -0.000006359    0.000008166
     20        1          -0.000001416    0.000002893    0.000000333
     21        1          -0.000003256    0.000016787   -0.000046222
     22        1          -0.000018259    0.000003125   -0.000012134
     23        1           0.000015464   -0.000000482    0.000012257
     24        1          -0.000002069    0.000020799    0.000020757
     25        1          -0.000000129    0.000011312    0.000001898
 -------------------------------------------------------------------
 Cartesian Forces:  Max     0.000154599 RMS     0.000038746

 GradGradGradGradGradGradGradGradGradGradGradGradGradGradGradGradGradGrad
 Berny optimization.
 Using GEDIIS/GDIIS optimizer.
 FormGI is forming the generalized inverse of G from B-inverse, IUseBI=4.
 Internal  Forces:  Max     0.000227479 RMS     0.000035792
 Search for a local minimum.
 Step number  11 out of a maximum of  121
 All quantities printed in internal units (Hartrees-Bohrs-Radians)
 Mixed Optimization -- En-DIIS/RFO-DIIS
 Swapping is turned off.
 Update second derivatives using D2CorX and points    6    7    8    9   10
                                                     11
 DE= -9.30D-07 DEPred=-9.24D-07 R= 1.01D+00
 Trust test= 1.01D+00 RLast= 1.47D-02 DXMaxT set to 1.05D+00
 ITU=  0  1  1  1  1  1  1  0  1  1  0
     Eigenvalues ---    0.00118   0.00296   0.00370   0.00432   0.00786
     Eigenvalues ---    0.01423   0.01863   0.02278   0.02356   0.02515
     Eigenvalues ---    0.03471   0.04121   0.04900   0.05369   0.05462
     Eigenvalues ---    0.05496   0.05574   0.05616   0.05739   0.05768
     Eigenvalues ---    0.05843   0.06048   0.07963   0.11658   0.13991
     Eigenvalues ---    0.15168   0.15812   0.15891   0.15957   0.16000
     Eigenvalues ---    0.16001   0.16004   0.16016   0.16072   0.16109
     Eigenvalues ---    0.16451   0.17166   0.18264   0.20910   0.22779
     Eigenvalues ---    0.23807   0.24529   0.25186   0.26630   0.28822
     Eigenvalues ---    0.29328   0.29906   0.31610   0.32935   0.33421
     Eigenvalues ---    0.33693   0.33799   0.33893   0.34231   0.34287
     Eigenvalues ---    0.34643   0.34812   0.34931   0.34965   0.35104
     Eigenvalues ---    0.35154   0.35522   0.35667   0.44107   0.46278
     Eigenvalues ---    0.54907   0.56854   0.73903   0.88865
 En-DIIS/RFO-DIIS/Sim-DIIS IScMMF=       -3 using points:    11   10    9    8    7    6    5    4    3
 RFO step:  Lambda=-4.64371829D-07.
 DidBck=F Rises=F RFO-DIIS coefs:    1.02336    0.18415   -0.29124    0.06671    0.00210
                  RFO-DIIS coefs:   -0.01792    0.07262   -0.02415   -0.01563
 Iteration  1 RMS(Cart)=  0.00141293 RMS(Int)=  0.00000228
 Iteration  2 RMS(Cart)=  0.00000133 RMS(Int)=  0.00000222
 Iteration  3 RMS(Cart)=  0.00000000 RMS(Int)=  0.00000222
 Variable       Old X    -DE/DX   Delta X   Delta X   Delta X     New X
                                 (Linear)    (Quad)   (Total)
    R1        2.31679   0.00001  -0.00016   0.00016   0.00000   2.31679
    R2        2.66518   0.00006   0.00026  -0.00008   0.00018   2.66537
    R3        2.66857  -0.00023  -0.00033  -0.00021  -0.00054   2.66802
    R4        2.55514  -0.00005  -0.00001  -0.00010  -0.00010   2.55504
    R5        2.07823   0.00001  -0.00010   0.00010  -0.00000   2.07823
    R6        2.42478   0.00003   0.00004   0.00004   0.00008   2.42485
    R7        2.85734   0.00001   0.00001   0.00006   0.00008   2.85742
    R8        2.10182  -0.00001  -0.00001  -0.00004  -0.00005   2.10177
    R9        2.88030  -0.00000  -0.00011   0.00010  -0.00001   2.88029
   R10        2.89665  -0.00000  -0.00015   0.00014  -0.00001   2.89664
   R11        2.10004   0.00000  -0.00003  -0.00001  -0.00004   2.10000
   R12        2.07913  -0.00000  -0.00001  -0.00002  -0.00003   2.07910
   R13        2.07372  -0.00000   0.00005  -0.00003   0.00001   2.07374
   R14        2.08382  -0.00000   0.00002  -0.00003  -0.00002   2.08380
   R15        2.08514   0.00000   0.00002  -0.00001   0.00000   2.08514
   R16        2.08186   0.00000   0.00000  -0.00000   0.00000   2.08186
   R17        2.08229  -0.00000   0.00005  -0.00006  -0.00001   2.08228
   R18        2.64390  -0.00001  -0.00007   0.00008   0.00001   2.64391
   R19        2.87887  -0.00000  -0.00003  -0.00002  -0.00005   2.87881
   R20        2.08178   0.00005   0.00010  -0.00000   0.00010   2.08188
   R21        2.08472  -0.00002  -0.00000  -0.00003  -0.00003   2.08469
   R22        2.08237   0.00001   0.00003  -0.00004  -0.00001   2.08236
   R23        2.07457  -0.00002  -0.00002  -0.00004  -0.00006   2.07452
   R24        2.07937  -0.00000   0.00001  -0.00001  -0.00000   2.07937
    A1        2.29097   0.00004  -0.00003  -0.00004  -0.00008   2.29089
    A2        2.06615  -0.00014  -0.00002  -0.00022  -0.00024   2.06591
    A3        1.92606   0.00010   0.00008   0.00025   0.00033   1.92639
    A4        2.10702  -0.00002  -0.00040   0.00024  -0.00016   2.10686
    A5        2.05941   0.00001   0.00027  -0.00013   0.00013   2.05954
    A6        2.11675   0.00000   0.00013  -0.00011   0.00003   2.11678
    A7        2.16630   0.00003  -0.00004   0.00018   0.00015   2.16644
    A8        2.13652  -0.00000  -0.00016   0.00010  -0.00005   2.13646
    A9        2.12177   0.00000   0.00001   0.00001   0.00003   2.12180
   A10        2.02487  -0.00000   0.00014  -0.00012   0.00002   2.02489
   A11        1.94272  -0.00001  -0.00002   0.00001  -0.00002   1.94270
   A12        1.93565  -0.00000   0.00006  -0.00005   0.00001   1.93566
   A13        1.90170   0.00001  -0.00018   0.00015  -0.00002   1.90168
   A14        1.93978   0.00001  -0.00007   0.00001  -0.00007   1.93972
   A15        1.88164   0.00000   0.00010  -0.00001   0.00009   1.88172
   A16        1.85923  -0.00000   0.00012  -0.00011   0.00002   1.85925
   A17        1.91628  -0.00000   0.00006  -0.00007  -0.00001   1.91627
   A18        1.92820   0.00001  -0.00000   0.00005   0.00005   1.92824
   A19        1.94137  -0.00000   0.00014  -0.00010   0.00004   1.94141
   A20        1.85370  -0.00000  -0.00008   0.00012   0.00003   1.85373
   A21        1.90510  -0.00000   0.00001  -0.00003  -0.00002   1.90508
   A22        1.91705  -0.00000  -0.00013   0.00004  -0.00009   1.91696
   A23        1.95213   0.00000   0.00015  -0.00008   0.00007   1.95220
   A24        1.93743   0.00002   0.00006   0.00007   0.00014   1.93757
   A25        1.91855  -0.00000   0.00004  -0.00010  -0.00006   1.91849
   A26        1.88454  -0.00001  -0.00001  -0.00001  -0.00002   1.88452
   A27        1.89195  -0.00000  -0.00008   0.00003  -0.00005   1.89189
   A28        1.87698  -0.00001  -0.00019   0.00010  -0.00009   1.87689
   A29        2.01431  -0.00018  -0.00011  -0.00022  -0.00033   2.01398
   A30        1.95649   0.00006   0.00012   0.00003   0.00015   1.95664
   A31        1.92532  -0.00002   0.00004  -0.00005  -0.00002   1.92530
   A32        1.85535  -0.00003  -0.00011  -0.00000  -0.00011   1.85525
   A33        1.90306   0.00000   0.00006   0.00004   0.00010   1.90316
   A34        1.92525  -0.00001   0.00011  -0.00010   0.00001   1.92525
   A35        1.89731  -0.00000  -0.00023   0.00009  -0.00014   1.89717
   A36        1.94225   0.00001   0.00038  -0.00027   0.00011   1.94236
   A37        1.89306  -0.00001  -0.00013   0.00008  -0.00005   1.89301
   A38        1.92467  -0.00002  -0.00006  -0.00008  -0.00014   1.92453
   A39        1.90382   0.00002  -0.00001   0.00019   0.00019   1.90401
   A40        1.89776  -0.00000  -0.00016   0.00007  -0.00009   1.89767
   A41        1.90182   0.00001  -0.00003   0.00001  -0.00003   1.90180
    D1        0.00515   0.00004   0.00147   0.00005   0.00152   0.00667
    D2       -3.13462   0.00003   0.00120  -0.00002   0.00118  -3.13344
    D3       -3.13699   0.00001   0.00082   0.00023   0.00105  -3.13594
    D4        0.00642   0.00000   0.00056   0.00016   0.00071   0.00713
    D5       -0.01133  -0.00002  -0.00001   0.00007   0.00006  -0.01127
    D6        3.13073  -0.00000   0.00055  -0.00009   0.00046   3.13120
    D7       -3.13538  -0.00000  -0.00008  -0.00006  -0.00014  -3.13552
    D8        0.00433   0.00000   0.00019   0.00002   0.00021   0.00454
    D9        3.13741  -0.00001  -0.00007   0.00018   0.00011   3.13752
   D10        0.00519  -0.00001  -0.00033   0.00024  -0.00010   0.00510
   D11        0.09146  -0.00000  -0.00195   0.00002  -0.00193   0.08954
   D12        2.26077  -0.00000  -0.00202   0.00000  -0.00202   2.25875
   D13       -1.98129  -0.00000  -0.00195  -0.00007  -0.00201  -1.98330
   D14       -3.05902  -0.00001  -0.00171  -0.00003  -0.00173  -3.06075
   D15       -0.88971  -0.00001  -0.00178  -0.00005  -0.00183  -0.89154
   D16        1.15142  -0.00001  -0.00170  -0.00012  -0.00182   1.14960
   D17        1.07490   0.00000   0.00008   0.00007   0.00015   1.07505
   D18       -0.96388  -0.00000   0.00014  -0.00005   0.00009  -0.96380
   D19       -3.09770  -0.00000   0.00022  -0.00007   0.00015  -3.09755
   D20       -1.09208   0.00000   0.00007   0.00013   0.00020  -1.09187
   D21       -3.13086   0.00000   0.00014   0.00000   0.00014  -3.13072
   D22        1.01851   0.00000   0.00022  -0.00002   0.00020   1.01871
   D23       -3.12355   0.00001  -0.00009   0.00026   0.00017  -3.12338
   D24        1.12085   0.00000  -0.00003   0.00013   0.00011   1.12096
   D25       -1.01297   0.00000   0.00005   0.00012   0.00017  -1.01280
   D26        3.05227   0.00001   0.00005   0.00001   0.00005   3.05232
   D27        0.94612   0.00000  -0.00009   0.00002  -0.00007   0.94605
   D28       -1.12833   0.00000   0.00007  -0.00008  -0.00001  -1.12834
   D29       -1.05995  -0.00000   0.00000  -0.00001  -0.00001  -1.05996
   D30        3.11709  -0.00000  -0.00014   0.00000  -0.00013   3.11696
   D31        1.04264  -0.00000   0.00003  -0.00010  -0.00007   1.04257
   D32        0.98524  -0.00000   0.00015  -0.00009   0.00007   0.98531
   D33       -1.12090  -0.00000   0.00001  -0.00007  -0.00006  -1.12096
   D34        3.08783  -0.00000   0.00018  -0.00018   0.00000   3.08784
   D35       -1.39339  -0.00003  -0.00066  -0.00013  -0.00078  -1.39418
   D36        0.73092  -0.00000  -0.00047  -0.00010  -0.00057   0.73035
   D37        2.78491  -0.00003  -0.00079  -0.00002  -0.00081   2.78411
   D38       -3.06980   0.00001   0.00021   0.00002   0.00023  -3.06957
   D39        1.11907  -0.00000   0.00006  -0.00011  -0.00004   1.11902
   D40       -0.96226   0.00001   0.00022  -0.00012   0.00010  -0.96216
   D41        1.07636   0.00000   0.00004   0.00005   0.00009   1.07645
   D42       -1.01795  -0.00002  -0.00010  -0.00008  -0.00019  -1.01814
   D43       -3.09928  -0.00001   0.00005  -0.00009  -0.00004  -3.09932
   D44       -1.00593   0.00001   0.00022  -0.00003   0.00020  -1.00574
   D45       -3.10025  -0.00001   0.00008  -0.00016  -0.00008  -3.10033
   D46        1.10161   0.00000   0.00023  -0.00017   0.00007   1.10168
         Item               Value     Threshold  Converged?
 Maximum Force            0.000227     0.000450     YES
 RMS     Force            0.000036     0.000300     YES
 Maximum Displacement     0.004708     0.001800     NO 
 RMS     Displacement     0.001413     0.001200     NO 
 Predicted change in Energy=-2.195926D-07
 GradGradGradGradGradGradGradGradGradGradGradGradGradGradGradGradGradGrad

                          Input orientation:                          
 ---------------------------------------------------------------------
 Center     Atomic      Atomic             Coordinates (Angstroms)
 Number     Number       Type             X           Y           Z
 ---------------------------------------------------------------------
      1          8           0        1.593125   -0.189246   -1.245005
      2          6           0        1.422176    0.284423   -0.127206
      3          6           0        0.243055    0.555611    0.597711
      4          7           0       -0.970857    0.279921    0.069980
      5          6           0       -2.083736    0.505252    0.667700
      6          6           0       -3.420953    0.185953    0.038191
      7          6           0       -3.248122   -0.531054   -1.295663
      8          6           0       -4.295120   -0.631446    0.995938
      9          8           0        2.558177    0.648142    0.628143
     10          6           0        3.790748    0.410496    0.010270
     11          6           0        4.213870   -1.049032    0.117501
     12          1           0        0.343110    0.997415    1.599835
     13          1           0       -2.118144    0.958113    1.682956
     14          1           0       -3.965322    1.135456   -0.154247
     15          1           0       -2.727447   -1.487640   -1.139738
     16          1           0       -2.612011    0.057859   -1.968548
     17          1           0       -4.222439   -0.723383   -1.774901
     18          1           0       -5.307391   -0.796056    0.588846
     19          1           0       -4.398076   -0.123269    1.967968
     20          1           0       -3.831235   -1.613443    1.182134
     21          1           0        3.746535    0.694729   -1.053198
     22          1           0        4.522748    1.059787    0.519768
     23          1           0        5.217930   -1.206826   -0.308219
     24          1           0        3.489535   -1.662394   -0.434101
     25          1           0        4.222813   -1.366897    1.170906
 ---------------------------------------------------------------------
                    Distance matrix (angstroms):
                    1          2          3          4          5
     1  O    0.000000
     2  C    1.225993   0.000000
     3  C    2.402728   1.410452   0.000000
     4  N    2.919470   2.401148   1.352068   0.000000
     5  C    4.202389   3.601675   2.328388   1.283177   0.000000
     6  C    5.189253   4.846953   3.724871   2.452104   1.512079
     7  C    4.853563   4.882825   4.117527   2.776436   2.506895
     8  C    6.315757   5.898113   4.707730   3.569133   2.507995
     9  O    2.267428   1.411858   2.317170   3.591826   4.644280
    10  C    2.600952   2.375906   3.598927   4.763770   5.911917
    11  C    3.076355   3.103472   4.309624   5.352548   6.509867
    12  H    3.326231   2.157641   1.099752   2.140506   2.645881
    13  H    4.864453   4.032916   2.629644   2.092344   1.112210
    14  H    5.817295   5.454367   4.314174   3.122345   2.147817
    15  H    4.512676   4.624370   4.002185   2.770071   2.766372
    16  H    4.274078   4.440330   3.871026   2.626460   2.725626
    17  H    5.864032   5.965924   5.215913   3.870786   3.471295
    18  H    7.165776   6.853265   5.712664   4.498052   3.477293
    19  H    6.798679   6.199298   4.886571   3.938369   2.727985
    20  H    6.110894   5.737124   4.652546   3.606033   2.794148
    21  H    2.335675   2.535440   3.875465   4.866969   6.081896
    22  H    3.641044   3.260876   4.309993   5.566884   6.631367
    23  H    3.879723   4.082197   5.355023   6.376091   7.562933
    24  H    2.534581   2.856265   4.064949   4.890989   6.080625
    25  H    3.760153   3.500788   4.456800   5.558620   6.597782
                    6          7          8          9         10
     6  C    0.000000
     7  C    1.524184   0.000000
     8  C    1.532836   2.521452   0.000000
     9  O    6.025916   6.229337   6.981425   0.000000
    10  C    7.215250   7.220643   8.212091   1.399098   0.000000
    11  C    7.734469   7.612271   8.564400   2.425382   1.523402
    12  H    4.155163   4.859741   4.952884   2.443910   3.841536
    13  H    2.235798   3.516624   2.781710   4.803820   6.165450
    14  H    1.111272   2.143470   2.133925   6.588296   7.791614
    15  H    2.160875   1.100215   2.784202   5.968650   6.885659
    16  H    2.167441   1.097375   3.477955   5.815675   6.710842
    17  H    2.180957   1.102702   2.773316   7.323418   8.287562
    18  H    2.196863   2.803959   1.103410   7.997150   9.196013
    19  H    2.185046   3.484246   1.101674   7.125984   8.436488
    20  H    2.171350   2.766056   1.101897   6.800460   7.972718
    21  H    7.267935   7.105391   8.403923   2.059435   1.101683
    22  H    8.006116   8.137137   8.991207   2.010159   1.103173
    23  H    8.757290   8.550190   9.619251   3.375199   2.180370
    24  H    7.168981   6.886091   7.981774   2.708203   2.141277
    25  H    7.881723   7.911857   8.551414   2.669455   2.166306
                   11         12         13         14         15
    11  C    0.000000
    12  H    4.622558   0.000000
    13  H    6.824492   2.462971   0.000000
    14  H    8.470243   4.653863   2.611289   0.000000
    15  H    7.067879   4.807191   3.784251   3.063358   0.000000
    16  H    7.222843   4.727458   3.793131   2.506861   1.757504
    17  H    8.652083   5.932472   4.383179   2.479498   1.795139
    18  H    9.536277   6.013884   3.800721   2.466592   3.181572
    19  H    8.857024   4.885724   2.539430   2.505088   3.782902
    20  H    8.134846   4.941277   3.130240   3.059467   2.573959
    21  H    2.151660   4.325911   6.476911   7.776573   6.832472
    22  H    2.168949   4.317384   6.742759   8.515125   7.861849
    23  H    1.101940   5.680072   7.903778   9.478507   7.993703
    24  H    1.097788   4.594722   6.541792   7.967507   6.259339
    25  H    1.100354   4.563557   6.773153   8.663911   7.325283
                   16         17         18         19         20
    16  H    0.000000
    17  H    1.800366   0.000000
    18  H    3.812415   2.601865   0.000000
    19  H    4.326545   3.794740   1.783669   0.000000
    20  H    3.769158   3.112764   1.788616   1.777487   0.000000
    21  H    6.455585   8.126281   9.321605   8.725323   8.230855
    22  H    7.622359   9.215394  10.004027   9.114713   8.796245
    23  H    8.103338   9.565847  10.571463   9.940960   9.180080
    24  H    6.522473   7.883782   8.898475   8.387684   7.497218
    25  H    7.655124   8.967395   9.565011   8.746522   8.057829
                   21         22         23         24         25
    21  H    0.000000
    22  H    1.791646   0.000000
    23  H    2.517122   2.511249   0.000000
    24  H    2.450583   3.063929   1.791853   0.000000
    25  H    3.069817   2.530362   1.789885   1.789151   0.000000
 Stoichiometry    C8H14NO2(1-)
 Framework group  C1[X(C8H14NO2)]
 Deg. of freedom    69
 Full point group                 C1      NOp   1
 Largest Abelian subgroup         C1      NOp   1
 Largest concise Abelian subgroup C1      NOp   1
                         Standard orientation:                         
 ---------------------------------------------------------------------
 Center     Atomic      Atomic             Coordinates (Angstroms)
 Number     Number       Type             X           Y           Z
 ---------------------------------------------------------------------
      1          8           0       -1.629860    1.240326   -0.296812
      2          6           0       -1.447226    0.028014   -0.295212
      3          6           0       -0.260234   -0.733781   -0.285586
      4          7           0        0.948662   -0.128509   -0.268179
      5          6           0        2.067958   -0.755972   -0.265052
      6          6           0        3.399061   -0.038799   -0.250532
      7          6           0        3.214901    1.468019   -0.113707
      8          6           0        4.304162   -0.587960    0.857981
      9          8           0       -2.575699   -0.820387   -0.305542
     10          6           0       -3.814797   -0.170692   -0.302557
     11          6           0       -4.210645    0.302564    1.090312
     12          1           0       -0.350032   -1.829828   -0.294106
     13          1           0        2.112625   -1.867162   -0.281634
     14          1           0        3.923416   -0.231384   -1.211203
     15          1           0        2.713702    1.697174    0.838533
     16          1           0        2.556809    1.847860   -0.905456
     17          1           0        4.183698    1.993554   -0.148276
     18          1           0        5.311709   -0.139288    0.825519
     19          1           0        4.415628   -1.680601    0.771967
     20          1           0        3.860716   -0.376051    1.844199
     21          1           0       -3.794469    0.694741   -0.983967
     22          1           0       -4.548713   -0.902000   -0.681431
     23          1           0       -5.219256    0.746383    1.090454
     24          1           0       -3.485762    1.058310    1.419754
     25          1           0       -4.195311   -0.540017    1.797845
 ---------------------------------------------------------------------
 Rotational constants (GHZ):           3.3332007           0.3700227           0.3553554
 Standard basis: def2SVP (5D, 7F)
 There are   235 symmetry adapted cartesian basis functions of A   symmetry.
 There are   224 symmetry adapted basis functions of A   symmetry.
   224 basis functions,   373 primitive gaussians,   235 cartesian basis functions
    43 alpha electrons       43 beta electrons
       nuclear repulsion energy       596.7421392554 Hartrees.
 NAtoms=   25 NActive=   25 NUniq=   25 SFac= 1.00D+00 NAtFMM=   60 NAOKFM=F Big=F
 Integral buffers will be    131072 words long.
 Raffenetti 2 integral format.
 Two-electron integral symmetry is turned on.
 Nuclear repulsion after empirical dispersion term =      596.7413405701 Hartrees.
 One-electron integrals computed using PRISM.
   1 Symmetry operations used in ECPInt.
 ECPInt:  NShTT=    5886 NPrTT=   20688 LenC2=    5347 LenP2D=   14006.
 LDataN:  DoStor=T MaxTD1= 4 Len=   56
 NBasis=   224 RedAO= T EigKep=  1.18D-03  NBF=   224
 NBsUse=   224 1.00D-06 EigRej= -1.00D+00 NBFU=   224
 Initial guess from the checkpoint file:  "A18_crest_conformers_censo-13.chk"
 B after Tr=    -0.000000   -0.000000   -0.000000
         Rot=    1.000000    0.000247    0.000016   -0.000001 Ang=   0.03 deg.
 Requested convergence on RMS density matrix=1.00D-08 within 128 cycles.
 Requested convergence on MAX density matrix=1.00D-06.
 Requested convergence on             energy=1.00D-06.
 No special actions if energy rises.
 SCF Done:  E(RM062X) =  -517.870610773     A.U. after    8 cycles
            NFock=  8  Conv=0.62D-08     -V/T= 2.0100
   1 Symmetry operations used in ECPInt.
 ECPInt:  NShTT=    5886 NPrTT=   20688 LenC2=    5347 LenP2D=   14006.
 LDataN:  DoStor=T MaxTD1= 5 Len=  102
 Calling FoFJK, ICntrl=      2127 FMM=F ISym2X=0 I1Cent= 0 IOpClX= 0 NMat=1 NMatS=1 NMatT=0.
 ***** Axes restored to original set *****
 -------------------------------------------------------------------
 Center     Atomic                   Forces (Hartrees/Bohr)
 Number     Number              X              Y              Z
 -------------------------------------------------------------------
      1        8           0.000002827   -0.000019597   -0.000047166
      2        6           0.000033096    0.000053659    0.000081181
      3        6          -0.000024294   -0.000012246   -0.000039876
      4        7           0.000002200   -0.000001890    0.000027610
      5        6           0.000006834   -0.000014907   -0.000018376
      6        6           0.000013396    0.000011411   -0.000003733
      7        6           0.000010833    0.000014775   -0.000003865
      8        6           0.000002320   -0.000009291    0.000012184
      9        8          -0.000045574   -0.000020765   -0.000012105
     10        6           0.000018850   -0.000001895   -0.000019897
     11        6           0.000002669   -0.000013312   -0.000004097
     12        1           0.000005361    0.000006359    0.000008869
     13        1          -0.000003309    0.000000973    0.000002400
     14        1          -0.000011216    0.000001619   -0.000000125
     15        1           0.000002700   -0.000000096   -0.000000942
     16        1           0.000001877   -0.000006419    0.000004102
     17        1          -0.000008211   -0.000000498    0.000006786
     18        1          -0.000005169    0.000003889   -0.000001561
     19        1          -0.000001408    0.000003943    0.000001712
     20        1           0.000000865   -0.000000333   -0.000001237
     21        1          -0.000005618   -0.000003858    0.000000984
     22        1          -0.000001388   -0.000000586    0.000002240
     23        1           0.000005762    0.000005626   -0.000001192
     24        1          -0.000002733    0.000002071    0.000001336
     25        1          -0.000000670    0.000001368    0.000004766
 -------------------------------------------------------------------
 Cartesian Forces:  Max     0.000081181 RMS     0.000017173

 GradGradGradGradGradGradGradGradGradGradGradGradGradGradGradGradGradGrad
 Berny optimization.
 Using GEDIIS/GDIIS optimizer.
 FormGI is forming the generalized inverse of G from B-inverse, IUseBI=4.
 Internal  Forces:  Max     0.000050585 RMS     0.000008324
 Search for a local minimum.
 Step number  12 out of a maximum of  121
 All quantities printed in internal units (Hartrees-Bohrs-Radians)
 Mixed Optimization -- En-DIIS/RFO-DIIS
 Swapping is turned off.
 Update second derivatives using D2CorX and points    6    7    8    9   10
                                                     11   12
 DE= -2.96D-07 DEPred=-2.20D-07 R= 1.35D+00
 Trust test= 1.35D+00 RLast= 5.49D-03 DXMaxT set to 1.05D+00
 ITU=  0  0  1  1  1  1  1  1  0  1  1  0
     Eigenvalues ---    0.00124   0.00296   0.00370   0.00414   0.00735
     Eigenvalues ---    0.01424   0.01927   0.02164   0.02355   0.02511
     Eigenvalues ---    0.03485   0.04129   0.04898   0.05380   0.05463
     Eigenvalues ---    0.05503   0.05559   0.05598   0.05740   0.05767
     Eigenvalues ---    0.05831   0.06036   0.08020   0.11626   0.13979
     Eigenvalues ---    0.15432   0.15758   0.15882   0.15975   0.16000
     Eigenvalues ---    0.16002   0.16015   0.16018   0.16067   0.16119
     Eigenvalues ---    0.16478   0.17162   0.18328   0.20933   0.22618
     Eigenvalues ---    0.22826   0.24578   0.25219   0.26289   0.28889
     Eigenvalues ---    0.29345   0.29903   0.31328   0.32885   0.33330
     Eigenvalues ---    0.33503   0.33788   0.33879   0.34303   0.34390
     Eigenvalues ---    0.34644   0.34803   0.34932   0.34972   0.35094
     Eigenvalues ---    0.35152   0.35485   0.35554   0.42727   0.46557
     Eigenvalues ---    0.56059   0.57049   0.74195   0.90585
 En-DIIS/RFO-DIIS/Sim-DIIS IScMMF=       -3 using points:    12   11   10    9    8    7    6    5    4    3
 RFO step:  Lambda=-4.22423174D-08.
 DIIS inversion failure, remove point  10.
 DIIS inversion failure, remove point   9.
 DIIS inversion failure, remove point   8.
 RFO-DIIS uses    7 points instead of   10
 DidBck=F Rises=F RFO-DIIS coefs:    1.45033   -0.51681    0.04602    0.05310   -0.01944
                  RFO-DIIS coefs:   -0.01553    0.00234    0.00000    0.00000    0.00000
 Iteration  1 RMS(Cart)=  0.00065876 RMS(Int)=  0.00000017
 Iteration  2 RMS(Cart)=  0.00000020 RMS(Int)=  0.00000010
 Variable       Old X    -DE/DX   Delta X   Delta X   Delta X     New X
                                 (Linear)    (Quad)   (Total)
    R1        2.31679   0.00005  -0.00002   0.00008   0.00006   2.31685
    R2        2.66537  -0.00000   0.00006  -0.00006  -0.00000   2.66537
    R3        2.66802  -0.00004  -0.00015   0.00002  -0.00013   2.66790
    R4        2.55504  -0.00002   0.00001  -0.00006  -0.00005   2.55499
    R5        2.07823   0.00001   0.00002   0.00001   0.00003   2.07826
    R6        2.42485  -0.00001   0.00002  -0.00003  -0.00002   2.42484
    R7        2.85742  -0.00001   0.00006  -0.00009  -0.00003   2.85739
    R8        2.10177   0.00000  -0.00000   0.00000  -0.00000   2.10177
    R9        2.88029  -0.00001   0.00003  -0.00004  -0.00001   2.88028
   R10        2.89664   0.00001   0.00003   0.00001   0.00004   2.89668
   R11        2.10000   0.00001   0.00000   0.00000   0.00001   2.10001
   R12        2.07910   0.00000   0.00004  -0.00005  -0.00001   2.07909
   R13        2.07374  -0.00000   0.00003  -0.00005  -0.00002   2.07372
   R14        2.08380   0.00000   0.00003  -0.00002   0.00001   2.08381
   R15        2.08514   0.00001   0.00004  -0.00003   0.00001   2.08515
   R16        2.08186   0.00000   0.00004  -0.00004  -0.00000   2.08186
   R17        2.08228   0.00000   0.00003  -0.00004  -0.00001   2.08228
   R18        2.64391   0.00002  -0.00001   0.00005   0.00004   2.64395
   R19        2.87881   0.00000  -0.00001   0.00001   0.00000   2.87881
   R20        2.08188  -0.00000   0.00003  -0.00004  -0.00001   2.08186
   R21        2.08469   0.00000   0.00001  -0.00000   0.00000   2.08470
   R22        2.08236   0.00000   0.00005  -0.00005  -0.00000   2.08236
   R23        2.07452  -0.00000   0.00003  -0.00003  -0.00000   2.07452
   R24        2.07937   0.00000   0.00003  -0.00002   0.00001   2.07937
    A1        2.29089  -0.00001   0.00008  -0.00015  -0.00007   2.29082
    A2        2.06591  -0.00000  -0.00017   0.00018   0.00001   2.06591
    A3        1.92639   0.00001   0.00010  -0.00003   0.00006   1.92645
    A4        2.10686   0.00001  -0.00002   0.00007   0.00005   2.10691
    A5        2.05954  -0.00001   0.00001  -0.00006  -0.00005   2.05949
    A6        2.11678  -0.00000   0.00001  -0.00001   0.00000   2.11679
    A7        2.16644   0.00001   0.00007  -0.00003   0.00004   2.16648
    A8        2.13646   0.00000  -0.00000   0.00000   0.00000   2.13646
    A9        2.12180   0.00000  -0.00004   0.00006   0.00003   2.12182
   A10        2.02489  -0.00001   0.00004  -0.00006  -0.00003   2.02487
   A11        1.94270  -0.00001  -0.00001  -0.00002  -0.00003   1.94267
   A12        1.93566  -0.00000  -0.00000  -0.00001  -0.00002   1.93565
   A13        1.90168   0.00001   0.00000   0.00006   0.00006   1.90174
   A14        1.93972   0.00001   0.00000  -0.00001  -0.00001   1.93971
   A15        1.88172  -0.00000   0.00002   0.00001   0.00003   1.88175
   A16        1.85925  -0.00000  -0.00001  -0.00002  -0.00003   1.85922
   A17        1.91627   0.00000  -0.00003   0.00002  -0.00001   1.91627
   A18        1.92824   0.00001   0.00003   0.00001   0.00005   1.92829
   A19        1.94141  -0.00001  -0.00002  -0.00005  -0.00006   1.94135
   A20        1.85373  -0.00000   0.00003  -0.00005  -0.00002   1.85371
   A21        1.90508   0.00000  -0.00001   0.00002   0.00001   1.90509
   A22        1.91696   0.00001  -0.00001   0.00005   0.00004   1.91700
   A23        1.95220  -0.00000   0.00002  -0.00004  -0.00002   1.95218
   A24        1.93757  -0.00000   0.00005  -0.00005  -0.00001   1.93757
   A25        1.91849  -0.00000  -0.00006   0.00005  -0.00001   1.91848
   A26        1.88452   0.00000  -0.00000  -0.00001  -0.00002   1.88451
   A27        1.89189   0.00000   0.00000   0.00002   0.00002   1.89192
   A28        1.87689   0.00000  -0.00001   0.00003   0.00003   1.87692
   A29        2.01398   0.00000  -0.00022   0.00022   0.00000   2.01398
   A30        1.95664   0.00001   0.00002  -0.00004  -0.00002   1.95662
   A31        1.92530  -0.00001   0.00002  -0.00007  -0.00005   1.92525
   A32        1.85525  -0.00000  -0.00002   0.00002   0.00000   1.85525
   A33        1.90316   0.00000  -0.00001   0.00004   0.00003   1.90319
   A34        1.92525  -0.00001   0.00000  -0.00000  -0.00000   1.92525
   A35        1.89717   0.00000  -0.00002   0.00006   0.00004   1.89721
   A36        1.94236  -0.00001   0.00007  -0.00012  -0.00005   1.94231
   A37        1.89301  -0.00000  -0.00006   0.00006   0.00001   1.89302
   A38        1.92453  -0.00000  -0.00004   0.00000  -0.00003   1.92450
   A39        1.90401   0.00001   0.00003   0.00004   0.00007   1.90407
   A40        1.89767   0.00000   0.00000   0.00001   0.00001   1.89768
   A41        1.90180   0.00000  -0.00001   0.00001   0.00001   1.90180
    D1        0.00667   0.00000   0.00026  -0.00002   0.00024   0.00691
    D2       -3.13344  -0.00000   0.00019  -0.00003   0.00016  -3.13328
    D3       -3.13594   0.00001   0.00029  -0.00002   0.00027  -3.13567
    D4        0.00713   0.00000   0.00023  -0.00003   0.00019   0.00733
    D5       -0.01127  -0.00000   0.00026   0.00006   0.00032  -0.01094
    D6        3.13120  -0.00000   0.00023   0.00007   0.00030   3.13149
    D7       -3.13552  -0.00000   0.00002  -0.00009  -0.00007  -3.13559
    D8        0.00454   0.00000   0.00009  -0.00008   0.00001   0.00455
    D9        3.13752  -0.00001   0.00006  -0.00019  -0.00013   3.13739
   D10        0.00510  -0.00001  -0.00003  -0.00013  -0.00016   0.00493
   D11        0.08954  -0.00000  -0.00086   0.00004  -0.00081   0.08872
   D12        2.25875   0.00000  -0.00086   0.00001  -0.00086   2.25789
   D13       -1.98330  -0.00000  -0.00087   0.00001  -0.00087  -1.98417
   D14       -3.06075  -0.00000  -0.00077  -0.00001  -0.00078  -3.06153
   D15       -0.89154  -0.00000  -0.00078  -0.00005  -0.00083  -0.89236
   D16        1.14960  -0.00000  -0.00079  -0.00005  -0.00084   1.14876
   D17        1.07505  -0.00000  -0.00008  -0.00008  -0.00015   1.07490
   D18       -0.96380  -0.00000  -0.00012  -0.00003  -0.00015  -0.96394
   D19       -3.09755  -0.00000  -0.00012  -0.00007  -0.00019  -3.09774
   D20       -1.09187   0.00000  -0.00007  -0.00004  -0.00010  -1.09198
   D21       -3.13072   0.00000  -0.00011   0.00001  -0.00010  -3.13082
   D22        1.01871  -0.00000  -0.00011  -0.00003  -0.00014   1.01857
   D23       -3.12338   0.00000  -0.00007  -0.00001  -0.00008  -3.12346
   D24        1.12096   0.00000  -0.00011   0.00004  -0.00007   1.12088
   D25       -1.01280  -0.00000  -0.00011  -0.00000  -0.00011  -1.01292
   D26        3.05232   0.00000  -0.00004  -0.00007  -0.00011   3.05221
   D27        0.94605   0.00000  -0.00008   0.00001  -0.00007   0.94598
   D28       -1.12834   0.00000  -0.00006  -0.00003  -0.00010  -1.12843
   D29       -1.05996  -0.00000  -0.00006  -0.00011  -0.00016  -1.06012
   D30        3.11696  -0.00000  -0.00010  -0.00003  -0.00013   3.11683
   D31        1.04257  -0.00000  -0.00008  -0.00007  -0.00015   1.04242
   D32        0.98531  -0.00000  -0.00004  -0.00012  -0.00015   0.98516
   D33       -1.12096  -0.00000  -0.00008  -0.00004  -0.00012  -1.12108
   D34        3.08784  -0.00000  -0.00006  -0.00008  -0.00014   3.08769
   D35       -1.39418  -0.00001  -0.00046  -0.00011  -0.00057  -1.39475
   D36        0.73035  -0.00001  -0.00045  -0.00013  -0.00058   0.72977
   D37        2.78411  -0.00001  -0.00047  -0.00009  -0.00056   2.78355
   D38       -3.06957   0.00000  -0.00002   0.00007   0.00005  -3.06953
   D39        1.11902   0.00000  -0.00007   0.00006  -0.00001   1.11902
   D40       -0.96216   0.00000   0.00000   0.00000   0.00000  -0.96215
   D41        1.07645   0.00000  -0.00005   0.00016   0.00011   1.07656
   D42       -1.01814  -0.00000  -0.00010   0.00015   0.00006  -1.01808
   D43       -3.09932  -0.00000  -0.00003   0.00009   0.00007  -3.09925
   D44       -1.00574   0.00000  -0.00003   0.00006   0.00004  -1.00570
   D45       -3.10033  -0.00000  -0.00007   0.00006  -0.00002  -3.10034
   D46        1.10168  -0.00000  -0.00000  -0.00000  -0.00001   1.10167
         Item               Value     Threshold  Converged?
 Maximum Force            0.000051     0.000450     YES
 RMS     Force            0.000008     0.000300     YES
 Maximum Displacement     0.002099     0.001800     NO 
 RMS     Displacement     0.000659     0.001200     YES
 Predicted change in Energy=-2.093169D-08
 GradGradGradGradGradGradGradGradGradGradGradGradGradGradGradGradGradGrad

                          Input orientation:                          
 ---------------------------------------------------------------------
 Center     Atomic      Atomic             Coordinates (Angstroms)
 Number     Number       Type             X           Y           Z
 ---------------------------------------------------------------------
      1          8           0        1.592900   -0.189848   -1.244901
      2          6           0        1.422058    0.284235   -0.127226
      3          6           0        0.242950    0.555832    0.597557
      4          7           0       -0.970976    0.279910    0.070046
      5          6           0       -2.083832    0.505513    0.667690
      6          6           0       -3.421058    0.186063    0.038312
      7          6           0       -3.248216   -0.530408   -1.295821
      8          6           0       -4.294789   -0.631995    0.995924
      9          8           0        2.558084    0.647958    0.627959
     10          6           0        3.790610    0.410234    0.009980
     11          6           0        4.214057   -1.049144    0.117978
     12          1           0        0.343082    0.998105    1.599485
     13          1           0       -2.118236    0.958710    1.682795
     14          1           0       -3.965809    1.135445   -0.153661
     15          1           0       -2.727092   -1.486815   -1.140332
     16          1           0       -2.612516    0.058970   -1.968673
     17          1           0       -4.222594   -0.722997   -1.774837
     18          1           0       -5.307126   -0.796656    0.589000
     19          1           0       -4.397644   -0.124263    1.968197
     20          1           0       -3.830607   -1.613953    1.181555
     21          1           0        3.746070    0.693853   -1.053630
     22          1           0        4.522565    1.059971    0.518978
     23          1           0        5.218095   -1.206906   -0.307805
     24          1           0        3.489749   -1.662981   -0.433127
     25          1           0        4.223246   -1.366364    1.171578
 ---------------------------------------------------------------------
                    Distance matrix (angstroms):
                    1          2          3          4          5
     1  O    0.000000
     2  C    1.226025   0.000000
     3  C    2.402718   1.410451   0.000000
     4  N    2.919456   2.401155   1.352042   0.000000
     5  C    4.202367   3.601683   2.328382   1.283169   0.000000
     6  C    5.189192   4.846938   3.724840   2.452083   1.512064
     7  C    4.853347   4.882695   4.117406   2.776333   2.506849
     8  C    6.315194   5.897735   4.707516   3.568831   2.507986
     9  O    2.267400   1.411791   2.317166   3.591795   4.644271
    10  C    2.600913   2.375866   3.598935   4.763748   5.911914
    11  C    3.076734   3.103753   4.309946   5.352874   6.510188
    12  H    3.326230   2.157622   1.099769   2.140499   2.645902
    13  H    4.864475   4.032961   2.629687   2.092351   1.112209
    14  H    5.817770   5.454756   4.314386   3.122660   2.147852
    15  H    4.511695   4.623683   4.001726   2.769526   2.766242
    16  H    4.274492   4.440659   3.871188   2.626755   2.725677
    17  H    5.863877   5.965838   5.215816   3.870714   3.471235
    18  H    7.165317   6.852972   5.712499   4.497833   3.477278
    19  H    6.798156   6.198919   4.886338   3.938068   2.727941
    20  H    6.109844   5.736420   4.652192   3.605504   2.794176
    21  H    2.335306   2.535162   3.875219   4.866675   6.081626
    22  H    3.640913   3.260750   4.309923   5.566779   6.631291
    23  H    3.880024   4.082402   5.355277   6.376362   7.563207
    24  H    2.535179   2.856672   4.065360   4.891429   6.081034
    25  H    3.760622   3.501146   4.457252   5.559095   6.598262
                    6          7          8          9         10
     6  C    0.000000
     7  C    1.524176   0.000000
     8  C    1.532856   2.521454   0.000000
     9  O    6.025875   6.229172   6.981085   0.000000
    10  C    7.215206   7.220456   8.211699   1.399118   0.000000
    11  C    7.734796   7.612715   8.564186   2.425383   1.523403
    12  H    4.155168   4.859688   4.952914   2.443911   3.841558
    13  H    2.235767   3.516600   2.781999   4.803875   6.165517
    14  H    1.111275   2.143486   2.133921   6.588608   7.791966
    15  H    2.160858   1.100210   2.784238   5.968014   6.884944
    16  H    2.167460   1.097365   3.477976   5.815884   6.711071
    17  H    2.180907   1.102705   2.773195   7.323287   8.287413
    18  H    2.196873   2.804024   1.103416   7.996872   9.195686
    19  H    2.185059   3.484243   1.101674   7.125638   8.436101
    20  H    2.171358   2.765980   1.101893   6.799859   7.972005
    21  H    7.267593   7.104753   8.403212   2.059408   1.101675
    22  H    8.005991   8.136819   8.990882   2.010178   1.103175
    23  H    8.757575   8.550569   9.619002   3.375179   2.180331
    24  H    7.169412   6.886736   7.981489   2.708199   2.141281
    25  H    7.882239   7.912624   8.551437   2.669416   2.166284
                   11         12         13         14         15
    11  C    0.000000
    12  H    4.622828   0.000000
    13  H    6.824813   2.463043   0.000000
    14  H    8.470916   4.653915   2.611002   0.000000
    15  H    7.067847   4.807015   3.784355   3.063361   0.000000
    16  H    7.223858   4.727503   3.793029   2.506884   1.757477
    17  H    8.652526   5.932422   4.383113   2.479507   1.795143
    18  H    9.536171   6.013909   3.800884   2.466514   3.181742
    19  H    8.856643   4.885708   2.539682   2.505121   3.782888
    20  H    8.134300   4.941375   3.130823   3.059456   2.573921
    21  H    2.151677   4.325728   6.476748   7.776762   6.831154
    22  H    2.168950   4.317337   6.742771   8.515317   7.861104
    23  H    1.101940   5.680280   7.904058   9.479159   7.993588
    24  H    1.097786   4.595042   6.542163   7.968352   6.259416
    25  H    1.100358   4.563934   6.773604   8.664636   7.325752
                   16         17         18         19         20
    16  H    0.000000
    17  H    1.800388   0.000000
    18  H    3.812442   2.601799   0.000000
    19  H    4.326570   3.794658   1.783664   0.000000
    20  H    3.769132   3.112509   1.788633   1.777502   0.000000
    21  H    6.455385   8.125713   9.320956   8.724726   8.229706
    22  H    7.622322   9.215116  10.003739   9.114427   8.795701
    23  H    8.104282   9.566240  10.571322   9.940560   9.179482
    24  H    6.523853   7.884414   8.898330   8.387192   7.496480
    25  H    7.656395   8.968137   9.565143   8.746265   8.057664
                   21         22         23         24         25
    21  H    0.000000
    22  H    1.791670   0.000000
    23  H    2.517140   2.511187   0.000000
    24  H    2.450589   3.063932   1.791895   0.000000
    25  H    3.069811   2.530332   1.789896   1.789156   0.000000
 Stoichiometry    C8H14NO2(1-)
 Framework group  C1[X(C8H14NO2)]
 Deg. of freedom    69
 Full point group                 C1      NOp   1
 Largest Abelian subgroup         C1      NOp   1
 Largest concise Abelian subgroup C1      NOp   1
                         Standard orientation:                         
 ---------------------------------------------------------------------
 Center     Atomic      Atomic             Coordinates (Angstroms)
 Number     Number       Type             X           Y           Z
 ---------------------------------------------------------------------
      1          8           0       -1.629654    1.240489   -0.296150
      2          6           0       -1.447134    0.028126   -0.295167
      3          6           0       -0.260164   -0.733707   -0.286036
      4          7           0        0.948753   -0.128546   -0.268170
      5          6           0        2.068020   -0.756046   -0.265370
      6          6           0        3.399134   -0.038933   -0.250476
      7          6           0        3.214939    1.467906   -0.114015
      8          6           0        4.303756   -0.587896    0.858554
      9          8           0       -2.575633   -0.820126   -0.305760
     10          6           0       -3.814687   -0.170305   -0.302702
     11          6           0       -4.210919    0.301955    1.090398
     12          1           0       -0.350047   -1.829758   -0.295247
     13          1           0        2.112677   -1.867226   -0.282501
     14          1           0        3.923930   -0.231735   -1.210867
     15          1           0        2.713235    1.697230    0.837911
     16          1           0        2.557290    1.847668   -0.906157
     17          1           0        4.183808    1.993348   -0.148125
     18          1           0        5.311374   -0.139349    0.826327
     19          1           0        4.415139   -1.680570    0.772872
     20          1           0        3.859952   -0.375647    1.844533
     21          1           0       -3.793993    0.695616   -0.983467
     22          1           0       -4.548555   -0.901268   -0.682340
     23          1           0       -5.219511    0.745817    1.090508
     24          1           0       -3.486065    1.057379    1.420633
     25          1           0       -4.195873   -0.541179    1.797283
 ---------------------------------------------------------------------
 Rotational constants (GHZ):           3.3330379           0.3700259           0.3553674
 Standard basis: def2SVP (5D, 7F)
 There are   235 symmetry adapted cartesian basis functions of A   symmetry.
 There are   224 symmetry adapted basis functions of A   symmetry.
   224 basis functions,   373 primitive gaussians,   235 cartesian basis functions
    43 alpha electrons       43 beta electrons
       nuclear repulsion energy       596.7438611113 Hartrees.
 NAtoms=   25 NActive=   25 NUniq=   25 SFac= 1.00D+00 NAtFMM=   60 NAOKFM=F Big=F
 Integral buffers will be    131072 words long.
 Raffenetti 2 integral format.
 Two-electron integral symmetry is turned on.
 Nuclear repulsion after empirical dispersion term =      596.7430624097 Hartrees.
 One-electron integrals computed using PRISM.
   1 Symmetry operations used in ECPInt.
 ECPInt:  NShTT=    5886 NPrTT=   20688 LenC2=    5347 LenP2D=   14006.
 LDataN:  DoStor=T MaxTD1= 4 Len=   56
 NBasis=   224 RedAO= T EigKep=  1.18D-03  NBF=   224
 NBsUse=   224 1.00D-06 EigRej= -1.00D+00 NBFU=   224
 Initial guess from the checkpoint file:  "A18_crest_conformers_censo-13.chk"
 B after Tr=     0.000000    0.000000    0.000000
         Rot=    1.000000   -0.000097    0.000014    0.000004 Ang=  -0.01 deg.
 Requested convergence on RMS density matrix=1.00D-08 within 128 cycles.
 Requested convergence on MAX density matrix=1.00D-06.
 Requested convergence on             energy=1.00D-06.
 No special actions if energy rises.
 SCF Done:  E(RM062X) =  -517.870610795     A.U. after    7 cycles
            NFock=  7  Conv=0.89D-08     -V/T= 2.0100
   1 Symmetry operations used in ECPInt.
 ECPInt:  NShTT=    5886 NPrTT=   20688 LenC2=    5347 LenP2D=   14006.
 LDataN:  DoStor=T MaxTD1= 5 Len=  102
 Calling FoFJK, ICntrl=      2127 FMM=F ISym2X=0 I1Cent= 0 IOpClX= 0 NMat=1 NMatS=1 NMatT=0.
 ***** Axes restored to original set *****
 -------------------------------------------------------------------
 Center     Atomic                   Forces (Hartrees/Bohr)
 Number     Number              X              Y              Z
 -------------------------------------------------------------------
      1        8           0.000000930   -0.000009631   -0.000013231
      2        6           0.000014037    0.000021971    0.000025105
      3        6          -0.000004163   -0.000008054   -0.000008642
      4        7          -0.000003106    0.000006332    0.000005323
      5        6          -0.000001826   -0.000003481   -0.000009950
      6        6           0.000010820    0.000000214    0.000002768
      7        6          -0.000004138    0.000003289    0.000000900
      8        6          -0.000002856   -0.000003680    0.000003364
      9        8          -0.000020193   -0.000008677   -0.000004244
     10        6           0.000011087    0.000002922   -0.000011916
     11        6           0.000000152   -0.000000603    0.000001997
     12        1           0.000002409   -0.000000461    0.000003682
     13        1           0.000000256    0.000002818    0.000003437
     14        1          -0.000001874    0.000002084    0.000001382
     15        1           0.000003137   -0.000000770   -0.000000740
     16        1           0.000002636   -0.000000697   -0.000000591
     17        1          -0.000003378   -0.000000139    0.000001481
     18        1          -0.000003447    0.000001180   -0.000000170
     19        1           0.000000191    0.000003206    0.000001980
     20        1           0.000000791   -0.000001001    0.000000213
     21        1          -0.000000845   -0.000003709    0.000001136
     22        1          -0.000001076   -0.000001769    0.000001053
     23        1           0.000003054   -0.000000845   -0.000002779
     24        1          -0.000002585    0.000000298   -0.000002956
     25        1          -0.000000014   -0.000000795    0.000001398
 -------------------------------------------------------------------
 Cartesian Forces:  Max     0.000025105 RMS     0.000006389

 GradGradGradGradGradGradGradGradGradGradGradGradGradGradGradGradGradGrad
 Berny optimization.
 Using GEDIIS/GDIIS optimizer.
 FormGI is forming the generalized inverse of G from B-inverse, IUseBI=4.
 Internal  Forces:  Max     0.000015538 RMS     0.000003071
 Search for a local minimum.
 Step number  13 out of a maximum of  121
 All quantities printed in internal units (Hartrees-Bohrs-Radians)
 Mixed Optimization -- En-DIIS/RFO-DIIS
 Swapping is turned off.
 Update second derivatives using D2CorX and points    6    7    8    9   10
                                                     11   12   13
 DE= -2.22D-08 DEPred=-2.09D-08 R= 1.06D+00
 Trust test= 1.06D+00 RLast= 2.44D-03 DXMaxT set to 1.05D+00
 ITU=  0  0  0  1  1  1  1  1  1  0  1  1  0
     Eigenvalues ---    0.00129   0.00296   0.00369   0.00433   0.00677
     Eigenvalues ---    0.01425   0.01890   0.02161   0.02355   0.02514
     Eigenvalues ---    0.03646   0.04271   0.04829   0.05334   0.05446
     Eigenvalues ---    0.05480   0.05511   0.05579   0.05746   0.05773
     Eigenvalues ---    0.05828   0.06111   0.08017   0.11651   0.13977
     Eigenvalues ---    0.15311   0.15521   0.15887   0.15904   0.15979
     Eigenvalues ---    0.16001   0.16013   0.16017   0.16068   0.16121
     Eigenvalues ---    0.16335   0.17043   0.18412   0.20543   0.21146
     Eigenvalues ---    0.22820   0.24645   0.25193   0.26254   0.28790
     Eigenvalues ---    0.29225   0.29921   0.30676   0.32953   0.33301
     Eigenvalues ---    0.33477   0.33580   0.33910   0.34066   0.34363
     Eigenvalues ---    0.34643   0.34805   0.34926   0.34971   0.35077
     Eigenvalues ---    0.35152   0.35533   0.35592   0.41703   0.46437
     Eigenvalues ---    0.56243   0.56842   0.73989   0.88038
 En-DIIS/RFO-DIIS/Sim-DIIS IScMMF=       -3 using points:    13   12   11   10    9    8    7    6    5    4
 RFO step:  Lambda=-3.83490753D-09.
 DIIS inversion failure, remove point  10.
 DIIS inversion failure, remove point   9.
 DIIS inversion failure, remove point   8.
 DIIS inversion failure, remove point   7.
 DIIS inversion failure, remove point   6.
 DIIS inversion failure, remove point   5.
 DIIS inversion failure, remove point   4.
 RFO-DIIS uses    3 points instead of   10
 DidBck=F Rises=F RFO-DIIS coefs:    1.01211   -0.02599    0.01388    0.00000    0.00000
                  RFO-DIIS coefs:    0.00000    0.00000    0.00000    0.00000    0.00000
 Iteration  1 RMS(Cart)=  0.00015275 RMS(Int)=  0.00000001
 Iteration  2 RMS(Cart)=  0.00000001 RMS(Int)=  0.00000000
 Variable       Old X    -DE/DX   Delta X   Delta X   Delta X     New X
                                 (Linear)    (Quad)   (Total)
    R1        2.31685   0.00002   0.00000   0.00002   0.00002   2.31688
    R2        2.66537   0.00000  -0.00000   0.00001   0.00001   2.66538
    R3        2.66790  -0.00002   0.00001  -0.00008  -0.00008   2.66782
    R4        2.55499   0.00000   0.00000  -0.00001  -0.00001   2.55498
    R5        2.07826   0.00000   0.00000   0.00001   0.00001   2.07828
    R6        2.42484  -0.00000  -0.00000  -0.00000  -0.00000   2.42483
    R7        2.85739  -0.00000  -0.00000  -0.00002  -0.00002   2.85737
    R8        2.10177   0.00000   0.00000   0.00001   0.00001   2.10178
    R9        2.88028   0.00000  -0.00000  -0.00000  -0.00000   2.88028
   R10        2.89668   0.00001   0.00000   0.00002   0.00002   2.89670
   R11        2.10001   0.00000   0.00000   0.00001   0.00001   2.10002
   R12        2.07909   0.00000   0.00000   0.00001   0.00001   2.07910
   R13        2.07372   0.00000  -0.00000   0.00000   0.00000   2.07372
   R14        2.08381   0.00000   0.00000   0.00001   0.00001   2.08382
   R15        2.08515   0.00000   0.00000   0.00001   0.00001   2.08517
   R16        2.08186   0.00000  -0.00000   0.00001   0.00001   2.08187
   R17        2.08228   0.00000   0.00000   0.00001   0.00001   2.08228
   R18        2.64395   0.00001   0.00000   0.00003   0.00003   2.64398
   R19        2.87881  -0.00000   0.00000  -0.00000  -0.00000   2.87881
   R20        2.08186  -0.00000  -0.00000  -0.00001  -0.00001   2.08186
   R21        2.08470  -0.00000   0.00000  -0.00000  -0.00000   2.08470
   R22        2.08236   0.00000   0.00000   0.00001   0.00001   2.08238
   R23        2.07452   0.00000   0.00000   0.00000   0.00001   2.07452
   R24        2.07937   0.00000   0.00000   0.00001   0.00001   2.07938
    A1        2.29082  -0.00000   0.00000  -0.00003  -0.00003   2.29080
    A2        2.06591  -0.00000   0.00000  -0.00001  -0.00001   2.06591
    A3        1.92645   0.00000  -0.00000   0.00004   0.00003   1.92648
    A4        2.10691   0.00001   0.00000   0.00002   0.00003   2.10693
    A5        2.05949  -0.00000  -0.00000  -0.00002  -0.00003   2.05947
    A6        2.11679  -0.00000  -0.00000  -0.00000  -0.00000   2.11679
    A7        2.16648   0.00000  -0.00000   0.00002   0.00002   2.16650
    A8        2.13646   0.00000   0.00000   0.00001   0.00002   2.13648
    A9        2.12182  -0.00000  -0.00000  -0.00000  -0.00000   2.12182
   A10        2.02487  -0.00000  -0.00000  -0.00001  -0.00001   2.02485
   A11        1.94267   0.00000  -0.00000   0.00001   0.00001   1.94268
   A12        1.93565   0.00000  -0.00000   0.00002   0.00002   1.93566
   A13        1.90174  -0.00000   0.00000   0.00001   0.00001   1.90175
   A14        1.93971  -0.00000   0.00000   0.00000   0.00000   1.93971
   A15        1.88175   0.00000  -0.00000  -0.00000  -0.00000   1.88175
   A16        1.85922  -0.00000  -0.00000  -0.00003  -0.00003   1.85918
   A17        1.91627   0.00000  -0.00000   0.00001   0.00001   1.91627
   A18        1.92829   0.00000  -0.00000   0.00002   0.00002   1.92830
   A19        1.94135  -0.00000  -0.00000  -0.00001  -0.00001   1.94134
   A20        1.85371  -0.00000  -0.00000  -0.00004  -0.00004   1.85367
   A21        1.90509   0.00000   0.00000   0.00000   0.00000   1.90509
   A22        1.91700   0.00000   0.00000   0.00002   0.00003   1.91703
   A23        1.95218  -0.00000  -0.00000  -0.00000  -0.00000   1.95217
   A24        1.93757  -0.00000  -0.00000  -0.00002  -0.00002   1.93755
   A25        1.91848   0.00000   0.00000   0.00001   0.00001   1.91849
   A26        1.88451   0.00000   0.00000  -0.00001  -0.00001   1.88450
   A27        1.89192   0.00000   0.00000   0.00001   0.00001   1.89192
   A28        1.87692   0.00000   0.00000   0.00001   0.00001   1.87693
   A29        2.01398   0.00000   0.00000   0.00000   0.00001   2.01399
   A30        1.95662  -0.00000  -0.00000  -0.00000  -0.00001   1.95661
   A31        1.92525   0.00000  -0.00000   0.00000   0.00000   1.92525
   A32        1.85525  -0.00000   0.00000  -0.00002  -0.00002   1.85523
   A33        1.90319  -0.00000  -0.00000   0.00000   0.00000   1.90319
   A34        1.92525  -0.00000  -0.00000  -0.00001  -0.00001   1.92525
   A35        1.89721   0.00000   0.00000   0.00003   0.00003   1.89724
   A36        1.94231  -0.00000  -0.00000   0.00000  -0.00000   1.94231
   A37        1.89302  -0.00000   0.00000  -0.00003  -0.00003   1.89299
   A38        1.92450  -0.00000   0.00000  -0.00001  -0.00001   1.92449
   A39        1.90407   0.00000  -0.00000   0.00002   0.00002   1.90409
   A40        1.89768   0.00000   0.00000   0.00000   0.00001   1.89769
   A41        1.90180   0.00000   0.00000   0.00001   0.00001   1.90181
    D1        0.00691  -0.00000  -0.00002   0.00004   0.00002   0.00693
    D2       -3.13328  -0.00000  -0.00001   0.00000  -0.00001  -3.13329
    D3       -3.13567   0.00000  -0.00001   0.00008   0.00006  -3.13560
    D4        0.00733   0.00000  -0.00001   0.00004   0.00003   0.00736
    D5       -0.01094   0.00000   0.00000   0.00013   0.00013  -0.01081
    D6        3.13149  -0.00000  -0.00000   0.00010   0.00009   3.13159
    D7       -3.13559   0.00000   0.00000   0.00004   0.00004  -3.13555
    D8        0.00455   0.00000  -0.00000   0.00008   0.00007   0.00462
    D9        3.13739   0.00000  -0.00000   0.00010   0.00010   3.13749
   D10        0.00493   0.00000  -0.00000   0.00010   0.00010   0.00504
   D11        0.08872   0.00000   0.00002   0.00009   0.00011   0.08883
   D12        2.25789   0.00000   0.00002   0.00011   0.00013   2.25802
   D13       -1.98417  -0.00000   0.00002   0.00008   0.00010  -1.98407
   D14       -3.06153   0.00000   0.00001   0.00009   0.00010  -3.06143
   D15       -0.89236   0.00000   0.00002   0.00011   0.00013  -0.89224
   D16        1.14876  -0.00000   0.00002   0.00008   0.00010   1.14886
   D17        1.07490  -0.00000  -0.00000  -0.00004  -0.00005   1.07485
   D18       -0.96394   0.00000  -0.00000  -0.00001  -0.00002  -0.96396
   D19       -3.09774  -0.00000  -0.00000  -0.00005  -0.00005  -3.09780
   D20       -1.09198  -0.00000  -0.00000  -0.00007  -0.00008  -1.09205
   D21       -3.13082  -0.00000  -0.00000  -0.00004  -0.00004  -3.13086
   D22        1.01857  -0.00000  -0.00000  -0.00008  -0.00008   1.01849
   D23       -3.12346  -0.00000  -0.00000  -0.00003  -0.00003  -3.12350
   D24        1.12088   0.00000  -0.00000  -0.00000  -0.00000   1.12088
   D25       -1.01292  -0.00000  -0.00000  -0.00003  -0.00004  -1.01296
   D26        3.05221  -0.00000  -0.00000  -0.00005  -0.00006   3.05216
   D27        0.94598  -0.00000   0.00000  -0.00003  -0.00003   0.94595
   D28       -1.12843  -0.00000  -0.00000  -0.00004  -0.00004  -1.12847
   D29       -1.06012  -0.00000  -0.00000  -0.00003  -0.00003  -1.06015
   D30        3.11683   0.00000   0.00000  -0.00000  -0.00000   3.11683
   D31        1.04242   0.00000  -0.00000  -0.00002  -0.00002   1.04240
   D32        0.98516  -0.00000  -0.00000  -0.00005  -0.00005   0.98510
   D33       -1.12108   0.00000  -0.00000  -0.00003  -0.00003  -1.12110
   D34        3.08769  -0.00000  -0.00000  -0.00004  -0.00004   3.08766
   D35       -1.39475  -0.00000   0.00000  -0.00017  -0.00016  -1.39491
   D36        0.72977  -0.00000   0.00000  -0.00016  -0.00016   0.72961
   D37        2.78355  -0.00000   0.00000  -0.00014  -0.00014   2.78341
   D38       -3.06953   0.00000  -0.00000   0.00004   0.00004  -3.06949
   D39        1.11902   0.00000   0.00000   0.00003   0.00004   1.11905
   D40       -0.96215   0.00000  -0.00000   0.00004   0.00004  -0.96211
   D41        1.07656  -0.00000   0.00000   0.00004   0.00004   1.07660
   D42       -1.01808   0.00000   0.00000   0.00003   0.00003  -1.01805
   D43       -3.09925   0.00000   0.00000   0.00004   0.00004  -3.09921
   D44       -1.00570  -0.00000  -0.00000   0.00001   0.00001  -1.00570
   D45       -3.10034  -0.00000   0.00000   0.00000   0.00000  -3.10034
   D46        1.10167  -0.00000  -0.00000   0.00001   0.00001   1.10168
         Item               Value     Threshold  Converged?
 Maximum Force            0.000016     0.000450     YES
 RMS     Force            0.000003     0.000300     YES
 Maximum Displacement     0.000430     0.001800     YES
 RMS     Displacement     0.000153     0.001200     YES
 Predicted change in Energy=-3.188913D-09
 Optimization completed.
    -- Stationary point found.
                           ----------------------------
                           !   Optimized Parameters   !
                           ! (Angstroms and Degrees)  !
 --------------------------                            --------------------------
 ! Name  Definition              Value          Derivative Info.                !
 --------------------------------------------------------------------------------
 ! R1    R(1,2)                  1.226          -DE/DX =    0.0                 !
 ! R2    R(2,3)                  1.4105         -DE/DX =    0.0                 !
 ! R3    R(2,9)                  1.4118         -DE/DX =    0.0                 !
 ! R4    R(3,4)                  1.352          -DE/DX =    0.0                 !
 ! R5    R(3,12)                 1.0998         -DE/DX =    0.0                 !
 ! R6    R(4,5)                  1.2832         -DE/DX =    0.0                 !
 ! R7    R(5,6)                  1.5121         -DE/DX =    0.0                 !
 ! R8    R(5,13)                 1.1122         -DE/DX =    0.0                 !
 ! R9    R(6,7)                  1.5242         -DE/DX =    0.0                 !
 ! R10   R(6,8)                  1.5329         -DE/DX =    0.0                 !
 ! R11   R(6,14)                 1.1113         -DE/DX =    0.0                 !
 ! R12   R(7,15)                 1.1002         -DE/DX =    0.0                 !
 ! R13   R(7,16)                 1.0974         -DE/DX =    0.0                 !
 ! R14   R(7,17)                 1.1027         -DE/DX =    0.0                 !
 ! R15   R(8,18)                 1.1034         -DE/DX =    0.0                 !
 ! R16   R(8,19)                 1.1017         -DE/DX =    0.0                 !
 ! R17   R(8,20)                 1.1019         -DE/DX =    0.0                 !
 ! R18   R(9,10)                 1.3991         -DE/DX =    0.0                 !
 ! R19   R(10,11)                1.5234         -DE/DX =    0.0                 !
 ! R20   R(10,21)                1.1017         -DE/DX =    0.0                 !
 ! R21   R(10,22)                1.1032         -DE/DX =    0.0                 !
 ! R22   R(11,23)                1.1019         -DE/DX =    0.0                 !
 ! R23   R(11,24)                1.0978         -DE/DX =    0.0                 !
 ! R24   R(11,25)                1.1004         -DE/DX =    0.0                 !
 ! A1    A(1,2,3)              131.2544         -DE/DX =    0.0                 !
 ! A2    A(1,2,9)              118.368          -DE/DX =    0.0                 !
 ! A3    A(3,2,9)              110.3775         -DE/DX =    0.0                 !
 ! A4    A(2,3,4)              120.7168         -DE/DX =    0.0                 !
 ! A5    A(2,3,12)             118.0002         -DE/DX =    0.0                 !
 ! A6    A(4,3,12)             121.283          -DE/DX =    0.0                 !
 ! A7    A(3,4,5)              124.1303         -DE/DX =    0.0                 !
 ! A8    A(4,5,6)              122.4104         -DE/DX =    0.0                 !
 ! A9    A(4,5,13)             121.5714         -DE/DX =    0.0                 !
 ! A10   A(6,5,13)             116.0163         -DE/DX =    0.0                 !
 ! A11   A(5,6,7)              111.3068         -DE/DX =    0.0                 !
 ! A12   A(5,6,8)              110.9044         -DE/DX =    0.0                 !
 ! A13   A(5,6,14)             108.9618         -DE/DX =    0.0                 !
 ! A14   A(7,6,8)              111.137          -DE/DX =    0.0                 !
 ! A15   A(7,6,14)             107.8164         -DE/DX =    0.0                 !
 ! A16   A(8,6,14)             106.5252         -DE/DX =    0.0                 !
 ! A17   A(6,7,15)             109.7939         -DE/DX =    0.0                 !
 ! A18   A(6,7,16)             110.4828         -DE/DX =    0.0                 !
 ! A19   A(6,7,17)             111.2312         -DE/DX =    0.0                 !
 ! A20   A(15,7,16)            106.2095         -DE/DX =    0.0                 !
 ! A21   A(15,7,17)            109.1538         -DE/DX =    0.0                 !
 ! A22   A(16,7,17)            109.836          -DE/DX =    0.0                 !
 ! A23   A(6,8,18)             111.8516         -DE/DX =    0.0                 !
 ! A24   A(6,8,19)             111.0144         -DE/DX =    0.0                 !
 ! A25   A(6,8,20)             109.9207         -DE/DX =    0.0                 !
 ! A26   A(18,8,19)            107.9742         -DE/DX =    0.0                 !
 ! A27   A(18,8,20)            108.3988         -DE/DX =    0.0                 !
 ! A28   A(19,8,20)            107.5394         -DE/DX =    0.0                 !
 ! A29   A(2,9,10)             115.3925         -DE/DX =    0.0                 !
 ! A30   A(9,10,11)            112.106          -DE/DX =    0.0                 !
 ! A31   A(9,10,21)            110.3084         -DE/DX =    0.0                 !
 ! A32   A(9,10,22)            106.2979         -DE/DX =    0.0                 !
 ! A33   A(11,10,21)           109.0446         -DE/DX =    0.0                 !
 ! A34   A(11,10,22)           110.3088         -DE/DX =    0.0                 !
 ! A35   A(21,10,22)           108.7022         -DE/DX =    0.0                 !
 ! A36   A(10,11,23)           111.286          -DE/DX =    0.0                 !
 ! A37   A(10,11,24)           108.4619         -DE/DX =    0.0                 !
 ! A38   A(10,11,25)           110.2657         -DE/DX =    0.0                 !
 ! A39   A(23,11,24)           109.0954         -DE/DX =    0.0                 !
 ! A40   A(23,11,25)           108.729          -DE/DX =    0.0                 !
 ! A41   A(24,11,25)           108.9652         -DE/DX =    0.0                 !
 ! D1    D(1,2,3,4)              0.396          -DE/DX =    0.0                 !
 ! D2    D(1,2,3,12)          -179.5236         -DE/DX =    0.0                 !
 ! D3    D(9,2,3,4)           -179.6605         -DE/DX =    0.0                 !
 ! D4    D(9,2,3,12)             0.4199         -DE/DX =    0.0                 !
 ! D5    D(1,2,9,10)            -0.627          -DE/DX =    0.0                 !
 ! D6    D(3,2,9,10)           179.4213         -DE/DX =    0.0                 !
 ! D7    D(2,3,4,5)           -179.6562         -DE/DX =    0.0                 !
 ! D8    D(12,3,4,5)             0.2607         -DE/DX =    0.0                 !
 ! D9    D(3,4,5,6)            179.7592         -DE/DX =    0.0                 !
 ! D10   D(3,4,5,13)             0.2827         -DE/DX =    0.0                 !
 ! D11   D(4,5,6,7)              5.0836         -DE/DX =    0.0                 !
 ! D12   D(4,5,6,8)            129.3676         -DE/DX =    0.0                 !
 ! D13   D(4,5,6,14)          -113.6844         -DE/DX =    0.0                 !
 ! D14   D(13,5,6,7)          -175.4128         -DE/DX =    0.0                 !
 ! D15   D(13,5,6,8)           -51.1287         -DE/DX =    0.0                 !
 ! D16   D(13,5,6,14)           65.8192         -DE/DX =    0.0                 !
 ! D17   D(5,6,7,15)            61.5869         -DE/DX =    0.0                 !
 ! D18   D(5,6,7,16)           -55.23           -DE/DX =    0.0                 !
 ! D19   D(5,6,7,17)          -177.4877         -DE/DX =    0.0                 !
 ! D20   D(8,6,7,15)           -62.5657         -DE/DX =    0.0                 !
 ! D21   D(8,6,7,16)          -179.3826         -DE/DX =    0.0                 !
 ! D22   D(8,6,7,17)            58.3597         -DE/DX =    0.0                 !
 ! D23   D(14,6,7,15)         -178.9612         -DE/DX =    0.0                 !
 ! D24   D(14,6,7,16)           64.2219         -DE/DX =    0.0                 !
 ! D25   D(14,6,7,17)          -58.0359         -DE/DX =    0.0                 !
 ! D26   D(5,6,8,18)           174.879          -DE/DX =    0.0                 !
 ! D27   D(5,6,8,19)            54.2007         -DE/DX =    0.0                 !
 ! D28   D(5,6,8,20)           -64.6545         -DE/DX =    0.0                 !
 ! D29   D(7,6,8,18)           -60.7404         -DE/DX =    0.0                 !
 ! D30   D(7,6,8,19)           178.5813         -DE/DX =    0.0                 !
 ! D31   D(7,6,8,20)            59.7261         -DE/DX =    0.0                 !
 ! D32   D(14,6,8,18)           56.4453         -DE/DX =    0.0                 !
 ! D33   D(14,6,8,19)          -64.2329         -DE/DX =    0.0                 !
 ! D34   D(14,6,8,20)          176.9119         -DE/DX =    0.0                 !
 ! D35   D(2,9,10,11)          -79.9132         -DE/DX =    0.0                 !
 ! D36   D(2,9,10,21)           41.8127         -DE/DX =    0.0                 !
 ! D37   D(2,9,10,22)          159.4855         -DE/DX =    0.0                 !
 ! D38   D(9,10,11,23)        -175.8708         -DE/DX =    0.0                 !
 ! D39   D(9,10,11,24)          64.115          -DE/DX =    0.0                 !
 ! D40   D(9,10,11,25)         -55.1274         -DE/DX =    0.0                 !
 ! D41   D(21,10,11,23)         61.6824         -DE/DX =    0.0                 !
 ! D42   D(21,10,11,24)        -58.3318         -DE/DX =    0.0                 !
 ! D43   D(21,10,11,25)       -177.5742         -DE/DX =    0.0                 !
 ! D44   D(22,10,11,23)        -57.6224         -DE/DX =    0.0                 !
 ! D45   D(22,10,11,24)       -177.6365         -DE/DX =    0.0                 !
 ! D46   D(22,10,11,25)         63.1211         -DE/DX =    0.0                 !
 --------------------------------------------------------------------------------
 GradGradGradGradGradGradGradGradGradGradGradGradGradGradGradGradGradGrad

                          Input orientation:                          
 ---------------------------------------------------------------------
 Center     Atomic      Atomic             Coordinates (Angstroms)
 Number     Number       Type             X           Y           Z
 ---------------------------------------------------------------------
      1          8           0        1.592900   -0.189848   -1.244901
      2          6           0        1.422058    0.284235   -0.127226
      3          6           0        0.242950    0.555832    0.597557
      4          7           0       -0.970976    0.279910    0.070046
      5          6           0       -2.083832    0.505513    0.667690
      6          6           0       -3.421058    0.186063    0.038312
      7          6           0       -3.248216   -0.530408   -1.295821
      8          6           0       -4.294789   -0.631995    0.995924
      9          8           0        2.558084    0.647958    0.627959
     10          6           0        3.790610    0.410234    0.009980
     11          6           0        4.214057   -1.049144    0.117978
     12          1           0        0.343082    0.998105    1.599485
     13          1           0       -2.118236    0.958710    1.682795
     14          1           0       -3.965809    1.135445   -0.153661
     15          1           0       -2.727092   -1.486815   -1.140332
     16          1           0       -2.612516    0.058970   -1.968673
     17          1           0       -4.222594   -0.722997   -1.774837
     18          1           0       -5.307126   -0.796656    0.589000
     19          1           0       -4.397644   -0.124263    1.968197
     20          1           0       -3.830607   -1.613953    1.181555
     21          1           0        3.746070    0.693853   -1.053630
     22          1           0        4.522565    1.059971    0.518978
     23          1           0        5.218095   -1.206906   -0.307805
     24          1           0        3.489749   -1.662981   -0.433127
     25          1           0        4.223246   -1.366364    1.171578
 ---------------------------------------------------------------------
                    Distance matrix (angstroms):
                    1          2          3          4          5
     1  O    0.000000
     2  C    1.226025   0.000000
     3  C    2.402718   1.410451   0.000000
     4  N    2.919456   2.401155   1.352042   0.000000
     5  C    4.202367   3.601683   2.328382   1.283169   0.000000
     6  C    5.189192   4.846938   3.724840   2.452083   1.512064
     7  C    4.853347   4.882695   4.117406   2.776333   2.506849
     8  C    6.315194   5.897735   4.707516   3.568831   2.507986
     9  O    2.267400   1.411791   2.317166   3.591795   4.644271
    10  C    2.600913   2.375866   3.598935   4.763748   5.911914
    11  C    3.076734   3.103753   4.309946   5.352874   6.510188
    12  H    3.326230   2.157622   1.099769   2.140499   2.645902
    13  H    4.864475   4.032961   2.629687   2.092351   1.112209
    14  H    5.817770   5.454756   4.314386   3.122660   2.147852
    15  H    4.511695   4.623683   4.001726   2.769526   2.766242
    16  H    4.274492   4.440659   3.871188   2.626755   2.725677
    17  H    5.863877   5.965838   5.215816   3.870714   3.471235
    18  H    7.165317   6.852972   5.712499   4.497833   3.477278
    19  H    6.798156   6.198919   4.886338   3.938068   2.727941
    20  H    6.109844   5.736420   4.652192   3.605504   2.794176
    21  H    2.335306   2.535162   3.875219   4.866675   6.081626
    22  H    3.640913   3.260750   4.309923   5.566779   6.631291
    23  H    3.880024   4.082402   5.355277   6.376362   7.563207
    24  H    2.535179   2.856672   4.065360   4.891429   6.081034
    25  H    3.760622   3.501146   4.457252   5.559095   6.598262
                    6          7          8          9         10
     6  C    0.000000
     7  C    1.524176   0.000000
     8  C    1.532856   2.521454   0.000000
     9  O    6.025875   6.229172   6.981085   0.000000
    10  C    7.215206   7.220456   8.211699   1.399118   0.000000
    11  C    7.734796   7.612715   8.564186   2.425383   1.523403
    12  H    4.155168   4.859688   4.952914   2.443911   3.841558
    13  H    2.235767   3.516600   2.781999   4.803875   6.165517
    14  H    1.111275   2.143486   2.133921   6.588608   7.791966
    15  H    2.160858   1.100210   2.784238   5.968014   6.884944
    16  H    2.167460   1.097365   3.477976   5.815884   6.711071
    17  H    2.180907   1.102705   2.773195   7.323287   8.287413
    18  H    2.196873   2.804024   1.103416   7.996872   9.195686
    19  H    2.185059   3.484243   1.101674   7.125638   8.436101
    20  H    2.171358   2.765980   1.101893   6.799859   7.972005
    21  H    7.267593   7.104753   8.403212   2.059408   1.101675
    22  H    8.005991   8.136819   8.990882   2.010178   1.103175
    23  H    8.757575   8.550569   9.619002   3.375179   2.180331
    24  H    7.169412   6.886736   7.981489   2.708199   2.141281
    25  H    7.882239   7.912624   8.551437   2.669416   2.166284
                   11         12         13         14         15
    11  C    0.000000
    12  H    4.622828   0.000000
    13  H    6.824813   2.463043   0.000000
    14  H    8.470916   4.653915   2.611002   0.000000
    15  H    7.067847   4.807015   3.784355   3.063361   0.000000
    16  H    7.223858   4.727503   3.793029   2.506884   1.757477
    17  H    8.652526   5.932422   4.383113   2.479507   1.795143
    18  H    9.536171   6.013909   3.800884   2.466514   3.181742
    19  H    8.856643   4.885708   2.539682   2.505121   3.782888
    20  H    8.134300   4.941375   3.130823   3.059456   2.573921
    21  H    2.151677   4.325728   6.476748   7.776762   6.831154
    22  H    2.168950   4.317337   6.742771   8.515317   7.861104
    23  H    1.101940   5.680280   7.904058   9.479159   7.993588
    24  H    1.097786   4.595042   6.542163   7.968352   6.259416
    25  H    1.100358   4.563934   6.773604   8.664636   7.325752
                   16         17         18         19         20
    16  H    0.000000
    17  H    1.800388   0.000000
    18  H    3.812442   2.601799   0.000000
    19  H    4.326570   3.794658   1.783664   0.000000
    20  H    3.769132   3.112509   1.788633   1.777502   0.000000
    21  H    6.455385   8.125713   9.320956   8.724726   8.229706
    22  H    7.622322   9.215116  10.003739   9.114427   8.795701
    23  H    8.104282   9.566240  10.571322   9.940560   9.179482
    24  H    6.523853   7.884414   8.898330   8.387192   7.496480
    25  H    7.656395   8.968137   9.565143   8.746265   8.057664
                   21         22         23         24         25
    21  H    0.000000
    22  H    1.791670   0.000000
    23  H    2.517140   2.511187   0.000000
    24  H    2.450589   3.063932   1.791895   0.000000
    25  H    3.069811   2.530332   1.789896   1.789156   0.000000
 Stoichiometry    C8H14NO2(1-)
 Framework group  C1[X(C8H14NO2)]
 Deg. of freedom    69
 Full point group                 C1      NOp   1
 Largest Abelian subgroup         C1      NOp   1
 Largest concise Abelian subgroup C1      NOp   1
                         Standard orientation:                         
 ---------------------------------------------------------------------
 Center     Atomic      Atomic             Coordinates (Angstroms)
 Number     Number       Type             X           Y           Z
 ---------------------------------------------------------------------
      1          8           0       -1.629654    1.240489   -0.296150
      2          6           0       -1.447134    0.028126   -0.295167
      3          6           0       -0.260164   -0.733707   -0.286036
      4          7           0        0.948753   -0.128546   -0.268170
      5          6           0        2.068020   -0.756046   -0.265370
      6          6           0        3.399134   -0.038933   -0.250476
      7          6           0        3.214939    1.467906   -0.114015
      8          6           0        4.303756   -0.587896    0.858554
      9          8           0       -2.575633   -0.820126   -0.305760
     10          6           0       -3.814687   -0.170305   -0.302702
     11          6           0       -4.210919    0.301955    1.090398
     12          1           0       -0.350047   -1.829758   -0.295247
     13          1           0        2.112677   -1.867226   -0.282501
     14          1           0        3.923930   -0.231735   -1.210867
     15          1           0        2.713235    1.697230    0.837911
     16          1           0        2.557290    1.847668   -0.906157
     17          1           0        4.183808    1.993348   -0.148125
     18          1           0        5.311374   -0.139349    0.826327
     19          1           0        4.415139   -1.680570    0.772872
     20          1           0        3.859952   -0.375647    1.844533
     21          1           0       -3.793993    0.695616   -0.983467
     22          1           0       -4.548555   -0.901268   -0.682340
     23          1           0       -5.219511    0.745817    1.090508
     24          1           0       -3.486065    1.057379    1.420633
     25          1           0       -4.195873   -0.541179    1.797283
 ---------------------------------------------------------------------
 Rotational constants (GHZ):           3.3330379           0.3700259           0.3553674

 **********************************************************************

            Population analysis using the SCF Density.

 **********************************************************************

 Orbital symmetries:
       Occupied  (A) (A) (A) (A) (A) (A) (A) (A) (A) (A) (A) (A)
                 (A) (A) (A) (A) (A) (A) (A) (A) (A) (A) (A) (A)
                 (A) (A) (A) (A) (A) (A) (A) (A) (A) (A) (A) (A)
                 (A) (A) (A) (A) (A) (A) (A)
       Virtual   (A) (A) (A) (A) (A) (A) (A) (A) (A) (A) (A) (A)
                 (A) (A) (A) (A) (A) (A) (A) (A) (A) (A) (A) (A)
                 (A) (A) (A) (A) (A) (A) (A) (A) (A) (A) (A) (A)
                 (A) (A) (A) (A) (A) (A) (A) (A) (A) (A) (A) (A)
                 (A) (A) (A) (A) (A) (A) (A) (A) (A) (A) (A) (A)
                 (A) (A) (A) (A) (A) (A) (A) (A) (A) (A) (A) (A)
                 (A) (A) (A) (A) (A) (A) (A) (A) (A) (A) (A) (A)
                 (A) (A) (A) (A) (A) (A) (A) (A) (A) (A) (A) (A)
                 (A) (A) (A) (A) (A) (A) (A) (A) (A) (A) (A) (A)
                 (A) (A) (A) (A) (A) (A) (A) (A) (A) (A) (A) (A)
                 (A) (A) (A) (A) (A) (A) (A) (A) (A) (A) (A) (A)
                 (A) (A) (A) (A) (A) (A) (A) (A) (A) (A) (A) (A)
                 (A) (A) (A) (A) (A) (A) (A) (A) (A) (A) (A) (A)
                 (A) (A) (A) (A) (A) (A) (A) (A) (A) (A) (A) (A)
                 (A) (A) (A) (A) (A) (A) (A) (A) (A) (A) (A) (A)
                 (A)
 The electronic state is 1-A.
 Alpha  occ. eigenvalues --  -19.47620 -19.40249 -14.57620 -10.46806 -10.45719
 Alpha  occ. eigenvalues --  -10.42341 -10.41543 -10.41493 -10.40566 -10.39137
 Alpha  occ. eigenvalues --  -10.35229  -1.01073  -0.90912  -0.83432  -0.74529
 Alpha  occ. eigenvalues --   -0.70636  -0.63617  -0.62388  -0.57451  -0.52977
 Alpha  occ. eigenvalues --   -0.47059  -0.43633  -0.41260  -0.39644  -0.38262
 Alpha  occ. eigenvalues --   -0.37538  -0.36138  -0.34871  -0.33409  -0.32391
 Alpha  occ. eigenvalues --   -0.31631  -0.31141  -0.29228  -0.28166  -0.26680
 Alpha  occ. eigenvalues --   -0.26182  -0.25395  -0.23892  -0.22322  -0.18276
 Alpha  occ. eigenvalues --   -0.14995  -0.13105  -0.03415
 Alpha virt. eigenvalues --    0.20351   0.22858   0.23509   0.26163   0.26486
 Alpha virt. eigenvalues --    0.27453   0.28150   0.28408   0.29143   0.29940
 Alpha virt. eigenvalues --    0.30062   0.32094   0.33011   0.33195   0.33947
 Alpha virt. eigenvalues --    0.35225   0.36575   0.38350   0.39929   0.41072
 Alpha virt. eigenvalues --    0.44804   0.46390   0.48410   0.52291   0.56253
 Alpha virt. eigenvalues --    0.57853   0.58863   0.60106   0.60895   0.61371
 Alpha virt. eigenvalues --    0.62806   0.64217   0.66029   0.68349   0.69613
 Alpha virt. eigenvalues --    0.71610   0.73352   0.75109   0.77566   0.78127
 Alpha virt. eigenvalues --    0.79087   0.80618   0.80754   0.81923   0.82833
 Alpha virt. eigenvalues --    0.83177   0.83736   0.84172   0.85288   0.85802
 Alpha virt. eigenvalues --    0.85997   0.86319   0.86869   0.86979   0.87564
 Alpha virt. eigenvalues --    0.88123   0.88836   0.89310   0.89704   0.91038
 Alpha virt. eigenvalues --    0.92165   0.93245   0.95699   1.00321   1.02521
 Alpha virt. eigenvalues --    1.03223   1.05618   1.09619   1.10504   1.11797
 Alpha virt. eigenvalues --    1.17114   1.19559   1.21472   1.26022   1.29509
 Alpha virt. eigenvalues --    1.31287   1.32995   1.33922   1.36045   1.39859
 Alpha virt. eigenvalues --    1.41528   1.44151   1.45087   1.48891   1.50043
 Alpha virt. eigenvalues --    1.53766   1.56491   1.59599   1.60071   1.64369
 Alpha virt. eigenvalues --    1.66522   1.70309   1.71024   1.71993   1.73072
 Alpha virt. eigenvalues --    1.73918   1.75131   1.77609   1.80209   1.88407
 Alpha virt. eigenvalues --    1.90782   1.91381   1.91485   1.92793   1.94601
 Alpha virt. eigenvalues --    1.94878   1.94897   1.96923   1.98173   1.98364
 Alpha virt. eigenvalues --    1.98908   1.99730   2.01346   2.01722   2.02970
 Alpha virt. eigenvalues --    2.04657   2.06089   2.06394   2.06714   2.09596
 Alpha virt. eigenvalues --    2.10677   2.11025   2.12137   2.13661   2.15738
 Alpha virt. eigenvalues --    2.16304   2.19897   2.20201   2.22722   2.26432
 Alpha virt. eigenvalues --    2.29103   2.30612   2.32649   2.36301   2.38245
 Alpha virt. eigenvalues --    2.41705   2.42586   2.46120   2.47767   2.52322
 Alpha virt. eigenvalues --    2.52873   2.53893   2.55565   2.58865   2.65117
 Alpha virt. eigenvalues --    2.66027   2.68944   2.69579   2.72491   2.75107
 Alpha virt. eigenvalues --    2.76774   2.82035   2.82999   2.85773   2.90387
 Alpha virt. eigenvalues --    2.91790   2.93188   2.95488   2.96166   2.99257
 Alpha virt. eigenvalues --    3.00560   3.02546   3.03281   3.04862   3.06184
 Alpha virt. eigenvalues --    3.07783   3.08505   3.13448   3.15664   3.16906
 Alpha virt. eigenvalues --    3.20401   3.21615   3.24927   3.28674   3.39194
 Alpha virt. eigenvalues --    3.44824   3.55024   3.57149   3.68792   3.84030
 Alpha virt. eigenvalues --    3.94651
          Condensed to atoms (all electrons):
               1          2          3          4          5          6
     1  O    7.868490   0.674729  -0.102842   0.001222   0.000274   0.000023
     2  C    0.674729   4.595033   0.330501  -0.060751   0.012146   0.000203
     3  C   -0.102842   0.330501   5.383905   0.428096  -0.115557   0.018873
     4  N    0.001222  -0.060751   0.428096   6.245124   0.652810  -0.133873
     5  C    0.000274   0.012146  -0.115557   0.652810   5.116561   0.185057
     6  C    0.000023   0.000203   0.018873  -0.133873   0.185057   5.253611
     7  C   -0.000084  -0.000258  -0.000353   0.018636  -0.038258   0.354292
     8  C   -0.000000  -0.000002  -0.000082   0.002528  -0.081015   0.385807
     9  O   -0.098452   0.284041  -0.113707   0.001971  -0.000097  -0.000000
    10  C    0.007508  -0.041312   0.010772  -0.000180   0.000012  -0.000000
    11  C   -0.019700  -0.006101  -0.001200   0.000013  -0.000002   0.000000
    12  H    0.003672  -0.060617   0.373055  -0.045655  -0.014503  -0.002501
    13  H   -0.000019  -0.001449  -0.018154  -0.040588   0.414052  -0.147255
    14  H   -0.000001   0.000032   0.000052   0.000165  -0.023858   0.337396
    15  H    0.000075  -0.000066  -0.000639   0.008033  -0.006946  -0.021097
    16  H    0.000204  -0.000102  -0.000602   0.015807  -0.010864  -0.011683
    17  H    0.000000  -0.000007   0.000005   0.001229   0.010533  -0.034723
    18  H    0.000000   0.000000   0.000002  -0.000166   0.010097  -0.016488
    19  H   -0.000000  -0.000001  -0.000039   0.000088  -0.005024  -0.024789
    20  H    0.000000  -0.000005  -0.000323   0.000863   0.005785  -0.029122
    21  H    0.027057  -0.009802   0.002333  -0.000005   0.000001   0.000000
    22  H    0.000833   0.006871   0.000049   0.000003  -0.000000  -0.000000
    23  H    0.000097   0.000134  -0.000008  -0.000000   0.000000  -0.000000
    24  H    0.022735   0.002275  -0.000466  -0.000004   0.000005  -0.000000
    25  H    0.000554  -0.000235  -0.000158   0.000001   0.000000  -0.000000
               7          8          9         10         11         12
     1  O   -0.000084  -0.000000  -0.098452   0.007508  -0.019700   0.003672
     2  C   -0.000258  -0.000002   0.284041  -0.041312  -0.006101  -0.060617
     3  C   -0.000353  -0.000082  -0.113707   0.010772  -0.001200   0.373055
     4  N    0.018636   0.002528   0.001971  -0.000180   0.000013  -0.045655
     5  C   -0.038258  -0.081015  -0.000097   0.000012  -0.000002  -0.014503
     6  C    0.354292   0.385807  -0.000000  -0.000000   0.000000  -0.002501
     7  C    4.584931  -0.046865  -0.000000   0.000000  -0.000000   0.000213
     8  C   -0.046865   4.750986  -0.000000  -0.000000   0.000000   0.000023
     9  O   -0.000000  -0.000000   8.165197   0.290122  -0.052208   0.010420
    10  C    0.000000  -0.000000   0.290122   4.423313   0.421094  -0.000209
    11  C   -0.000000   0.000000  -0.052208   0.421094   4.764720   0.000094
    12  H    0.000213   0.000023   0.010420  -0.000209   0.000094   0.783230
    13  H    0.013064   0.000576   0.000000   0.000003  -0.000000   0.018603
    14  H   -0.026789  -0.061334  -0.000000   0.000000  -0.000000   0.000036
    15  H    0.389057  -0.012740   0.000001   0.000000  -0.000000   0.000061
    16  H    0.383533   0.009930   0.000002  -0.000000   0.000000   0.000128
    17  H    0.372346  -0.006956   0.000000   0.000000  -0.000000   0.000007
    18  H   -0.008042   0.353123   0.000000   0.000000  -0.000000   0.000000
    19  H    0.009408   0.379048   0.000000   0.000000  -0.000000   0.000028
    20  H   -0.008129   0.372653   0.000000   0.000000  -0.000000   0.000006
    21  H    0.000000   0.000000  -0.034204   0.379974  -0.042372  -0.000044
    22  H    0.000000  -0.000000  -0.031851   0.380502  -0.045582  -0.000200
    23  H   -0.000000  -0.000000   0.005091  -0.013280   0.342913  -0.000002
    24  H   -0.000000  -0.000000  -0.006596  -0.009197   0.375957  -0.000130
    25  H    0.000000  -0.000000   0.004002  -0.019338   0.366773   0.000062
              13         14         15         16         17         18
     1  O   -0.000019  -0.000001   0.000075   0.000204   0.000000   0.000000
     2  C   -0.001449   0.000032  -0.000066  -0.000102  -0.000007   0.000000
     3  C   -0.018154   0.000052  -0.000639  -0.000602   0.000005   0.000002
     4  N   -0.040588   0.000165   0.008033   0.015807   0.001229  -0.000166
     5  C    0.414052  -0.023858  -0.006946  -0.010864   0.010533   0.010097
     6  C   -0.147255   0.337396  -0.021097  -0.011683  -0.034723  -0.016488
     7  C    0.013064  -0.026789   0.389057   0.383533   0.372346  -0.008042
     8  C    0.000576  -0.061334  -0.012740   0.009930  -0.006956   0.353123
     9  O    0.000000  -0.000000   0.000001   0.000002   0.000000   0.000000
    10  C    0.000003   0.000000   0.000000  -0.000000   0.000000   0.000000
    11  C   -0.000000  -0.000000  -0.000000   0.000000  -0.000000  -0.000000
    12  H    0.018603   0.000036   0.000061   0.000128   0.000007   0.000000
    13  H    0.816870   0.001381   0.000666   0.001042  -0.000272  -0.000290
    14  H    0.001381   0.781270   0.010259  -0.008454  -0.006328  -0.004407
    15  H    0.000666   0.010259   0.648364  -0.018754  -0.029460  -0.000505
    16  H    0.001042  -0.008454  -0.018754   0.624111  -0.026670  -0.000335
    17  H   -0.000272  -0.006328  -0.029460  -0.026670   0.731897   0.005529
    18  H   -0.000290  -0.004407  -0.000505  -0.000335   0.005529   0.716721
    19  H    0.007279  -0.005501   0.000109  -0.000431  -0.000013  -0.028064
    20  H   -0.000409   0.011650   0.008820  -0.000191  -0.000923  -0.023973
    21  H   -0.000000  -0.000000  -0.000000  -0.000000  -0.000000  -0.000000
    22  H    0.000000   0.000000   0.000000  -0.000000   0.000000   0.000000
    23  H    0.000000   0.000000   0.000000  -0.000000   0.000000   0.000000
    24  H   -0.000000   0.000000   0.000001  -0.000000   0.000000   0.000000
    25  H   -0.000000   0.000000   0.000000  -0.000000   0.000000   0.000000
              19         20         21         22         23         24
     1  O   -0.000000   0.000000   0.027057   0.000833   0.000097   0.022735
     2  C   -0.000001  -0.000005  -0.009802   0.006871   0.000134   0.002275
     3  C   -0.000039  -0.000323   0.002333   0.000049  -0.000008  -0.000466
     4  N    0.000088   0.000863  -0.000005   0.000003  -0.000000  -0.000004
     5  C   -0.005024   0.005785   0.000001  -0.000000   0.000000   0.000005
     6  C   -0.024789  -0.029122   0.000000  -0.000000  -0.000000  -0.000000
     7  C    0.009408  -0.008129   0.000000   0.000000  -0.000000  -0.000000
     8  C    0.379048   0.372653   0.000000  -0.000000  -0.000000  -0.000000
     9  O    0.000000   0.000000  -0.034204  -0.031851   0.005091  -0.006596
    10  C    0.000000   0.000000   0.379974   0.380502  -0.013280  -0.009197
    11  C   -0.000000  -0.000000  -0.042372  -0.045582   0.342913   0.375957
    12  H    0.000028   0.000006  -0.000044  -0.000200  -0.000002  -0.000130
    13  H    0.007279  -0.000409  -0.000000   0.000000   0.000000  -0.000000
    14  H   -0.005501   0.011650  -0.000000   0.000000   0.000000   0.000000
    15  H    0.000109   0.008820  -0.000000   0.000000   0.000000   0.000001
    16  H   -0.000431  -0.000191  -0.000000  -0.000000  -0.000000  -0.000000
    17  H   -0.000013  -0.000923  -0.000000   0.000000   0.000000   0.000000
    18  H   -0.028064  -0.023973  -0.000000   0.000000   0.000000   0.000000
    19  H    0.679231  -0.024430   0.000000  -0.000000   0.000000  -0.000000
    20  H   -0.024430   0.666716  -0.000000   0.000000   0.000000   0.000000
    21  H    0.000000  -0.000000   0.702227  -0.037115   0.000432  -0.012741
    22  H   -0.000000   0.000000  -0.037115   0.741264  -0.001684   0.008481
    23  H    0.000000   0.000000   0.000432  -0.001684   0.712240  -0.018818
    24  H   -0.000000   0.000000  -0.012741   0.008481  -0.018818   0.601462
    25  H    0.000000   0.000000   0.010167  -0.010491  -0.023097  -0.023864
              25
     1  O    0.000554
     2  C   -0.000235
     3  C   -0.000158
     4  N    0.000001
     5  C    0.000000
     6  C   -0.000000
     7  C    0.000000
     8  C   -0.000000
     9  O    0.004002
    10  C   -0.019338
    11  C    0.366773
    12  H    0.000062
    13  H   -0.000000
    14  H    0.000000
    15  H    0.000000
    16  H   -0.000000
    17  H    0.000000
    18  H    0.000000
    19  H    0.000000
    20  H    0.000000
    21  H    0.010167
    22  H   -0.010491
    23  H   -0.023097
    24  H   -0.023864
    25  H    0.676135
 Mulliken charges:
               1
     1  O   -0.386377
     2  C    0.274743
     3  C   -0.193513
     4  N   -0.095366
     5  C   -0.111209
     6  C   -0.113730
     7  C    0.003298
     8  C   -0.045681
     9  O   -0.423729
    10  C    0.170216
    11  C   -0.104400
    12  H   -0.065779
    13  H   -0.065099
    14  H   -0.005569
    15  H    0.024763
    16  H    0.043329
    17  H   -0.016194
    18  H   -0.003202
    19  H    0.013102
    20  H    0.021012
    21  H    0.014092
    22  H   -0.011079
    23  H   -0.004018
    24  H    0.060900
    25  H    0.019488
 Sum of Mulliken charges =  -1.00000
 Mulliken charges with hydrogens summed into heavy atoms:
               1
     1  O   -0.386377
     2  C    0.274743
     3  C   -0.259292
     4  N   -0.095366
     5  C   -0.176307
     6  C   -0.119300
     7  C    0.055196
     8  C   -0.014769
     9  O   -0.423729
    10  C    0.173230
    11  C   -0.028029
 Electronic spatial extent (au):  <R**2>=           3242.4207
 Charge=             -1.0000 electrons
 Dipole moment (field-independent basis, Debye):
    X=              0.7126    Y=             -0.9494    Z=              0.8585  Tot=              1.4650
 Quadrupole moment (field-independent basis, Debye-Ang):
   XX=            -93.3647   YY=            -79.0536   ZZ=            -73.4029
   XY=              1.1727   XZ=             -0.5601   YZ=              0.3014
 Traceless Quadrupole moment (field-independent basis, Debye-Ang):
   XX=            -11.4243   YY=              2.8868   ZZ=              8.5375
   XY=              1.1727   XZ=             -0.5601   YZ=              0.3014
 Octapole moment (field-independent basis, Debye-Ang**2):
  XXX=            -46.9679  YYY=             -2.2446  ZZZ=             -2.5384  XYY=             -1.6204
  XXY=              0.8917  XXZ=            -10.8037  XZZ=             -7.5219  YZZ=              3.3159
  YYZ=              1.1230  XYZ=              1.6116
 Hexadecapole moment (field-independent basis, Debye-Ang**3):
 XXXX=          -4255.9061 YYYY=           -403.0665 ZZZZ=           -237.6700 XXXY=              7.8405
 XXXZ=              6.5960 YYYX=             -0.3194 YYYZ=             -0.0263 ZZZX=              8.7965
 ZZZY=             -2.7400 XXYY=           -759.8582 XXZZ=           -727.0692 YYZZ=           -105.4575
 XXYZ=              1.0432 YYXZ=             -2.9711 ZZXY=              5.5918
 N-N= 5.967430624097D+02 E-N=-2.412883700559D+03  KE= 5.127247042297D+02
 Unable to Open any file for archive entry.
 1\1\GINC-NOTCH069\FOpt\RM062X\def2SVP\C8H14N1O2(1-)\U6067110\18-Jul-20
 25\0\\#N OPT FREQ=NORAMAN Integral(Ultrafine) M062X EmpiricalDispersio
 n=GD3 def2SVP\\A18_crest_conformers_censo-13\\-1,1\O,1.5929001739,-0.1
 898481173,-1.2449007506\C,1.422057688,0.2842346612,-0.1272260227\C,0.2
 429497921,0.5558321184,0.5975570242\N,-0.9709764959,0.2799099194,0.070
 0462057\C,-2.0838319341,0.5055129783,0.6676896872\C,-3.4210576943,0.18
 60630493,0.0383115702\C,-3.2482158368,-0.5304076098,-1.295820706\C,-4.
 294789439,-0.6319946178,0.9959243729\O,2.5580838085,0.6479582139,0.627
 958796\C,3.7906095944,0.4102344479,0.0099795036\C,4.2140573613,-1.0491
 436301,0.1179776884\H,0.343081812,0.9981052063,1.599484945\H,-2.118236
 2001,0.9587099458,1.6827949548\H,-3.9658088664,1.1354446987,-0.1536613
 711\H,-2.7270923304,-1.4868146957,-1.140331755\H,-2.6125156883,0.05896
 95504,-1.9686732817\H,-4.2225938406,-0.72299722,-1.7748365199\H,-5.307
 1263227,-0.7966560553,0.5889998227\H,-4.3976440261,-0.1242630725,1.968
 1972082\H,-3.8306068204,-1.6139532878,1.1815554847\H,3.7460704822,0.69
 3852605,-1.0536301392\H,4.5225649014,1.0599709856,0.518977516\H,5.2180
 947017,-1.2069056256,-0.3078050884\H,3.4897492775,-1.6629808206,-0.433
 1274102\H,4.2232459019,-1.3663636279,1.1715782654\\Version=ES64L-G16Re
 vC.01\State=1-A\HF=-517.8706108\RMSD=8.862e-09\RMSF=6.389e-06\Dipole=-
 0.2689689,-0.1678378,0.481342\Quadrupole=-8.4493419,5.8506228,2.598719
 1,-0.3101531,1.1864012,-1.3462169\PG=C01 [X(C8H14N1O2)]\\@
 The archive entry for this job was punched.


      LET US REMEMBER, PLEASE, THAT THE SEARCH FOR THE CONSTITUTION
      OF THE WORLD IS ONE OF THE GREATEST AND NOBLEST PROBLEMS PRESENTED 
      BY NATURE.

                                                  -- GALILEO
 Job cpu time:       0 days  6 hours  7 minutes 32.3 seconds.
 Elapsed time:       0 days  0 hours 24 minutes 28.4 seconds.
 File lengths (MBytes):  RWF=     50 Int=      0 D2E=      0 Chk=      6 Scr=      2
 Normal termination of Gaussian 16 at Fri Jul 18 11:41:57 2025.
 Link1:  Proceeding to internal job step number  2.
 -------------------------------------------------------------------
 #N Geom=AllCheck Guess=TCheck SCRF=Check GenChk RM062X/def2SVP Freq
 -------------------------------------------------------------------
 1/10=4,29=7,30=1,38=1,40=1/1,3;
 2/12=2,40=1/2;
 3/5=43,7=101,11=2,14=-4,25=1,30=1,70=2,71=2,74=-55,75=-5,116=1,124=31,140=1/1,2,3;
 4/5=101/1;
 5/5=2,38=6,98=1/2;
 8/6=4,10=90,11=11/1;
 11/6=1,8=1,9=11,15=111,16=1/1,2,10;
 10/6=1/2;
 6/7=2,8=2,9=2,10=2,28=1/1;
 7/8=1,10=1,25=1/1,2,3,16;
 1/10=4,30=1/3;
 99//99;
 Structure from the checkpoint file:  "A18_crest_conformers_censo-13.chk"
 -----------------------------
 A18_crest_conformers_censo-13
 -----------------------------
 Charge = -1 Multiplicity = 1
 Redundant internal coordinates found in file.  (old form).
 O,0,1.5929001739,-0.1898481173,-1.2449007506
 C,0,1.422057688,0.2842346612,-0.1272260227
 C,0,0.2429497921,0.5558321184,0.5975570242
 N,0,-0.9709764959,0.2799099194,0.0700462057
 C,0,-2.0838319341,0.5055129783,0.6676896872
 C,0,-3.4210576943,0.1860630493,0.0383115702
 C,0,-3.2482158368,-0.5304076098,-1.295820706
 C,0,-4.294789439,-0.6319946178,0.9959243729
 O,0,2.5580838085,0.6479582139,0.627958796
 C,0,3.7906095944,0.4102344479,0.0099795036
 C,0,4.2140573613,-1.0491436301,0.1179776884
 H,0,0.343081812,0.9981052063,1.599484945
 H,0,-2.1182362001,0.9587099458,1.6827949548
 H,0,-3.9658088664,1.1354446987,-0.1536613711
 H,0,-2.7270923304,-1.4868146957,-1.140331755
 H,0,-2.6125156883,0.0589695504,-1.9686732817
 H,0,-4.2225938406,-0.72299722,-1.7748365199
 H,0,-5.3071263227,-0.7966560553,0.5889998227
 H,0,-4.3976440261,-0.1242630725,1.9681972082
 H,0,-3.8306068204,-1.6139532878,1.1815554847
 H,0,3.7460704822,0.693852605,-1.0536301392
 H,0,4.5225649014,1.0599709856,0.518977516
 H,0,5.2180947017,-1.2069056256,-0.3078050884
 H,0,3.4897492775,-1.6629808206,-0.4331274102
 H,0,4.2232459019,-1.3663636279,1.1715782654
 Recover connectivity data from disk.

 GradGradGradGradGradGradGradGradGradGradGradGradGradGradGradGradGradGrad
 Berny optimization.
 Initialization pass.
                           ----------------------------
                           !    Initial Parameters    !
                           ! (Angstroms and Degrees)  !
 --------------------------                            --------------------------
 ! Name  Definition              Value          Derivative Info.                !
 --------------------------------------------------------------------------------
 ! R1    R(1,2)                  1.226          calculate D2E/DX2 analytically  !
 ! R2    R(2,3)                  1.4105         calculate D2E/DX2 analytically  !
 ! R3    R(2,9)                  1.4118         calculate D2E/DX2 analytically  !
 ! R4    R(3,4)                  1.352          calculate D2E/DX2 analytically  !
 ! R5    R(3,12)                 1.0998         calculate D2E/DX2 analytically  !
 ! R6    R(4,5)                  1.2832         calculate D2E/DX2 analytically  !
 ! R7    R(5,6)                  1.5121         calculate D2E/DX2 analytically  !
 ! R8    R(5,13)                 1.1122         calculate D2E/DX2 analytically  !
 ! R9    R(6,7)                  1.5242         calculate D2E/DX2 analytically  !
 ! R10   R(6,8)                  1.5329         calculate D2E/DX2 analytically  !
 ! R11   R(6,14)                 1.1113         calculate D2E/DX2 analytically  !
 ! R12   R(7,15)                 1.1002         calculate D2E/DX2 analytically  !
 ! R13   R(7,16)                 1.0974         calculate D2E/DX2 analytically  !
 ! R14   R(7,17)                 1.1027         calculate D2E/DX2 analytically  !
 ! R15   R(8,18)                 1.1034         calculate D2E/DX2 analytically  !
 ! R16   R(8,19)                 1.1017         calculate D2E/DX2 analytically  !
 ! R17   R(8,20)                 1.1019         calculate D2E/DX2 analytically  !
 ! R18   R(9,10)                 1.3991         calculate D2E/DX2 analytically  !
 ! R19   R(10,11)                1.5234         calculate D2E/DX2 analytically  !
 ! R20   R(10,21)                1.1017         calculate D2E/DX2 analytically  !
 ! R21   R(10,22)                1.1032         calculate D2E/DX2 analytically  !
 ! R22   R(11,23)                1.1019         calculate D2E/DX2 analytically  !
 ! R23   R(11,24)                1.0978         calculate D2E/DX2 analytically  !
 ! R24   R(11,25)                1.1004         calculate D2E/DX2 analytically  !
 ! A1    A(1,2,3)              131.2544         calculate D2E/DX2 analytically  !
 ! A2    A(1,2,9)              118.368          calculate D2E/DX2 analytically  !
 ! A3    A(3,2,9)              110.3775         calculate D2E/DX2 analytically  !
 ! A4    A(2,3,4)              120.7168         calculate D2E/DX2 analytically  !
 ! A5    A(2,3,12)             118.0002         calculate D2E/DX2 analytically  !
 ! A6    A(4,3,12)             121.283          calculate D2E/DX2 analytically  !
 ! A7    A(3,4,5)              124.1303         calculate D2E/DX2 analytically  !
 ! A8    A(4,5,6)              122.4104         calculate D2E/DX2 analytically  !
 ! A9    A(4,5,13)             121.5714         calculate D2E/DX2 analytically  !
 ! A10   A(6,5,13)             116.0163         calculate D2E/DX2 analytically  !
 ! A11   A(5,6,7)              111.3068         calculate D2E/DX2 analytically  !
 ! A12   A(5,6,8)              110.9044         calculate D2E/DX2 analytically  !
 ! A13   A(5,6,14)             108.9618         calculate D2E/DX2 analytically  !
 ! A14   A(7,6,8)              111.137          calculate D2E/DX2 analytically  !
 ! A15   A(7,6,14)             107.8164         calculate D2E/DX2 analytically  !
 ! A16   A(8,6,14)             106.5252         calculate D2E/DX2 analytically  !
 ! A17   A(6,7,15)             109.7939         calculate D2E/DX2 analytically  !
 ! A18   A(6,7,16)             110.4828         calculate D2E/DX2 analytically  !
 ! A19   A(6,7,17)             111.2312         calculate D2E/DX2 analytically  !
 ! A20   A(15,7,16)            106.2095         calculate D2E/DX2 analytically  !
 ! A21   A(15,7,17)            109.1538         calculate D2E/DX2 analytically  !
 ! A22   A(16,7,17)            109.836          calculate D2E/DX2 analytically  !
 ! A23   A(6,8,18)             111.8516         calculate D2E/DX2 analytically  !
 ! A24   A(6,8,19)             111.0144         calculate D2E/DX2 analytically  !
 ! A25   A(6,8,20)             109.9207         calculate D2E/DX2 analytically  !
 ! A26   A(18,8,19)            107.9742         calculate D2E/DX2 analytically  !
 ! A27   A(18,8,20)            108.3988         calculate D2E/DX2 analytically  !
 ! A28   A(19,8,20)            107.5394         calculate D2E/DX2 analytically  !
 ! A29   A(2,9,10)             115.3925         calculate D2E/DX2 analytically  !
 ! A30   A(9,10,11)            112.106          calculate D2E/DX2 analytically  !
 ! A31   A(9,10,21)            110.3084         calculate D2E/DX2 analytically  !
 ! A32   A(9,10,22)            106.2979         calculate D2E/DX2 analytically  !
 ! A33   A(11,10,21)           109.0446         calculate D2E/DX2 analytically  !
 ! A34   A(11,10,22)           110.3088         calculate D2E/DX2 analytically  !
 ! A35   A(21,10,22)           108.7022         calculate D2E/DX2 analytically  !
 ! A36   A(10,11,23)           111.286          calculate D2E/DX2 analytically  !
 ! A37   A(10,11,24)           108.4619         calculate D2E/DX2 analytically  !
 ! A38   A(10,11,25)           110.2657         calculate D2E/DX2 analytically  !
 ! A39   A(23,11,24)           109.0954         calculate D2E/DX2 analytically  !
 ! A40   A(23,11,25)           108.729          calculate D2E/DX2 analytically  !
 ! A41   A(24,11,25)           108.9652         calculate D2E/DX2 analytically  !
 ! D1    D(1,2,3,4)              0.396          calculate D2E/DX2 analytically  !
 ! D2    D(1,2,3,12)          -179.5236         calculate D2E/DX2 analytically  !
 ! D3    D(9,2,3,4)           -179.6605         calculate D2E/DX2 analytically  !
 ! D4    D(9,2,3,12)             0.4199         calculate D2E/DX2 analytically  !
 ! D5    D(1,2,9,10)            -0.627          calculate D2E/DX2 analytically  !
 ! D6    D(3,2,9,10)           179.4213         calculate D2E/DX2 analytically  !
 ! D7    D(2,3,4,5)           -179.6562         calculate D2E/DX2 analytically  !
 ! D8    D(12,3,4,5)             0.2607         calculate D2E/DX2 analytically  !
 ! D9    D(3,4,5,6)            179.7592         calculate D2E/DX2 analytically  !
 ! D10   D(3,4,5,13)             0.2827         calculate D2E/DX2 analytically  !
 ! D11   D(4,5,6,7)              5.0836         calculate D2E/DX2 analytically  !
 ! D12   D(4,5,6,8)            129.3676         calculate D2E/DX2 analytically  !
 ! D13   D(4,5,6,14)          -113.6844         calculate D2E/DX2 analytically  !
 ! D14   D(13,5,6,7)          -175.4128         calculate D2E/DX2 analytically  !
 ! D15   D(13,5,6,8)           -51.1287         calculate D2E/DX2 analytically  !
 ! D16   D(13,5,6,14)           65.8192         calculate D2E/DX2 analytically  !
 ! D17   D(5,6,7,15)            61.5869         calculate D2E/DX2 analytically  !
 ! D18   D(5,6,7,16)           -55.23           calculate D2E/DX2 analytically  !
 ! D19   D(5,6,7,17)          -177.4877         calculate D2E/DX2 analytically  !
 ! D20   D(8,6,7,15)           -62.5657         calculate D2E/DX2 analytically  !
 ! D21   D(8,6,7,16)          -179.3826         calculate D2E/DX2 analytically  !
 ! D22   D(8,6,7,17)            58.3597         calculate D2E/DX2 analytically  !
 ! D23   D(14,6,7,15)         -178.9612         calculate D2E/DX2 analytically  !
 ! D24   D(14,6,7,16)           64.2219         calculate D2E/DX2 analytically  !
 ! D25   D(14,6,7,17)          -58.0359         calculate D2E/DX2 analytically  !
 ! D26   D(5,6,8,18)           174.879          calculate D2E/DX2 analytically  !
 ! D27   D(5,6,8,19)            54.2007         calculate D2E/DX2 analytically  !
 ! D28   D(5,6,8,20)           -64.6545         calculate D2E/DX2 analytically  !
 ! D29   D(7,6,8,18)           -60.7404         calculate D2E/DX2 analytically  !
 ! D30   D(7,6,8,19)           178.5813         calculate D2E/DX2 analytically  !
 ! D31   D(7,6,8,20)            59.7261         calculate D2E/DX2 analytically  !
 ! D32   D(14,6,8,18)           56.4453         calculate D2E/DX2 analytically  !
 ! D33   D(14,6,8,19)          -64.2329         calculate D2E/DX2 analytically  !
 ! D34   D(14,6,8,20)          176.9119         calculate D2E/DX2 analytically  !
 ! D35   D(2,9,10,11)          -79.9132         calculate D2E/DX2 analytically  !
 ! D36   D(2,9,10,21)           41.8127         calculate D2E/DX2 analytically  !
 ! D37   D(2,9,10,22)          159.4855         calculate D2E/DX2 analytically  !
 ! D38   D(9,10,11,23)        -175.8708         calculate D2E/DX2 analytically  !
 ! D39   D(9,10,11,24)          64.115          calculate D2E/DX2 analytically  !
 ! D40   D(9,10,11,25)         -55.1274         calculate D2E/DX2 analytically  !
 ! D41   D(21,10,11,23)         61.6824         calculate D2E/DX2 analytically  !
 ! D42   D(21,10,11,24)        -58.3318         calculate D2E/DX2 analytically  !
 ! D43   D(21,10,11,25)       -177.5742         calculate D2E/DX2 analytically  !
 ! D44   D(22,10,11,23)        -57.6224         calculate D2E/DX2 analytically  !
 ! D45   D(22,10,11,24)       -177.6365         calculate D2E/DX2 analytically  !
 ! D46   D(22,10,11,25)         63.1211         calculate D2E/DX2 analytically  !
 --------------------------------------------------------------------------------
 Trust Radius=3.00D-01 FncErr=1.00D-07 GrdErr=1.00D-07 EigMax=2.50D+02 EigMin=1.00D-04
 Number of steps in this run=      2 maximum allowed number of steps=      2.
 GradGradGradGradGradGradGradGradGradGradGradGradGradGradGradGradGradGrad

                          Input orientation:                          
 ---------------------------------------------------------------------
 Center     Atomic      Atomic             Coordinates (Angstroms)
 Number     Number       Type             X           Y           Z
 ---------------------------------------------------------------------
      1          8           0        1.592900   -0.189848   -1.244901
      2          6           0        1.422058    0.284235   -0.127226
      3          6           0        0.242950    0.555832    0.597557
      4          7           0       -0.970976    0.279910    0.070046
      5          6           0       -2.083832    0.505513    0.667690
      6          6           0       -3.421058    0.186063    0.038312
      7          6           0       -3.248216   -0.530408   -1.295821
      8          6           0       -4.294789   -0.631995    0.995924
      9          8           0        2.558084    0.647958    0.627959
     10          6           0        3.790610    0.410234    0.009980
     11          6           0        4.214057   -1.049144    0.117978
     12          1           0        0.343082    0.998105    1.599485
     13          1           0       -2.118236    0.958710    1.682795
     14          1           0       -3.965809    1.135445   -0.153661
     15          1           0       -2.727092   -1.486815   -1.140332
     16          1           0       -2.612516    0.058970   -1.968673
     17          1           0       -4.222594   -0.722997   -1.774837
     18          1           0       -5.307126   -0.796656    0.589000
     19          1           0       -4.397644   -0.124263    1.968197
     20          1           0       -3.830607   -1.613953    1.181555
     21          1           0        3.746070    0.693853   -1.053630
     22          1           0        4.522565    1.059971    0.518978
     23          1           0        5.218095   -1.206906   -0.307805
     24          1           0        3.489749   -1.662981   -0.433127
     25          1           0        4.223246   -1.366364    1.171578
 ---------------------------------------------------------------------
                    Distance matrix (angstroms):
                    1          2          3          4          5
     1  O    0.000000
     2  C    1.226025   0.000000
     3  C    2.402718   1.410451   0.000000
     4  N    2.919456   2.401155   1.352042   0.000000
     5  C    4.202367   3.601683   2.328382   1.283169   0.000000
     6  C    5.189192   4.846938   3.724840   2.452083   1.512064
     7  C    4.853347   4.882695   4.117406   2.776333   2.506849
     8  C    6.315194   5.897735   4.707516   3.568831   2.507986
     9  O    2.267400   1.411791   2.317166   3.591795   4.644271
    10  C    2.600913   2.375866   3.598935   4.763748   5.911914
    11  C    3.076734   3.103753   4.309946   5.352874   6.510188
    12  H    3.326230   2.157622   1.099769   2.140499   2.645902
    13  H    4.864475   4.032961   2.629687   2.092351   1.112209
    14  H    5.817770   5.454756   4.314386   3.122660   2.147852
    15  H    4.511695   4.623683   4.001726   2.769526   2.766242
    16  H    4.274492   4.440659   3.871188   2.626755   2.725677
    17  H    5.863877   5.965838   5.215816   3.870714   3.471235
    18  H    7.165317   6.852972   5.712499   4.497833   3.477278
    19  H    6.798156   6.198919   4.886338   3.938068   2.727941
    20  H    6.109844   5.736420   4.652192   3.605504   2.794176
    21  H    2.335306   2.535162   3.875219   4.866675   6.081626
    22  H    3.640913   3.260750   4.309923   5.566779   6.631291
    23  H    3.880024   4.082402   5.355277   6.376362   7.563207
    24  H    2.535179   2.856672   4.065360   4.891429   6.081034
    25  H    3.760622   3.501146   4.457252   5.559095   6.598262
                    6          7          8          9         10
     6  C    0.000000
     7  C    1.524176   0.000000
     8  C    1.532856   2.521454   0.000000
     9  O    6.025875   6.229172   6.981085   0.000000
    10  C    7.215206   7.220456   8.211699   1.399118   0.000000
    11  C    7.734796   7.612715   8.564186   2.425383   1.523403
    12  H    4.155168   4.859688   4.952914   2.443911   3.841558
    13  H    2.235767   3.516600   2.781999   4.803875   6.165517
    14  H    1.111275   2.143486   2.133921   6.588608   7.791966
    15  H    2.160858   1.100210   2.784238   5.968014   6.884944
    16  H    2.167460   1.097365   3.477976   5.815884   6.711071
    17  H    2.180907   1.102705   2.773195   7.323287   8.287413
    18  H    2.196873   2.804024   1.103416   7.996872   9.195686
    19  H    2.185059   3.484243   1.101674   7.125638   8.436101
    20  H    2.171358   2.765980   1.101893   6.799859   7.972005
    21  H    7.267593   7.104753   8.403212   2.059408   1.101675
    22  H    8.005991   8.136819   8.990882   2.010178   1.103175
    23  H    8.757575   8.550569   9.619002   3.375179   2.180331
    24  H    7.169412   6.886736   7.981489   2.708199   2.141281
    25  H    7.882239   7.912624   8.551437   2.669416   2.166284
                   11         12         13         14         15
    11  C    0.000000
    12  H    4.622828   0.000000
    13  H    6.824813   2.463043   0.000000
    14  H    8.470916   4.653915   2.611002   0.000000
    15  H    7.067847   4.807015   3.784355   3.063361   0.000000
    16  H    7.223858   4.727503   3.793029   2.506884   1.757477
    17  H    8.652526   5.932422   4.383113   2.479507   1.795143
    18  H    9.536171   6.013909   3.800884   2.466514   3.181742
    19  H    8.856643   4.885708   2.539682   2.505121   3.782888
    20  H    8.134300   4.941375   3.130823   3.059456   2.573921
    21  H    2.151677   4.325728   6.476748   7.776762   6.831154
    22  H    2.168950   4.317337   6.742771   8.515317   7.861104
    23  H    1.101940   5.680280   7.904058   9.479159   7.993588
    24  H    1.097786   4.595042   6.542163   7.968352   6.259416
    25  H    1.100358   4.563934   6.773604   8.664636   7.325752
                   16         17         18         19         20
    16  H    0.000000
    17  H    1.800388   0.000000
    18  H    3.812442   2.601799   0.000000
    19  H    4.326570   3.794658   1.783664   0.000000
    20  H    3.769132   3.112509   1.788633   1.777502   0.000000
    21  H    6.455385   8.125713   9.320956   8.724726   8.229706
    22  H    7.622322   9.215116  10.003739   9.114427   8.795701
    23  H    8.104282   9.566240  10.571322   9.940560   9.179482
    24  H    6.523853   7.884414   8.898330   8.387192   7.496480
    25  H    7.656395   8.968137   9.565143   8.746265   8.057664
                   21         22         23         24         25
    21  H    0.000000
    22  H    1.791670   0.000000
    23  H    2.517140   2.511187   0.000000
    24  H    2.450589   3.063932   1.791895   0.000000
    25  H    3.069811   2.530332   1.789896   1.789156   0.000000
 Stoichiometry    C8H14NO2(1-)
 Framework group  C1[X(C8H14NO2)]
 Deg. of freedom    69
 Full point group                 C1      NOp   1
 Largest Abelian subgroup         C1      NOp   1
 Largest concise Abelian subgroup C1      NOp   1
                         Standard orientation:                         
 ---------------------------------------------------------------------
 Center     Atomic      Atomic             Coordinates (Angstroms)
 Number     Number       Type             X           Y           Z
 ---------------------------------------------------------------------
      1          8           0       -1.629654    1.240489   -0.296150
      2          6           0       -1.447134    0.028126   -0.295167
      3          6           0       -0.260164   -0.733707   -0.286036
      4          7           0        0.948753   -0.128546   -0.268170
      5          6           0        2.068020   -0.756046   -0.265370
      6          6           0        3.399134   -0.038933   -0.250476
      7          6           0        3.214939    1.467906   -0.114015
      8          6           0        4.303756   -0.587896    0.858554
      9          8           0       -2.575633   -0.820126   -0.305760
     10          6           0       -3.814687   -0.170305   -0.302702
     11          6           0       -4.210919    0.301955    1.090398
     12          1           0       -0.350047   -1.829758   -0.295247
     13          1           0        2.112677   -1.867226   -0.282501
     14          1           0        3.923930   -0.231735   -1.210867
     15          1           0        2.713235    1.697230    0.837911
     16          1           0        2.557290    1.847668   -0.906157
     17          1           0        4.183808    1.993348   -0.148125
     18          1           0        5.311374   -0.139349    0.826327
     19          1           0        4.415139   -1.680570    0.772872
     20          1           0        3.859952   -0.375647    1.844533
     21          1           0       -3.793993    0.695616   -0.983467
     22          1           0       -4.548555   -0.901268   -0.682340
     23          1           0       -5.219511    0.745817    1.090508
     24          1           0       -3.486065    1.057379    1.420633
     25          1           0       -4.195873   -0.541179    1.797283
 ---------------------------------------------------------------------
 Rotational constants (GHZ):           3.3330379           0.3700259           0.3553674
 Standard basis: def2SVP (5D, 7F)
 There are   235 symmetry adapted cartesian basis functions of A   symmetry.
 There are   224 symmetry adapted basis functions of A   symmetry.
   224 basis functions,   373 primitive gaussians,   235 cartesian basis functions
    43 alpha electrons       43 beta electrons
       nuclear repulsion energy       596.7438611113 Hartrees.
 NAtoms=   25 NActive=   25 NUniq=   25 SFac= 1.00D+00 NAtFMM=   60 NAOKFM=F Big=F
 Integral buffers will be    131072 words long.
 Raffenetti 2 integral format.
 Two-electron integral symmetry is turned on.
 Nuclear repulsion after empirical dispersion term =      596.7430624097 Hartrees.
 One-electron integrals computed using PRISM.
   1 Symmetry operations used in ECPInt.
 ECPInt:  NShTT=    5886 NPrTT=   20688 LenC2=    5347 LenP2D=   14006.
 LDataN:  DoStor=T MaxTD1= 4 Len=   56
 NBasis=   224 RedAO= T EigKep=  1.18D-03  NBF=   224
 NBsUse=   224 1.00D-06 EigRej= -1.00D+00 NBFU=   224
 Initial guess from the checkpoint file:  "A18_crest_conformers_censo-13.chk"
 B after Tr=    -0.000000   -0.000000   -0.000000
         Rot=    1.000000    0.000000    0.000000    0.000000 Ang=   0.00 deg.
 Requested convergence on RMS density matrix=1.00D-08 within 128 cycles.
 Requested convergence on MAX density matrix=1.00D-06.
 Requested convergence on             energy=1.00D-06.
 No special actions if energy rises.
 SCF Done:  E(RM062X) =  -517.870610795     A.U. after    1 cycles
            NFock=  1  Conv=0.32D-08     -V/T= 2.0100
 DoSCS=F DFT=T ScalE2(SS,OS)=  1.000000  1.000000
 Range of M.O.s used for correlation:     1   224
 NBasis=   224 NAE=    43 NBE=    43 NFC=     0 NFV=     0
 NROrb=    224 NOA=    43 NOB=    43 NVA=   181 NVB=   181
   1 Symmetry operations used in ECPInt.
 ECPInt:  NShTT=    5886 NPrTT=   20688 LenC2=    5347 LenP2D=   14006.
 LDataN:  DoStor=T MaxTD1= 5 Len=  102
 Symmetrizing basis deriv contribution to polar:
 IMax=3 JMax=2 DiffMx= 0.00D+00
 G2DrvN: will do    26 centers at a time, making    1 passes.
 Calling FoFCou, ICntrl=  3107 FMM=F I1Cent=   0 AccDes= 0.00D+00.
 End of G2Drv F.D. properties file   721 does not exist.
 End of G2Drv F.D. properties file   722 does not exist.
 End of G2Drv F.D. properties file   788 does not exist.
          IDoAtm=1111111111111111111111111
          Differentiating once with respect to electric field.
                with respect to dipole field.
          Differentiating once with respect to nuclear coordinates.
 Keep R1 ints in memory in canonical form, NReq=351527234.
          There are    78 degrees of freedom in the 1st order CPHF.  IDoFFX=6 NUNeed=     3.
     75 vectors produced by pass  0 Test12= 9.98D-15 1.28D-09 XBig12= 1.26D+02 8.06D+00.
 AX will form    75 AO Fock derivatives at one time.
     75 vectors produced by pass  1 Test12= 9.98D-15 1.28D-09 XBig12= 1.08D+01 7.31D-01.
     75 vectors produced by pass  2 Test12= 9.98D-15 1.28D-09 XBig12= 2.31D-01 5.61D-02.
     75 vectors produced by pass  3 Test12= 9.98D-15 1.28D-09 XBig12= 2.70D-03 8.84D-03.
     75 vectors produced by pass  4 Test12= 9.98D-15 1.28D-09 XBig12= 1.84D-05 4.89D-04.
     75 vectors produced by pass  5 Test12= 9.98D-15 1.28D-09 XBig12= 6.26D-08 2.30D-05.
     39 vectors produced by pass  6 Test12= 9.98D-15 1.28D-09 XBig12= 1.77D-10 1.09D-06.
      4 vectors produced by pass  7 Test12= 9.98D-15 1.28D-09 XBig12= 4.08D-13 5.54D-08.
      1 vectors produced by pass  8 Test12= 9.98D-15 1.28D-09 XBig12= 9.53D-16 2.98D-09.
 InvSVY:  IOpt=1 It=  1 EMax= 4.44D-15
 Solved reduced A of dimension   494 with    78 vectors.
 Isotropic polarizability for W=    0.000000      126.12 Bohr**3.
 End of Minotr F.D. properties file   721 does not exist.
 End of Minotr F.D. properties file   722 does not exist.
 End of Minotr F.D. properties file   788 does not exist.

 **********************************************************************

            Population analysis using the SCF Density.

 **********************************************************************

 Orbital symmetries:
       Occupied  (A) (A) (A) (A) (A) (A) (A) (A) (A) (A) (A) (A)
                 (A) (A) (A) (A) (A) (A) (A) (A) (A) (A) (A) (A)
                 (A) (A) (A) (A) (A) (A) (A) (A) (A) (A) (A) (A)
                 (A) (A) (A) (A) (A) (A) (A)
       Virtual   (A) (A) (A) (A) (A) (A) (A) (A) (A) (A) (A) (A)
                 (A) (A) (A) (A) (A) (A) (A) (A) (A) (A) (A) (A)
                 (A) (A) (A) (A) (A) (A) (A) (A) (A) (A) (A) (A)
                 (A) (A) (A) (A) (A) (A) (A) (A) (A) (A) (A) (A)
                 (A) (A) (A) (A) (A) (A) (A) (A) (A) (A) (A) (A)
                 (A) (A) (A) (A) (A) (A) (A) (A) (A) (A) (A) (A)
                 (A) (A) (A) (A) (A) (A) (A) (A) (A) (A) (A) (A)
                 (A) (A) (A) (A) (A) (A) (A) (A) (A) (A) (A) (A)
                 (A) (A) (A) (A) (A) (A) (A) (A) (A) (A) (A) (A)
                 (A) (A) (A) (A) (A) (A) (A) (A) (A) (A) (A) (A)
                 (A) (A) (A) (A) (A) (A) (A) (A) (A) (A) (A) (A)
                 (A) (A) (A) (A) (A) (A) (A) (A) (A) (A) (A) (A)
                 (A) (A) (A) (A) (A) (A) (A) (A) (A) (A) (A) (A)
                 (A) (A) (A) (A) (A) (A) (A) (A) (A) (A) (A) (A)
                 (A) (A) (A) (A) (A) (A) (A) (A) (A) (A) (A) (A)
                 (A)
 The electronic state is 1-A.
 Alpha  occ. eigenvalues --  -19.47620 -19.40249 -14.57620 -10.46806 -10.45719
 Alpha  occ. eigenvalues --  -10.42341 -10.41543 -10.41493 -10.40566 -10.39137
 Alpha  occ. eigenvalues --  -10.35229  -1.01073  -0.90912  -0.83432  -0.74529
 Alpha  occ. eigenvalues --   -0.70636  -0.63617  -0.62388  -0.57451  -0.52977
 Alpha  occ. eigenvalues --   -0.47059  -0.43633  -0.41260  -0.39644  -0.38262
 Alpha  occ. eigenvalues --   -0.37538  -0.36138  -0.34871  -0.33409  -0.32391
 Alpha  occ. eigenvalues --   -0.31631  -0.31141  -0.29228  -0.28166  -0.26680
 Alpha  occ. eigenvalues --   -0.26182  -0.25395  -0.23892  -0.22322  -0.18276
 Alpha  occ. eigenvalues --   -0.14995  -0.13105  -0.03415
 Alpha virt. eigenvalues --    0.20351   0.22858   0.23509   0.26163   0.26486
 Alpha virt. eigenvalues --    0.27453   0.28150   0.28408   0.29143   0.29940
 Alpha virt. eigenvalues --    0.30062   0.32094   0.33011   0.33195   0.33947
 Alpha virt. eigenvalues --    0.35225   0.36575   0.38350   0.39929   0.41072
 Alpha virt. eigenvalues --    0.44804   0.46390   0.48410   0.52291   0.56253
 Alpha virt. eigenvalues --    0.57853   0.58863   0.60106   0.60895   0.61371
 Alpha virt. eigenvalues --    0.62806   0.64217   0.66029   0.68349   0.69613
 Alpha virt. eigenvalues --    0.71610   0.73352   0.75109   0.77566   0.78127
 Alpha virt. eigenvalues --    0.79087   0.80618   0.80754   0.81923   0.82833
 Alpha virt. eigenvalues --    0.83177   0.83736   0.84172   0.85288   0.85802
 Alpha virt. eigenvalues --    0.85997   0.86318   0.86869   0.86979   0.87564
 Alpha virt. eigenvalues --    0.88123   0.88836   0.89310   0.89704   0.91038
 Alpha virt. eigenvalues --    0.92165   0.93245   0.95699   1.00321   1.02521
 Alpha virt. eigenvalues --    1.03223   1.05618   1.09619   1.10504   1.11797
 Alpha virt. eigenvalues --    1.17114   1.19559   1.21472   1.26022   1.29509
 Alpha virt. eigenvalues --    1.31287   1.32995   1.33922   1.36045   1.39859
 Alpha virt. eigenvalues --    1.41528   1.44151   1.45087   1.48891   1.50043
 Alpha virt. eigenvalues --    1.53766   1.56491   1.59599   1.60071   1.64369
 Alpha virt. eigenvalues --    1.66522   1.70309   1.71024   1.71993   1.73072
 Alpha virt. eigenvalues --    1.73918   1.75131   1.77609   1.80209   1.88407
 Alpha virt. eigenvalues --    1.90782   1.91381   1.91485   1.92793   1.94601
 Alpha virt. eigenvalues --    1.94878   1.94897   1.96922   1.98173   1.98364
 Alpha virt. eigenvalues --    1.98908   1.99730   2.01346   2.01722   2.02970
 Alpha virt. eigenvalues --    2.04657   2.06089   2.06394   2.06714   2.09596
 Alpha virt. eigenvalues --    2.10677   2.11025   2.12137   2.13661   2.15738
 Alpha virt. eigenvalues --    2.16304   2.19897   2.20201   2.22722   2.26432
 Alpha virt. eigenvalues --    2.29103   2.30612   2.32649   2.36301   2.38245
 Alpha virt. eigenvalues --    2.41705   2.42586   2.46120   2.47767   2.52322
 Alpha virt. eigenvalues --    2.52873   2.53893   2.55565   2.58865   2.65117
 Alpha virt. eigenvalues --    2.66027   2.68944   2.69579   2.72491   2.75107
 Alpha virt. eigenvalues --    2.76774   2.82035   2.82999   2.85773   2.90387
 Alpha virt. eigenvalues --    2.91790   2.93188   2.95488   2.96166   2.99257
 Alpha virt. eigenvalues --    3.00560   3.02546   3.03281   3.04862   3.06184
 Alpha virt. eigenvalues --    3.07783   3.08505   3.13448   3.15663   3.16906
 Alpha virt. eigenvalues --    3.20401   3.21615   3.24927   3.28674   3.39194
 Alpha virt. eigenvalues --    3.44824   3.55024   3.57149   3.68792   3.84030
 Alpha virt. eigenvalues --    3.94651
          Condensed to atoms (all electrons):
               1          2          3          4          5          6
     1  O    7.868490   0.674729  -0.102842   0.001222   0.000274   0.000023
     2  C    0.674729   4.595032   0.330501  -0.060751   0.012146   0.000203
     3  C   -0.102842   0.330501   5.383905   0.428096  -0.115557   0.018873
     4  N    0.001222  -0.060751   0.428096   6.245124   0.652810  -0.133873
     5  C    0.000274   0.012146  -0.115557   0.652810   5.116562   0.185057
     6  C    0.000023   0.000203   0.018873  -0.133873   0.185057   5.253611
     7  C   -0.000084  -0.000258  -0.000353   0.018636  -0.038258   0.354292
     8  C   -0.000000  -0.000002  -0.000082   0.002528  -0.081015   0.385807
     9  O   -0.098452   0.284041  -0.113707   0.001971  -0.000097  -0.000000
    10  C    0.007508  -0.041312   0.010772  -0.000180   0.000012  -0.000000
    11  C   -0.019700  -0.006101  -0.001200   0.000013  -0.000002   0.000000
    12  H    0.003672  -0.060617   0.373055  -0.045655  -0.014503  -0.002501
    13  H   -0.000019  -0.001449  -0.018154  -0.040588   0.414052  -0.147255
    14  H   -0.000001   0.000032   0.000052   0.000165  -0.023858   0.337396
    15  H    0.000075  -0.000066  -0.000639   0.008033  -0.006946  -0.021097
    16  H    0.000204  -0.000102  -0.000602   0.015807  -0.010864  -0.011683
    17  H    0.000000  -0.000007   0.000005   0.001229   0.010533  -0.034723
    18  H    0.000000   0.000000   0.000002  -0.000166   0.010097  -0.016488
    19  H   -0.000000  -0.000001  -0.000039   0.000088  -0.005024  -0.024789
    20  H    0.000000  -0.000005  -0.000323   0.000863   0.005785  -0.029122
    21  H    0.027057  -0.009802   0.002333  -0.000005   0.000001   0.000000
    22  H    0.000833   0.006871   0.000049   0.000003  -0.000000  -0.000000
    23  H    0.000097   0.000134  -0.000008  -0.000000   0.000000  -0.000000
    24  H    0.022735   0.002275  -0.000466  -0.000004   0.000005  -0.000000
    25  H    0.000554  -0.000235  -0.000158   0.000001   0.000000  -0.000000
               7          8          9         10         11         12
     1  O   -0.000084  -0.000000  -0.098452   0.007508  -0.019700   0.003672
     2  C   -0.000258  -0.000002   0.284041  -0.041312  -0.006101  -0.060617
     3  C   -0.000353  -0.000082  -0.113707   0.010772  -0.001200   0.373055
     4  N    0.018636   0.002528   0.001971  -0.000180   0.000013  -0.045655
     5  C   -0.038258  -0.081015  -0.000097   0.000012  -0.000002  -0.014503
     6  C    0.354292   0.385807  -0.000000  -0.000000   0.000000  -0.002501
     7  C    4.584931  -0.046865  -0.000000   0.000000  -0.000000   0.000213
     8  C   -0.046865   4.750986  -0.000000  -0.000000   0.000000   0.000023
     9  O   -0.000000  -0.000000   8.165197   0.290122  -0.052208   0.010420
    10  C    0.000000  -0.000000   0.290122   4.423314   0.421094  -0.000209
    11  C   -0.000000   0.000000  -0.052208   0.421094   4.764720   0.000094
    12  H    0.000213   0.000023   0.010420  -0.000209   0.000094   0.783230
    13  H    0.013064   0.000576   0.000000   0.000003  -0.000000   0.018603
    14  H   -0.026790  -0.061334  -0.000000   0.000000  -0.000000   0.000036
    15  H    0.389057  -0.012740   0.000001   0.000000  -0.000000   0.000061
    16  H    0.383533   0.009930   0.000002  -0.000000   0.000000   0.000128
    17  H    0.372346  -0.006956   0.000000   0.000000  -0.000000   0.000007
    18  H   -0.008042   0.353123   0.000000   0.000000  -0.000000   0.000000
    19  H    0.009408   0.379048   0.000000   0.000000  -0.000000   0.000028
    20  H   -0.008129   0.372653   0.000000   0.000000  -0.000000   0.000006
    21  H    0.000000   0.000000  -0.034204   0.379974  -0.042372  -0.000044
    22  H    0.000000  -0.000000  -0.031851   0.380502  -0.045582  -0.000200
    23  H   -0.000000  -0.000000   0.005091  -0.013280   0.342913  -0.000002
    24  H   -0.000000  -0.000000  -0.006596  -0.009197   0.375957  -0.000130
    25  H    0.000000  -0.000000   0.004002  -0.019338   0.366773   0.000062
              13         14         15         16         17         18
     1  O   -0.000019  -0.000001   0.000075   0.000204   0.000000   0.000000
     2  C   -0.001449   0.000032  -0.000066  -0.000102  -0.000007   0.000000
     3  C   -0.018154   0.000052  -0.000639  -0.000602   0.000005   0.000002
     4  N   -0.040588   0.000165   0.008033   0.015807   0.001229  -0.000166
     5  C    0.414052  -0.023858  -0.006946  -0.010864   0.010533   0.010097
     6  C   -0.147255   0.337396  -0.021097  -0.011683  -0.034723  -0.016488
     7  C    0.013064  -0.026790   0.389057   0.383533   0.372346  -0.008042
     8  C    0.000576  -0.061334  -0.012740   0.009930  -0.006956   0.353123
     9  O    0.000000  -0.000000   0.000001   0.000002   0.000000   0.000000
    10  C    0.000003   0.000000   0.000000  -0.000000   0.000000   0.000000
    11  C   -0.000000  -0.000000  -0.000000   0.000000  -0.000000  -0.000000
    12  H    0.018603   0.000036   0.000061   0.000128   0.000007   0.000000
    13  H    0.816870   0.001381   0.000666   0.001042  -0.000272  -0.000290
    14  H    0.001381   0.781270   0.010259  -0.008454  -0.006328  -0.004407
    15  H    0.000666   0.010259   0.648364  -0.018754  -0.029460  -0.000505
    16  H    0.001042  -0.008454  -0.018754   0.624111  -0.026670  -0.000335
    17  H   -0.000272  -0.006328  -0.029460  -0.026670   0.731897   0.005529
    18  H   -0.000290  -0.004407  -0.000505  -0.000335   0.005529   0.716720
    19  H    0.007279  -0.005501   0.000109  -0.000431  -0.000013  -0.028064
    20  H   -0.000409   0.011650   0.008820  -0.000191  -0.000923  -0.023973
    21  H   -0.000000  -0.000000  -0.000000  -0.000000  -0.000000  -0.000000
    22  H    0.000000   0.000000   0.000000  -0.000000   0.000000   0.000000
    23  H    0.000000   0.000000   0.000000  -0.000000   0.000000   0.000000
    24  H   -0.000000   0.000000   0.000001  -0.000000   0.000000   0.000000
    25  H   -0.000000   0.000000   0.000000  -0.000000   0.000000   0.000000
              19         20         21         22         23         24
     1  O   -0.000000   0.000000   0.027057   0.000833   0.000097   0.022735
     2  C   -0.000001  -0.000005  -0.009802   0.006871   0.000134   0.002275
     3  C   -0.000039  -0.000323   0.002333   0.000049  -0.000008  -0.000466
     4  N    0.000088   0.000863  -0.000005   0.000003  -0.000000  -0.000004
     5  C   -0.005024   0.005785   0.000001  -0.000000   0.000000   0.000005
     6  C   -0.024789  -0.029122   0.000000  -0.000000  -0.000000  -0.000000
     7  C    0.009408  -0.008129   0.000000   0.000000  -0.000000  -0.000000
     8  C    0.379048   0.372653   0.000000  -0.000000  -0.000000  -0.000000
     9  O    0.000000   0.000000  -0.034204  -0.031851   0.005091  -0.006596
    10  C    0.000000   0.000000   0.379974   0.380502  -0.013280  -0.009197
    11  C   -0.000000  -0.000000  -0.042372  -0.045582   0.342913   0.375957
    12  H    0.000028   0.000006  -0.000044  -0.000200  -0.000002  -0.000130
    13  H    0.007279  -0.000409  -0.000000   0.000000   0.000000  -0.000000
    14  H   -0.005501   0.011650  -0.000000   0.000000   0.000000   0.000000
    15  H    0.000109   0.008820  -0.000000   0.000000   0.000000   0.000001
    16  H   -0.000431  -0.000191  -0.000000  -0.000000  -0.000000  -0.000000
    17  H   -0.000013  -0.000923  -0.000000   0.000000   0.000000   0.000000
    18  H   -0.028064  -0.023973  -0.000000   0.000000   0.000000   0.000000
    19  H    0.679231  -0.024430   0.000000  -0.000000   0.000000  -0.000000
    20  H   -0.024430   0.666716  -0.000000   0.000000   0.000000   0.000000
    21  H    0.000000  -0.000000   0.702227  -0.037115   0.000432  -0.012741
    22  H   -0.000000   0.000000  -0.037115   0.741264  -0.001684   0.008481
    23  H    0.000000   0.000000   0.000432  -0.001684   0.712240  -0.018818
    24  H   -0.000000   0.000000  -0.012741   0.008481  -0.018818   0.601462
    25  H    0.000000   0.000000   0.010167  -0.010491  -0.023097  -0.023864
              25
     1  O    0.000554
     2  C   -0.000235
     3  C   -0.000158
     4  N    0.000001
     5  C    0.000000
     6  C   -0.000000
     7  C    0.000000
     8  C   -0.000000
     9  O    0.004002
    10  C   -0.019338
    11  C    0.366773
    12  H    0.000062
    13  H   -0.000000
    14  H    0.000000
    15  H    0.000000
    16  H   -0.000000
    17  H    0.000000
    18  H    0.000000
    19  H    0.000000
    20  H    0.000000
    21  H    0.010167
    22  H   -0.010491
    23  H   -0.023097
    24  H   -0.023864
    25  H    0.676135
 Mulliken charges:
               1
     1  O   -0.386377
     2  C    0.274743
     3  C   -0.193512
     4  N   -0.095366
     5  C   -0.111209
     6  C   -0.113730
     7  C    0.003298
     8  C   -0.045681
     9  O   -0.423729
    10  C    0.170216
    11  C   -0.104399
    12  H   -0.065779
    13  H   -0.065099
    14  H   -0.005569
    15  H    0.024763
    16  H    0.043329
    17  H   -0.016194
    18  H   -0.003202
    19  H    0.013102
    20  H    0.021012
    21  H    0.014093
    22  H   -0.011079
    23  H   -0.004018
    24  H    0.060900
    25  H    0.019488
 Sum of Mulliken charges =  -1.00000
 Mulliken charges with hydrogens summed into heavy atoms:
               1
     1  O   -0.386377
     2  C    0.274743
     3  C   -0.259291
     4  N   -0.095366
     5  C   -0.176308
     6  C   -0.119300
     7  C    0.055196
     8  C   -0.014769
     9  O   -0.423729
    10  C    0.173229
    11  C   -0.028029
 APT charges:
               1
     1  O   -1.014764
     2  C    1.773503
     3  C   -0.895190
     4  N    0.402308
     5  C   -0.263001
     6  C    0.228718
     7  C    0.018382
     8  C    0.050953
     9  O   -1.168404
    10  C    0.682109
    11  C   -0.043546
    12  H   -0.045534
    13  H   -0.111409
    14  H   -0.189315
    15  H   -0.004182
    16  H    0.011917
    17  H   -0.070964
    18  H   -0.104895
    19  H   -0.031741
    20  H   -0.013531
    21  H   -0.045275
    22  H   -0.115724
    23  H   -0.068831
    24  H    0.046945
    25  H   -0.028529
 Sum of APT charges =  -1.00000
 APT charges with hydrogens summed into heavy atoms:
               1
     1  O   -1.014764
     2  C    1.773503
     3  C   -0.940724
     4  N    0.402308
     5  C   -0.374410
     6  C    0.039403
     7  C   -0.044847
     8  C   -0.099214
     9  O   -1.168404
    10  C    0.521110
    11  C   -0.093961
 Electronic spatial extent (au):  <R**2>=           3242.4207
 Charge=             -1.0000 electrons
 Dipole moment (field-independent basis, Debye):
    X=              0.7126    Y=             -0.9494    Z=              0.8585  Tot=              1.4650
 Quadrupole moment (field-independent basis, Debye-Ang):
   XX=            -93.3647   YY=            -79.0536   ZZ=            -73.4029
   XY=              1.1727   XZ=             -0.5601   YZ=              0.3014
 Traceless Quadrupole moment (field-independent basis, Debye-Ang):
   XX=            -11.4243   YY=              2.8868   ZZ=              8.5375
   XY=              1.1727   XZ=             -0.5601   YZ=              0.3014
 Octapole moment (field-independent basis, Debye-Ang**2):
  XXX=            -46.9679  YYY=             -2.2446  ZZZ=             -2.5384  XYY=             -1.6204
  XXY=              0.8917  XXZ=            -10.8037  XZZ=             -7.5219  YZZ=              3.3159
  YYZ=              1.1230  XYZ=              1.6116
 Hexadecapole moment (field-independent basis, Debye-Ang**3):
 XXXX=          -4255.9057 YYYY=           -403.0665 ZZZZ=           -237.6700 XXXY=              7.8406
 XXXZ=              6.5960 YYYX=             -0.3194 YYYZ=             -0.0263 ZZZX=              8.7965
 ZZZY=             -2.7400 XXYY=           -759.8582 XXZZ=           -727.0691 YYZZ=           -105.4575
 XXYZ=              1.0432 YYXZ=             -2.9711 ZZXY=              5.5918
 N-N= 5.967430624097D+02 E-N=-2.412883704481D+03  KE= 5.127247057661D+02
  Exact polarizability:     200.237     -11.114      99.493       1.390      -0.091      78.633
 Approx polarizability:     189.403     -17.554     124.277       0.869      -0.166      94.588
   1 Symmetry operations used in ECPInt.
 ECPInt:  NShTT=    5886 NPrTT=   20688 LenC2=    5347 LenP2D=   14006.
 LDataN:  DoStor=T MaxTD1= 6 Len=  172
 Calling FoFJK, ICntrl=    100127 FMM=F ISym2X=0 I1Cent= 0 IOpClX= 0 NMat=1 NMatS=1 NMatT=0.
 Full mass-weighted force constant matrix:
 Low frequencies ---   -6.6537   -3.3357   -0.0008    0.0007    0.0011    5.0093
 Low frequencies ---   32.7632   50.7604   72.6014
 Diagonal vibrational polarizability:
       63.3122606      19.1227847      66.9503253
 Harmonic frequencies (cm**-1), IR intensities (KM/Mole), Raman scattering
 activities (A**4/AMU), depolarization ratios for plane and unpolarized
 incident light, reduced masses (AMU), force constants (mDyne/A),
 and normal coordinates:
                      1                      2                      3
                      A                      A                      A
 Frequencies --     32.6574                50.7580                72.5995
 Red. masses --      2.7182                 4.2875                 3.9114
 Frc consts  --      0.0017                 0.0065                 0.0121
 IR Inten    --      0.2448                 5.0526                 3.5678
  Atom  AN      X      Y      Z        X      Y      Z        X      Y      Z
     1   8     0.02   0.02   0.07     0.02   0.02   0.27    -0.13   0.08  -0.13
     2   6     0.01   0.02  -0.02     0.02   0.01   0.15    -0.04   0.10  -0.03
     3   6     0.00   0.01  -0.09     0.01   0.01   0.11    -0.01   0.16   0.07
     4   7     0.01  -0.01  -0.04     0.02  -0.00   0.10     0.00   0.15   0.03
     5   6    -0.00  -0.02  -0.06     0.01  -0.01  -0.01    -0.04   0.07   0.11
     6   6     0.01  -0.04   0.02     0.02  -0.03  -0.07     0.03  -0.07   0.01
     7   6     0.02  -0.02  -0.16     0.05  -0.02  -0.18     0.21  -0.04  -0.06
     8   6    -0.14   0.07   0.20     0.03   0.04  -0.04     0.03  -0.12  -0.01
     9   8     0.00   0.03  -0.08     0.02   0.02   0.03     0.02   0.01  -0.02
    10   6     0.01   0.04   0.03     0.02   0.02  -0.14    -0.03  -0.10   0.01
    11   6     0.07  -0.11   0.10    -0.22  -0.05  -0.19    -0.05  -0.18   0.04
    12   1    -0.01   0.01  -0.15     0.01   0.01   0.00     0.01   0.15   0.17
    13   1    -0.02  -0.02  -0.10    -0.00  -0.01  -0.07    -0.14   0.06   0.22
    14   1     0.12  -0.16   0.11     0.00  -0.11  -0.06    -0.04  -0.18  -0.01
    15   1    -0.14   0.08  -0.27     0.04   0.06  -0.20     0.31   0.07  -0.04
    16   1     0.16  -0.09  -0.31     0.07  -0.06  -0.21     0.20  -0.02  -0.04
    17   1     0.03  -0.05  -0.06     0.06  -0.04  -0.20     0.27  -0.15  -0.17
    18   1    -0.12   0.04   0.27     0.04   0.01  -0.10     0.08  -0.24  -0.09
    19   1    -0.15   0.06   0.34     0.01   0.03   0.04    -0.11  -0.14   0.03
    20   1    -0.25   0.20   0.12     0.06   0.12  -0.05     0.11  -0.02   0.00
    21   1    -0.01   0.12   0.13     0.13   0.05  -0.10    -0.11  -0.07   0.04
    22   1    -0.01   0.09  -0.02     0.08   0.04  -0.29     0.02  -0.14  -0.00
    23   1     0.07  -0.10   0.19    -0.21  -0.04  -0.33    -0.09  -0.27   0.08
    24   1     0.09  -0.15   0.16    -0.27  -0.07  -0.03    -0.11  -0.13   0.05
    25   1     0.09  -0.18   0.01    -0.34  -0.08  -0.22     0.04  -0.21   0.01
                      4                      5                      6
                      A                      A                      A
 Frequencies --     83.9125               142.9164               186.4075
 Red. masses --      3.3350                 3.3715                 3.6457
 Frc consts  --      0.0138                 0.0406                 0.0746
 IR Inten    --      0.5948                 3.6427                 0.2893
  Atom  AN      X      Y      Z        X      Y      Z        X      Y      Z
     1   8    -0.06  -0.01   0.03    -0.10  -0.04   0.17     0.03   0.01  -0.13
     2   6     0.01  -0.00   0.03    -0.05  -0.04   0.03     0.03   0.01   0.06
     3   6     0.04   0.05  -0.11    -0.02   0.02   0.03     0.01   0.01   0.31
     4   7     0.03   0.07  -0.10    -0.03   0.05   0.09     0.01   0.02   0.17
     5   6     0.02   0.06  -0.18    -0.04   0.04   0.03     0.00   0.02  -0.18
     6   6     0.04   0.01  -0.01    -0.02  -0.00  -0.00    -0.01   0.03  -0.09
     7   6     0.09   0.01   0.04     0.06   0.01  -0.03    -0.06   0.01   0.00
     8   6    -0.13  -0.08   0.09    -0.01  -0.02  -0.02    -0.14  -0.06  -0.02
     9   8     0.05  -0.06   0.19    -0.01  -0.07  -0.18     0.03   0.00  -0.04
    10   6     0.01  -0.12   0.04    -0.02  -0.09  -0.04     0.04   0.01  -0.03
    11   6    -0.08   0.10  -0.06     0.22   0.15  -0.05     0.07  -0.04  -0.01
    12   1     0.07   0.05  -0.14     0.03   0.01  -0.10     0.02   0.01   0.27
    13   1    -0.01   0.06  -0.28    -0.06   0.05  -0.04     0.00   0.02  -0.40
    14   1     0.15   0.03   0.05    -0.05  -0.05  -0.01     0.07   0.08  -0.05
    15   1    -0.05  -0.02  -0.02     0.09   0.06  -0.03    -0.33  -0.09  -0.12
    16   1     0.23   0.08  -0.04     0.07   0.02  -0.04     0.16   0.09  -0.14
    17   1     0.12  -0.03   0.22     0.08  -0.04  -0.07    -0.05   0.02   0.32
    18   1    -0.10  -0.13   0.24     0.02  -0.09  -0.07    -0.14  -0.04   0.16
    19   1    -0.17  -0.08   0.05    -0.08  -0.03   0.01    -0.12  -0.05  -0.11
    20   1    -0.25  -0.11   0.03     0.04   0.04  -0.01    -0.29  -0.15  -0.07
    21   1    -0.01  -0.24  -0.11    -0.19  -0.21  -0.19     0.04   0.03  -0.01
    22   1     0.06  -0.23   0.14    -0.07  -0.18   0.23     0.03   0.02  -0.05
    23   1    -0.11   0.04  -0.19     0.17   0.05   0.06     0.08  -0.03   0.04
    24   1    -0.14   0.21  -0.17     0.22   0.27  -0.33     0.09  -0.06  -0.00
    25   1    -0.06   0.23   0.09     0.42   0.28   0.10     0.09  -0.07  -0.05
                      7                      8                      9
                      A                      A                      A
 Frequencies --    210.1986               229.9491               259.2122
 Red. masses --      2.0715                 1.0928                 1.3837
 Frc consts  --      0.0539                 0.0340                 0.0548
 IR Inten    --      5.3493                 0.2893                 1.6900
  Atom  AN      X      Y      Z        X      Y      Z        X      Y      Z
     1   8     0.02  -0.10  -0.02    -0.01  -0.01  -0.01    -0.06   0.03   0.02
     2   6    -0.02  -0.11  -0.00    -0.01  -0.01  -0.01    -0.00   0.04   0.00
     3   6    -0.00  -0.07   0.02    -0.00  -0.00  -0.03     0.01   0.06  -0.01
     4   7    -0.04   0.03   0.00    -0.00   0.00   0.01     0.02   0.04  -0.02
     5   6    -0.01   0.09  -0.01    -0.00   0.01   0.02    -0.01  -0.02   0.02
     6   6     0.01   0.06  -0.00     0.00   0.00   0.01    -0.01  -0.03   0.00
     7   6     0.15   0.08  -0.00     0.00  -0.00   0.02    -0.07  -0.04  -0.01
     8   6    -0.05  -0.03   0.00     0.06   0.01  -0.02     0.01  -0.01  -0.00
     9   8    -0.07  -0.05  -0.00    -0.02  -0.01   0.00     0.04  -0.02   0.01
    10   6    -0.01   0.08  -0.00    -0.01   0.01   0.01     0.03  -0.05  -0.01
    11   6    -0.00   0.02   0.02    -0.01   0.01   0.01     0.05  -0.00  -0.02
    12   1     0.08  -0.08   0.03     0.01  -0.00  -0.05    -0.00   0.06   0.01
    13   1     0.02   0.09  -0.00     0.00   0.01  -0.02    -0.06  -0.02   0.07
    14   1     0.00   0.02   0.00    -0.02   0.00  -0.00    -0.01  -0.03   0.00
    15   1     0.32   0.15   0.07    -0.43  -0.05  -0.20    -0.12  -0.06  -0.03
    16   1     0.08   0.12   0.07     0.38   0.09  -0.26    -0.06  -0.08  -0.03
    17   1     0.19  -0.01  -0.15     0.04  -0.04   0.48    -0.09   0.00   0.02
    18   1    -0.00  -0.14   0.02     0.13  -0.19  -0.25    -0.05   0.13   0.08
    19   1    -0.17  -0.04   0.01    -0.16  -0.03   0.13     0.17   0.02  -0.09
    20   1    -0.04   0.02  -0.00     0.25   0.25   0.01    -0.06  -0.15  -0.00
    21   1     0.13   0.14   0.08     0.00   0.01   0.01     0.03  -0.06  -0.02
    22   1    -0.08   0.20  -0.10    -0.02   0.02  -0.00     0.03  -0.06   0.01
    23   1     0.16   0.40  -0.05     0.02   0.08  -0.01     0.27   0.49  -0.13
    24   1     0.22  -0.28   0.20     0.03  -0.05   0.04     0.36  -0.35   0.12
    25   1    -0.40  -0.07  -0.08    -0.09  -0.00  -0.00    -0.46  -0.05  -0.06
                     10                     11                     12
                      A                      A                      A
 Frequencies --    271.2221               290.5405               327.6339
 Red. masses --      1.3657                 1.9583                 3.1902
 Frc consts  --      0.0592                 0.0974                 0.2018
 IR Inten    --      1.3925                 1.1659                 5.1145
  Atom  AN      X      Y      Z        X      Y      Z        X      Y      Z
     1   8    -0.04  -0.02  -0.01     0.06  -0.02   0.05     0.08  -0.02  -0.04
     2   6    -0.03  -0.02  -0.01     0.02  -0.03   0.02     0.03  -0.02  -0.06
     3   6    -0.01  -0.01  -0.00     0.01  -0.02   0.03     0.01  -0.01  -0.19
     4   7     0.01  -0.02   0.03    -0.03   0.05  -0.15    -0.04   0.07   0.25
     5   6     0.02  -0.01  -0.01    -0.04   0.05   0.13    -0.06   0.05   0.09
     6   6     0.04  -0.01   0.01    -0.04   0.03   0.00    -0.07   0.02   0.07
     7   6     0.08  -0.00  -0.01    -0.03   0.04  -0.03    -0.06   0.03  -0.10
     8   6     0.07   0.03   0.01    -0.07  -0.08  -0.04    -0.02  -0.09  -0.03
     9   8    -0.05   0.00  -0.03     0.02  -0.01   0.01     0.04  -0.01   0.08
    10   6    -0.05   0.02   0.01     0.04   0.02  -0.02     0.06   0.01   0.00
    11   6    -0.04   0.02   0.02     0.03  -0.01  -0.02     0.01  -0.01  -0.01
    12   1    -0.02  -0.01  -0.04     0.06  -0.02   0.26     0.08  -0.01  -0.52
    13   1     0.04  -0.01  -0.08    -0.05   0.04   0.56    -0.09   0.06  -0.38
    14   1     0.05  -0.02   0.02    -0.08   0.02  -0.02    -0.16  -0.05   0.03
    15   1    -0.10   0.02  -0.11    -0.25   0.06  -0.16    -0.09   0.18  -0.15
    16   1     0.27   0.05  -0.14     0.17   0.05  -0.20    -0.05  -0.10  -0.17
    17   1     0.12  -0.06   0.18    -0.01   0.01   0.18    -0.07   0.03  -0.17
    18   1    -0.10   0.43   0.26    -0.11   0.02   0.14    -0.04  -0.04   0.03
    19   1     0.51   0.10  -0.25     0.03  -0.05  -0.26     0.03  -0.07  -0.26
    20   1    -0.15  -0.39  -0.00    -0.18  -0.33  -0.03    -0.01  -0.31   0.02
    21   1    -0.06   0.02   0.02     0.10   0.04  -0.00     0.13   0.02   0.02
    22   1    -0.06   0.03   0.03     0.04   0.05  -0.07     0.06   0.04  -0.05
    23   1    -0.05  -0.01   0.03    -0.03  -0.15   0.03    -0.02  -0.09  -0.01
    24   1    -0.06   0.05   0.01    -0.05   0.07  -0.04    -0.04   0.04  -0.00
    25   1    -0.00   0.03   0.03     0.18  -0.02  -0.03     0.07  -0.01  -0.01
                     13                     14                     15
                      A                      A                      A
 Frequencies --    363.7765               382.1884               412.7320
 Red. masses --      2.7064                 2.7525                 3.6043
 Frc consts  --      0.2110                 0.2369                 0.3617
 IR Inten    --     11.1738                 1.3322                 3.3350
  Atom  AN      X      Y      Z        X      Y      Z        X      Y      Z
     1   8     0.16   0.07   0.01     0.10   0.05   0.00     0.15  -0.07   0.00
     2   6     0.04   0.06  -0.03     0.01   0.04   0.02     0.05  -0.08  -0.04
     3   6    -0.02  -0.05   0.00    -0.07  -0.04  -0.04     0.08   0.03   0.03
     4   7    -0.00  -0.09   0.02    -0.10  -0.03   0.01    -0.00   0.23  -0.00
     5   6     0.03  -0.01   0.04    -0.11  -0.04   0.01    -0.08   0.07  -0.02
     6   6    -0.00   0.07   0.01    -0.12  -0.05  -0.06    -0.03  -0.11  -0.06
     7   6     0.03   0.08  -0.03     0.13  -0.03   0.08    -0.04  -0.15   0.04
     8   6    -0.04  -0.05  -0.02    -0.06   0.14  -0.05     0.00   0.07  -0.00
     9   8     0.01   0.07  -0.10     0.04   0.03   0.09     0.00  -0.04  -0.13
    10   6    -0.10  -0.16   0.08     0.02  -0.06  -0.05    -0.00  -0.02   0.09
    11   6    -0.09   0.01   0.03     0.08  -0.05  -0.05    -0.12   0.05   0.06
    12   1    -0.09  -0.05  -0.01    -0.11  -0.03  -0.06     0.30   0.02   0.03
    13   1     0.14  -0.01   0.08    -0.12  -0.04  -0.04    -0.30   0.07  -0.01
    14   1    -0.01   0.07   0.00    -0.17  -0.07  -0.08    -0.04  -0.14  -0.06
    15   1    -0.00   0.15  -0.06     0.19  -0.06   0.12    -0.02  -0.30   0.09
    16   1     0.07   0.06  -0.08     0.26   0.27   0.12    -0.09  -0.06   0.13
    17   1     0.04   0.06  -0.02     0.27  -0.28   0.20    -0.05  -0.12   0.09
    18   1    -0.00  -0.14   0.05    -0.15   0.34  -0.10    -0.07   0.23  -0.05
    19   1    -0.14  -0.05  -0.12     0.15   0.15   0.10     0.18   0.08   0.18
    20   1    -0.05  -0.11  -0.01    -0.10   0.20  -0.08    -0.04   0.17  -0.04
    21   1    -0.42  -0.25  -0.06     0.01  -0.09  -0.09    -0.08  -0.02   0.10
    22   1    -0.01  -0.36   0.29     0.06  -0.11  -0.03    -0.02  -0.02   0.13
    23   1     0.01   0.24  -0.13     0.11   0.02   0.05    -0.14   0.01  -0.17
    24   1     0.03  -0.09   0.01     0.17  -0.11  -0.10    -0.22   0.13   0.11
    25   1    -0.36   0.11   0.15     0.10  -0.07  -0.08    -0.23   0.14   0.17
                     16                     17                     18
                      A                      A                      A
 Frequencies --    455.1993               508.8173               642.0235
 Red. masses --      3.2601                 2.7956                 3.2847
 Frc consts  --      0.3980                 0.4264                 0.7977
 IR Inten    --      1.6066                 1.8331                 2.0550
  Atom  AN      X      Y      Z        X      Y      Z        X      Y      Z
     1   8     0.15   0.01   0.00    -0.03   0.02  -0.00    -0.01   0.04   0.00
     2   6    -0.03  -0.02   0.06     0.02   0.02   0.01    -0.04   0.03  -0.02
     3   6    -0.03  -0.01   0.05    -0.06  -0.03   0.07    -0.15  -0.12  -0.01
     4   7    -0.06   0.09  -0.08    -0.10  -0.03  -0.08    -0.18  -0.05   0.02
     5   6    -0.04   0.09  -0.13    -0.10  -0.02  -0.13    -0.03   0.20   0.02
     6   6     0.04  -0.02   0.11    -0.11   0.00   0.16     0.19   0.01  -0.11
     7   6    -0.04  -0.02  -0.03     0.02   0.05  -0.01     0.02  -0.06  -0.01
     8   6     0.15  -0.05   0.08     0.08  -0.02   0.04     0.08  -0.03   0.05
     9   8    -0.10   0.04   0.09     0.11  -0.03  -0.08     0.06   0.01  -0.01
    10   6    -0.15  -0.04  -0.09     0.16  -0.00   0.07     0.10  -0.02   0.03
    11   6     0.06  -0.05  -0.05    -0.02   0.02   0.02     0.02  -0.01  -0.01
    12   1     0.06  -0.02   0.13    -0.12  -0.03   0.18    -0.24  -0.11  -0.10
    13   1    -0.11   0.09  -0.19    -0.09  -0.01  -0.24     0.06   0.19   0.12
    14   1     0.11  -0.02   0.15    -0.04   0.02   0.19     0.13  -0.11  -0.12
    15   1    -0.08   0.09  -0.07     0.05   0.34  -0.06    -0.13  -0.43   0.00
    16   1    -0.10  -0.23  -0.08     0.09  -0.02  -0.11    -0.16  -0.17   0.07
    17   1    -0.11   0.09  -0.13     0.09  -0.10  -0.13    -0.19   0.32   0.11
    18   1     0.13  -0.02  -0.08     0.04   0.05  -0.23     0.11  -0.07   0.28
    19   1     0.19  -0.04   0.00     0.15  -0.00  -0.08     0.04  -0.04   0.16
    20   1     0.32  -0.11   0.17     0.36  -0.12   0.19    -0.15   0.05  -0.07
    21   1    -0.19  -0.09  -0.16     0.17   0.03   0.11     0.10  -0.01   0.04
    22   1    -0.10  -0.12  -0.03     0.13   0.05   0.03     0.09  -0.01   0.01
    23   1     0.12   0.07   0.27    -0.06  -0.06  -0.27     0.00  -0.05  -0.18
    24   1     0.26  -0.17  -0.20    -0.18   0.13   0.14    -0.07   0.05   0.06
    25   1     0.19  -0.11  -0.13    -0.15   0.09   0.11    -0.06   0.03   0.04
                     19                     20                     21
                      A                      A                      A
 Frequencies --    702.7369               715.9793               767.4558
 Red. masses --      3.0765                 1.1737                10.4638
 Frc consts  --      0.8952                 0.3545                 3.6312
 IR Inten    --     30.2656                11.8005                15.4527
  Atom  AN      X      Y      Z        X      Y      Z        X      Y      Z
     1   8    -0.14  -0.11  -0.01     0.00   0.01   0.02     0.02   0.01  -0.24
     2   6     0.07  -0.07   0.02    -0.00   0.00  -0.00    -0.02   0.01   0.82
     3   6     0.08  -0.14  -0.01    -0.00   0.00  -0.11    -0.01   0.02  -0.25
     4   7    -0.02   0.02  -0.00    -0.00  -0.00   0.03     0.00  -0.00  -0.04
     5   6    -0.01   0.05   0.00     0.01   0.01   0.03     0.00  -0.00   0.06
     6   6    -0.03  -0.01   0.02     0.01   0.00  -0.01     0.01   0.00  -0.00
     7   6    -0.00  -0.03   0.00     0.00  -0.01  -0.00     0.00  -0.00  -0.00
     8   6    -0.01   0.00  -0.01    -0.00   0.00  -0.00     0.00   0.00  -0.01
     9   8     0.09   0.25   0.01    -0.00  -0.01  -0.01    -0.02  -0.03  -0.17
    10   6     0.00   0.07  -0.02    -0.00  -0.00  -0.00     0.02   0.01  -0.00
    11   6    -0.00  -0.00  -0.01     0.00  -0.00  -0.00     0.02   0.00   0.01
    12   1     0.19  -0.15   0.08    -0.02  -0.00   0.93    -0.03   0.02  -0.31
    13   1    -0.03   0.06  -0.06     0.02   0.01  -0.34     0.02  -0.00  -0.05
    14   1    -0.03  -0.03   0.02    -0.03  -0.03  -0.02    -0.04  -0.02  -0.03
    15   1     0.00  -0.01  -0.00    -0.00  -0.03   0.00    -0.00  -0.03   0.00
    16   1     0.00  -0.03  -0.01    -0.01  -0.01   0.01    -0.01  -0.00   0.01
    17   1     0.01  -0.06  -0.01    -0.01   0.02   0.01    -0.01   0.02   0.01
    18   1    -0.03   0.04  -0.07     0.00  -0.01   0.03     0.01  -0.01   0.05
    19   1     0.02   0.01  -0.01    -0.02  -0.00   0.00    -0.02  -0.00   0.01
    20   1     0.03  -0.00   0.01    -0.04   0.01  -0.02    -0.05   0.01  -0.03
    21   1    -0.43  -0.16  -0.32     0.02   0.00   0.01    -0.07  -0.00  -0.02
    22   1     0.21  -0.34   0.37    -0.01   0.01  -0.01    -0.02  -0.00   0.09
    23   1    -0.02  -0.04   0.08     0.00   0.00  -0.00    -0.00  -0.04  -0.12
    24   1    -0.01  -0.09   0.21     0.00   0.00  -0.01    -0.09   0.06   0.12
    25   1    -0.02  -0.19  -0.24     0.00   0.01   0.01    -0.08   0.00   0.02
                     22                     23                     24
                      A                      A                      A
 Frequencies --    804.4151               840.5998               863.9442
 Red. masses --      1.3117                 2.6576                 1.6033
 Frc consts  --      0.5001                 1.1064                 0.7051
 IR Inten    --      4.4717                11.7990                23.2359
  Atom  AN      X      Y      Z        X      Y      Z        X      Y      Z
     1   8     0.04   0.01   0.01    -0.00  -0.05  -0.00     0.00  -0.00  -0.00
     2   6    -0.03   0.01  -0.02    -0.01  -0.04   0.00    -0.00  -0.00   0.01
     3   6    -0.03   0.06   0.00     0.00   0.03  -0.02    -0.00  -0.00  -0.09
     4   7     0.00   0.00   0.01    -0.02   0.05   0.02    -0.00   0.00   0.13
     5   6    -0.01  -0.04  -0.00    -0.11  -0.16  -0.01    -0.00   0.00  -0.16
     6   6     0.01  -0.00  -0.02     0.01  -0.05  -0.12     0.00  -0.00   0.00
     7   6    -0.00   0.03  -0.00    -0.03   0.21  -0.02     0.00  -0.01   0.01
     8   6     0.02  -0.01   0.01     0.13  -0.08   0.08    -0.02   0.00   0.01
     9   8    -0.03  -0.07   0.01     0.03   0.07  -0.00    -0.00   0.00  -0.00
    10   6     0.04   0.05  -0.00     0.00  -0.01   0.01     0.00  -0.00   0.00
    11   6     0.03   0.04  -0.02    -0.00  -0.02  -0.00     0.00  -0.00  -0.00
    12   1    -0.05   0.06   0.01     0.08   0.02   0.04    -0.00  -0.00   0.22
    13   1    -0.04  -0.04   0.02    -0.35  -0.17   0.08    -0.03  -0.02   0.90
    14   1     0.01   0.01  -0.02    -0.04   0.01  -0.16     0.18   0.09   0.08
    15   1     0.00   0.01   0.00     0.03   0.08   0.05     0.00   0.04  -0.00
    16   1    -0.00   0.05   0.01    -0.03   0.43   0.08     0.02  -0.03  -0.02
    17   1    -0.00   0.04   0.01    -0.02   0.20   0.08     0.01  -0.03  -0.02
    18   1     0.03  -0.03   0.06     0.16  -0.11   0.36    -0.04   0.04  -0.13
    19   1     0.00  -0.01   0.03     0.12  -0.10   0.32     0.05   0.01  -0.04
    20   1    -0.02   0.00  -0.01    -0.12   0.05  -0.06     0.12  -0.02   0.07
    21   1    -0.10  -0.22  -0.35    -0.02   0.06   0.09    -0.00   0.00   0.01
    22   1    -0.07  -0.08   0.46     0.08  -0.03  -0.10     0.00  -0.00  -0.00
    23   1    -0.07  -0.20  -0.05     0.03   0.05  -0.03     0.00  -0.00  -0.01
    24   1    -0.15  -0.01   0.49     0.04   0.00  -0.16    -0.00   0.00  -0.00
    25   1    -0.04  -0.28  -0.39    -0.00   0.09   0.12    -0.00   0.00   0.01
                     25                     26                     27
                      A                      A                      A
 Frequencies --    906.2546               914.3662               955.7050
 Red. masses --      2.2641                 1.1704                 1.8101
 Frc consts  --      1.0956                 0.5765                 0.9741
 IR Inten    --     57.9974                 1.3224               110.2587
  Atom  AN      X      Y      Z        X      Y      Z        X      Y      Z
     1   8    -0.03   0.06  -0.00    -0.00   0.01  -0.00    -0.03   0.05   0.00
     2   6     0.12   0.06   0.01     0.01   0.01   0.00     0.07   0.05   0.00
     3   6     0.04  -0.08  -0.00    -0.00  -0.02  -0.00     0.05  -0.08   0.00
     4   7    -0.02  -0.01   0.00    -0.01   0.00   0.00     0.03  -0.01  -0.00
     5   6    -0.02   0.03  -0.01    -0.00   0.01  -0.01     0.04   0.06   0.01
     6   6    -0.03  -0.02  -0.03     0.02  -0.01   0.02    -0.05  -0.06  -0.02
     7   6    -0.01   0.04  -0.03     0.00  -0.01   0.08     0.01   0.09  -0.01
     8   6     0.01  -0.03   0.04     0.02  -0.04  -0.06    -0.05  -0.11   0.01
     9   8     0.07  -0.11  -0.02     0.01  -0.01  -0.00    -0.07  -0.02   0.01
    10   6    -0.04  -0.01  -0.11    -0.00  -0.00  -0.02    -0.02   0.01   0.05
    11   6    -0.13   0.10   0.11    -0.02   0.01   0.02     0.05  -0.03  -0.05
    12   1    -0.01  -0.07   0.00    -0.01  -0.01   0.00     0.06  -0.08  -0.00
    13   1    -0.03   0.03   0.03    -0.02   0.01   0.03     0.11   0.06  -0.01
    14   1    -0.04  -0.15  -0.00    -0.13   0.34  -0.14    -0.09  -0.23  -0.01
    15   1     0.03  -0.13   0.03    -0.10   0.44  -0.09    -0.05  -0.04  -0.00
    16   1    -0.04   0.19   0.07     0.10  -0.37  -0.18    -0.07   0.09   0.06
    17   1    -0.01   0.04   0.08    -0.00  -0.02  -0.20    -0.07   0.24   0.05
    18   1    -0.01   0.02  -0.03    -0.05   0.12   0.13    -0.25   0.31  -0.34
    19   1     0.08  -0.02   0.04     0.12  -0.06   0.35     0.40  -0.09   0.35
    20   1     0.09  -0.03   0.07    -0.28   0.26  -0.25     0.13   0.16   0.04
    21   1     0.11  -0.10  -0.22     0.02  -0.02  -0.03    -0.05   0.04   0.09
    22   1     0.00  -0.03  -0.13     0.00  -0.01  -0.02    -0.15   0.10   0.09
    23   1    -0.09   0.18   0.75    -0.01   0.03   0.11     0.02  -0.09  -0.28
    24   1     0.10  -0.11   0.10     0.01  -0.02   0.02    -0.05   0.04   0.01
    25   1     0.16  -0.08  -0.11     0.02  -0.01  -0.01    -0.05  -0.01  -0.03
                     28                     29                     30
                      A                      A                      A
 Frequencies --    964.0585              1002.9549              1085.3095
 Red. masses --      1.7772                 2.4074                 1.5579
 Frc consts  --      0.9732                 1.4268                 1.0812
 IR Inten    --     55.1869                84.6237                10.3608
  Atom  AN      X      Y      Z        X      Y      Z        X      Y      Z
     1   8     0.03  -0.05  -0.00     0.05  -0.07   0.00    -0.00   0.02   0.00
     2   6    -0.06  -0.05  -0.00    -0.13  -0.07  -0.00    -0.04   0.00  -0.00
     3   6    -0.04   0.09   0.00    -0.06   0.15  -0.00    -0.02  -0.05  -0.00
     4   7    -0.00  -0.01  -0.00     0.02  -0.06   0.00    -0.01   0.04  -0.00
     5   6    -0.03  -0.06   0.01     0.10   0.11   0.01     0.01  -0.02   0.08
     6   6     0.06  -0.03   0.04    -0.08   0.01  -0.05     0.11  -0.03  -0.09
     7   6     0.11   0.07   0.02    -0.08  -0.02  -0.03    -0.07   0.01   0.03
     8   6    -0.10   0.00  -0.05     0.01  -0.10   0.05    -0.07  -0.01   0.02
     9   8     0.05   0.03  -0.01     0.05   0.04  -0.01    -0.01   0.01   0.00
    10   6     0.02  -0.00  -0.03     0.04  -0.00  -0.03     0.02  -0.02  -0.04
    11   6    -0.04   0.02   0.04    -0.03   0.01   0.04     0.01   0.01   0.03
    12   1    -0.06   0.09  -0.01    -0.20   0.15  -0.00     0.05  -0.06  -0.01
    13   1    -0.03  -0.06  -0.06     0.43   0.12   0.01    -0.22  -0.03  -0.15
    14   1     0.13  -0.18   0.11    -0.11   0.02  -0.07     0.60   0.28   0.11
    15   1    -0.18  -0.12  -0.08     0.11   0.02   0.06     0.08   0.29   0.04
    16   1    -0.13  -0.33   0.03     0.05   0.29   0.01     0.12   0.11  -0.08
    17   1    -0.19   0.60   0.03     0.10  -0.35   0.01     0.07  -0.23  -0.10
    18   1    -0.19   0.18  -0.32    -0.11   0.16  -0.12    -0.12   0.08  -0.31
    19   1     0.10   0.02  -0.03     0.30  -0.09   0.31     0.12   0.02  -0.09
    20   1     0.09   0.06   0.01     0.10   0.09   0.05     0.21  -0.03   0.15
    21   1     0.03  -0.03  -0.06     0.04  -0.04  -0.07     0.05  -0.03  -0.04
    22   1     0.13  -0.09  -0.06     0.18  -0.12  -0.06     0.02  -0.02  -0.05
    23   1    -0.01   0.07   0.18    -0.01   0.06   0.15    -0.00  -0.01  -0.01
    24   1     0.04  -0.03  -0.02     0.03  -0.02  -0.01    -0.04   0.03   0.08
    25   1     0.03   0.01   0.03     0.02   0.02   0.05    -0.04   0.02   0.06
                     31                     32                     33
                      A                      A                      A
 Frequencies --   1104.4470              1143.2816              1161.2168
 Red. masses --      2.2135                 2.2261                 1.9244
 Frc consts  --      1.5908                 1.7144                 1.5288
 IR Inten    --      9.0451                 7.0944                98.9569
  Atom  AN      X      Y      Z        X      Y      Z        X      Y      Z
     1   8     0.00  -0.02  -0.00     0.01   0.04  -0.00     0.00   0.09  -0.00
     2   6     0.03  -0.00   0.01    -0.09  -0.02   0.00    -0.17  -0.02   0.00
     3   6    -0.01   0.04  -0.00    -0.04  -0.06   0.00     0.02  -0.08  -0.00
     4   7    -0.02  -0.01  -0.00     0.03   0.03   0.00     0.03   0.03   0.00
     5   6    -0.01   0.00   0.02     0.06   0.03  -0.03     0.01  -0.05   0.00
     6   6     0.03   0.01  -0.04     0.09  -0.14   0.15    -0.06   0.06  -0.03
     7   6    -0.01  -0.01   0.01    -0.08   0.07  -0.02     0.05  -0.03  -0.01
     8   6    -0.02  -0.01   0.02     0.00   0.02  -0.12     0.00  -0.01   0.04
     9   8     0.06  -0.03  -0.03    -0.01   0.02  -0.02    -0.02   0.04  -0.02
    10   6    -0.03   0.06   0.23     0.05  -0.03   0.05     0.05  -0.08   0.05
    11   6    -0.08   0.00  -0.17    -0.03   0.02  -0.02    -0.02   0.05  -0.02
    12   1    -0.15   0.05  -0.01     0.10  -0.08   0.00     0.69  -0.14   0.00
    13   1    -0.04   0.00  -0.04    -0.04   0.02   0.05     0.13  -0.04   0.00
    14   1     0.16   0.12   0.01     0.06  -0.50   0.21    -0.13   0.19  -0.09
    15   1     0.01   0.06   0.00     0.13   0.15   0.08    -0.06  -0.15  -0.04
    16   1     0.04  -0.01  -0.03     0.02   0.37   0.04    -0.05  -0.14   0.02
    17   1     0.02  -0.06  -0.04     0.04  -0.13   0.10    -0.02   0.08  -0.00
    18   1    -0.03   0.02  -0.09    -0.01   0.05   0.06     0.01  -0.01   0.01
    19   1     0.05   0.00  -0.02    -0.17   0.00  -0.02     0.06  -0.01   0.05
    20   1     0.09  -0.02   0.07    -0.34   0.14  -0.31     0.10  -0.04   0.09
    21   1    -0.01   0.05   0.23     0.16  -0.05   0.02     0.34  -0.08   0.07
    22   1    -0.02   0.06   0.22     0.09  -0.03  -0.01     0.07  -0.01  -0.11
    23   1    -0.02   0.10   0.27    -0.02   0.02   0.14    -0.05  -0.03   0.16
    24   1     0.27  -0.25  -0.39     0.07  -0.07  -0.03     0.06  -0.07   0.09
    25   1     0.30  -0.20  -0.42     0.09  -0.06  -0.12     0.08  -0.11  -0.21
                     34                     35                     36
                      A                      A                      A
 Frequencies --   1187.3447              1193.2086              1197.1574
 Red. masses --      1.8746                 1.7301                 3.2205
 Frc consts  --      1.5571                 1.4513                 2.7194
 IR Inten    --     12.8515                46.3713               678.1691
  Atom  AN      X      Y      Z        X      Y      Z        X      Y      Z
     1   8     0.01   0.08   0.00    -0.00  -0.01  -0.00     0.01   0.04  -0.00
     2   6    -0.07  -0.01  -0.00     0.01  -0.00   0.00    -0.11  -0.04   0.00
     3   6    -0.00  -0.04   0.00     0.00   0.01   0.00     0.04   0.04  -0.00
     4   7     0.00   0.00   0.00    -0.03   0.00  -0.00    -0.06  -0.08  -0.00
     5   6     0.00  -0.01   0.00    -0.03  -0.04   0.01     0.00   0.05  -0.00
     6   6    -0.00   0.02   0.02     0.03   0.10   0.13    -0.00  -0.08  -0.04
     7   6     0.00  -0.01  -0.02     0.01  -0.03  -0.12    -0.02   0.03   0.05
     8   6    -0.00  -0.01  -0.01    -0.00  -0.07  -0.06     0.01   0.03   0.00
     9   8     0.01  -0.09   0.01     0.05  -0.01   0.00     0.23  -0.06   0.02
    10   6     0.05   0.18  -0.02    -0.07  -0.00  -0.01    -0.26   0.06  -0.02
    11   6    -0.05  -0.11   0.02     0.02   0.02   0.00     0.07   0.03   0.01
    12   1     0.36  -0.07   0.01     0.04   0.00   0.00     0.56  -0.02   0.01
    13   1     0.03  -0.02  -0.00    -0.12  -0.04  -0.03     0.12   0.04   0.01
    14   1     0.02   0.07   0.01     0.27   0.48   0.18     0.05  -0.26   0.02
    15   1     0.01  -0.07   0.00     0.14  -0.44   0.05    -0.03   0.23  -0.01
    16   1    -0.02   0.02   0.02    -0.11   0.20   0.10     0.06  -0.01  -0.04
    17   1     0.01  -0.01   0.03     0.05  -0.10   0.21    -0.02   0.03  -0.07
    18   1    -0.01   0.02   0.00    -0.11   0.18   0.00     0.05  -0.07   0.01
    19   1     0.02  -0.01   0.03     0.10  -0.07   0.23    -0.07   0.03  -0.09
    20   1    -0.01   0.03  -0.02    -0.12   0.21  -0.18    -0.03  -0.07   0.00
    21   1    -0.34  -0.01  -0.27    -0.01   0.05   0.07    -0.09   0.17   0.16
    22   1     0.24  -0.18   0.33    -0.10   0.06  -0.05    -0.26   0.12  -0.09
    23   1     0.09   0.21  -0.06    -0.01  -0.06  -0.06    -0.02  -0.17  -0.23
    24   1     0.05  -0.01  -0.42    -0.03   0.03   0.08    -0.10   0.12   0.16
    25   1     0.04   0.17   0.34    -0.05  -0.03  -0.05    -0.18  -0.06  -0.10
                     37                     38                     39
                      A                      A                      A
 Frequencies --   1267.9596              1306.0500              1330.5446
 Red. masses --      2.9308                 1.2920                 1.2573
 Frc consts  --      2.7762                 1.2984                 1.3114
 IR Inten    --     42.5204                50.1583                76.1118
  Atom  AN      X      Y      Z        X      Y      Z        X      Y      Z
     1   8    -0.01  -0.03   0.00    -0.00  -0.01   0.00     0.00  -0.00   0.00
     2   6     0.09   0.04   0.00     0.02   0.01   0.00    -0.03  -0.01   0.00
     3   6     0.13   0.17   0.00    -0.00  -0.01  -0.00     0.03  -0.00   0.00
     4   7    -0.13  -0.21  -0.00    -0.03   0.06   0.00     0.01  -0.02  -0.00
     5   6    -0.08   0.09   0.01    -0.01  -0.04   0.02     0.03   0.04   0.01
     6   6     0.02  -0.01  -0.00    -0.11  -0.02  -0.04    -0.06  -0.08   0.00
     7   6    -0.02  -0.00   0.00     0.02  -0.00   0.02     0.03  -0.00  -0.02
     8   6     0.02  -0.00  -0.02     0.04   0.01  -0.05     0.02   0.02   0.02
     9   8    -0.12   0.03  -0.00    -0.01   0.00   0.00     0.03   0.04  -0.01
    10   6     0.09  -0.04   0.01     0.01  -0.00   0.00    -0.01   0.00  -0.01
    11   6    -0.02  -0.01  -0.01    -0.00  -0.01  -0.00    -0.02  -0.05   0.01
    12   1     0.80   0.11   0.01    -0.04   0.00  -0.00    -0.14   0.00  -0.00
    13   1    -0.16   0.06  -0.01     0.62  -0.00  -0.01    -0.17   0.04  -0.01
    14   1     0.28  -0.04   0.15     0.60  -0.10   0.35     0.07   0.30  -0.01
    15   1     0.04   0.05   0.02    -0.08   0.03  -0.04    -0.04   0.02  -0.05
    16   1     0.04   0.05  -0.02    -0.02  -0.04   0.02    -0.06   0.08   0.08
    17   1    -0.01  -0.01   0.00    -0.03   0.07  -0.05    -0.05   0.15   0.04
    18   1     0.01   0.02   0.02     0.08  -0.07   0.18     0.02  -0.01  -0.05
    19   1    -0.03  -0.01   0.01    -0.02  -0.02   0.16    -0.10   0.01  -0.06
    20   1    -0.08   0.03  -0.07    -0.07  -0.04  -0.08    -0.09  -0.05  -0.02
    21   1     0.03  -0.07  -0.04     0.00  -0.01  -0.01     0.48  -0.23  -0.27
    22   1     0.00   0.03   0.01    -0.03   0.02   0.02    -0.43   0.24   0.33
    23   1     0.02   0.06   0.08     0.01   0.02   0.02     0.03   0.06  -0.00
    24   1     0.01  -0.04   0.01    -0.01  -0.00   0.00     0.00  -0.01  -0.14
    25   1     0.07   0.04   0.05     0.01   0.02   0.02     0.00   0.06   0.14
                     40                     41                     42
                      A                      A                      A
 Frequencies --   1333.3022              1342.5008              1358.0553
 Red. masses --      1.4842                 1.3291                 1.2911
 Frc consts  --      1.5545                 1.4114                 1.4030
 IR Inten    --     54.6131                11.4356                18.0577
  Atom  AN      X      Y      Z        X      Y      Z        X      Y      Z
     1   8     0.00   0.01  -0.00    -0.00  -0.02   0.00     0.00  -0.00   0.00
     2   6    -0.03   0.00  -0.00     0.04   0.02   0.00    -0.03   0.00  -0.00
     3   6     0.03  -0.01   0.00    -0.03   0.01   0.00    -0.01  -0.01   0.00
     4   7     0.01  -0.03   0.00    -0.05   0.04  -0.00     0.02  -0.00   0.00
     5   6     0.05   0.06   0.01    -0.04  -0.04  -0.01     0.02   0.01   0.00
     6   6    -0.09  -0.13   0.00     0.08  -0.07   0.03    -0.02  -0.00  -0.00
     7   6     0.04  -0.00  -0.03    -0.01  -0.04  -0.03     0.01   0.02   0.00
     8   6     0.04   0.03   0.02    -0.01   0.01   0.05     0.00   0.00  -0.01
     9   8    -0.03  -0.03   0.00    -0.00   0.00   0.00     0.01  -0.00   0.01
    10   6     0.00   0.01   0.01     0.01  -0.01  -0.01     0.02  -0.01  -0.01
    11   6     0.02   0.04   0.00     0.00  -0.01  -0.03     0.02  -0.04  -0.14
    12   1    -0.14  -0.00  -0.00     0.17   0.01   0.00    -0.01  -0.01  -0.00
    13   1    -0.20   0.06  -0.01     0.61  -0.03   0.01    -0.15   0.01  -0.00
    14   1     0.15   0.47   0.01    -0.25   0.30  -0.22     0.03  -0.00   0.02
    15   1    -0.06   0.05  -0.09     0.13   0.19  -0.01    -0.04  -0.06  -0.00
    16   1    -0.09   0.13   0.14     0.05   0.27   0.06    -0.03  -0.06  -0.00
    17   1    -0.09   0.25   0.07    -0.13   0.21   0.11     0.03  -0.04  -0.01
    18   1     0.04  -0.01  -0.07    -0.04   0.03  -0.23     0.01  -0.02   0.04
    19   1    -0.16   0.01  -0.08    -0.06   0.03  -0.21     0.00  -0.00   0.04
    20   1    -0.15  -0.08  -0.04    -0.09   0.03  -0.01     0.02  -0.03   0.01
    21   1    -0.29   0.13   0.16    -0.08   0.04   0.05    -0.17   0.15   0.20
    22   1     0.41  -0.24  -0.28    -0.08   0.06   0.04    -0.10   0.05   0.14
    23   1    -0.02  -0.05  -0.04     0.01   0.03   0.10     0.08   0.12   0.54
    24   1     0.01   0.01   0.07    -0.05  -0.01   0.08    -0.28  -0.00   0.45
    25   1     0.00  -0.07  -0.12     0.00   0.06   0.06    -0.07   0.34   0.32
                     43                     44                     45
                      A                      A                      A
 Frequencies --   1374.8763              1392.1470              1416.0123
 Red. masses --      1.4018                 1.4139                 1.4048
 Frc consts  --      1.5613                 1.6145                 1.6595
 IR Inten    --      4.0341                 7.3967                68.7773
  Atom  AN      X      Y      Z        X      Y      Z        X      Y      Z
     1   8    -0.00  -0.00   0.00    -0.00  -0.01   0.00    -0.00   0.01   0.00
     2   6     0.01   0.00   0.00     0.02   0.01   0.00     0.02  -0.01  -0.00
     3   6     0.00   0.01   0.00    -0.01   0.01   0.00     0.05   0.00   0.00
     4   7    -0.01  -0.01  -0.00    -0.03   0.01   0.00    -0.03   0.00   0.00
     5   6     0.00   0.02  -0.00     0.01   0.00  -0.00    -0.03  -0.01  -0.00
     6   6     0.03  -0.08   0.04     0.01  -0.09   0.01     0.02   0.00   0.00
     7   6    -0.01   0.02  -0.02    -0.01   0.16   0.00    -0.01   0.01  -0.00
     8   6    -0.10   0.07  -0.10     0.01   0.02   0.03    -0.00  -0.00   0.00
     9   8    -0.00   0.00   0.00    -0.00  -0.00   0.00    -0.02  -0.01  -0.02
    10   6     0.00  -0.00  -0.00     0.01  -0.01  -0.00    -0.10   0.07   0.09
    11   6    -0.00   0.00   0.00    -0.01   0.00   0.01     0.06  -0.04  -0.05
    12   1     0.03   0.01   0.00     0.06   0.01   0.00    -0.11   0.02  -0.00
    13   1     0.08   0.02  -0.01     0.21   0.00  -0.00     0.11  -0.00   0.00
    14   1    -0.10   0.24  -0.10    -0.04   0.21  -0.09    -0.03  -0.01  -0.02
    15   1     0.09  -0.02   0.04    -0.05  -0.48   0.12     0.06  -0.03   0.04
    16   1    -0.03   0.01  -0.01    -0.14  -0.45  -0.18     0.03  -0.04  -0.06
    17   1     0.00   0.02   0.12     0.29  -0.42  -0.01     0.01  -0.02   0.02
    18   1     0.12  -0.35   0.38     0.02  -0.03  -0.20     0.00  -0.01  -0.03
    19   1     0.29   0.06   0.41    -0.07   0.02  -0.11     0.02   0.00  -0.02
    20   1     0.41  -0.32   0.22    -0.17  -0.06  -0.04    -0.01   0.01  -0.00
    21   1    -0.00  -0.00  -0.01    -0.04   0.00   0.00     0.48  -0.29  -0.33
    22   1    -0.00   0.01  -0.01    -0.03   0.03  -0.00     0.44  -0.27  -0.27
    23   1    -0.00  -0.00  -0.02    -0.00   0.00  -0.04     0.06  -0.02   0.16
    24   1     0.01  -0.00  -0.01     0.02  -0.01  -0.03    -0.18   0.12   0.09
    25   1     0.01  -0.01  -0.01     0.03  -0.02  -0.02    -0.22   0.10   0.12
                     46                     47                     48
                      A                      A                      A
 Frequencies --   1445.7266              1449.7655              1454.1622
 Red. masses --      1.0469                 1.0467                 1.0670
 Frc consts  --      1.2893                 1.2962                 1.3293
 IR Inten    --      1.7454                26.7216                 1.0804
  Atom  AN      X      Y      Z        X      Y      Z        X      Y      Z
     1   8    -0.00   0.00   0.00     0.00  -0.01   0.00     0.00   0.01   0.00
     2   6     0.00  -0.00  -0.00    -0.01   0.01  -0.00    -0.02  -0.01  -0.00
     3   6    -0.00  -0.00  -0.00     0.00  -0.00  -0.00     0.03  -0.00  -0.00
     4   7     0.00  -0.00   0.00    -0.00   0.00   0.00     0.00   0.00   0.00
     5   6    -0.00  -0.00   0.00     0.00  -0.00  -0.00    -0.01  -0.00   0.00
     6   6    -0.01   0.02  -0.02     0.00   0.00   0.00    -0.02   0.02  -0.02
     7   6     0.01  -0.00  -0.04     0.00  -0.00   0.00    -0.04  -0.01  -0.01
     8   6    -0.01   0.00   0.02    -0.00  -0.00   0.00     0.03   0.01  -0.00
     9   8    -0.00   0.00   0.00     0.01   0.00  -0.00    -0.00   0.00   0.00
    10   6     0.00  -0.00  -0.00    -0.02  -0.01   0.02    -0.00  -0.01  -0.02
    11   6    -0.00   0.00   0.00    -0.03  -0.03   0.01    -0.01   0.00   0.00
    12   1    -0.00  -0.00  -0.00    -0.01  -0.00  -0.00    -0.07  -0.00  -0.00
    13   1    -0.03   0.00   0.00    -0.01  -0.00   0.00    -0.02  -0.00   0.00
    14   1     0.04  -0.09   0.03    -0.01  -0.01  -0.00     0.01  -0.03   0.01
    15   1     0.18   0.40  -0.04    -0.01   0.01  -0.01     0.50  -0.03   0.27
    16   1    -0.39  -0.30   0.15    -0.01   0.01   0.01     0.27  -0.20  -0.34
    17   1     0.08  -0.11   0.63     0.00  -0.00  -0.01    -0.14   0.22   0.24
    18   1     0.08  -0.18  -0.07    -0.00  -0.00   0.01    -0.04   0.14  -0.16
    19   1     0.20   0.03  -0.09     0.01   0.00  -0.01    -0.22  -0.04   0.25
    20   1    -0.11   0.09  -0.05     0.01   0.02   0.00    -0.09  -0.31   0.02
    21   1    -0.00   0.00   0.00    -0.03  -0.08  -0.08     0.05   0.09   0.10
    22   1    -0.00  -0.00   0.00     0.01   0.05  -0.17     0.01  -0.07   0.11
    23   1    -0.00  -0.00   0.00     0.24   0.55  -0.29     0.01   0.04  -0.02
    24   1     0.00  -0.00  -0.00    -0.28   0.09   0.28    -0.01   0.00   0.01
    25   1    -0.00   0.00   0.00     0.58  -0.07  -0.06     0.05  -0.02  -0.02
                     49                     50                     51
                      A                      A                      A
 Frequencies --   1461.0404              1465.3172              1474.7189
 Red. masses --      1.1165                 1.0574                 1.0955
 Frc consts  --      1.4042                 1.3377                 1.4037
 IR Inten    --      2.1825                 2.6187                23.9408
  Atom  AN      X      Y      Z        X      Y      Z        X      Y      Z
     1   8    -0.00   0.01   0.00    -0.00  -0.00   0.00     0.00   0.01  -0.00
     2   6     0.00  -0.01  -0.00     0.01   0.00  -0.00    -0.03  -0.01   0.00
     3   6     0.04   0.00   0.00    -0.00   0.00  -0.00     0.05  -0.01   0.00
     4   7    -0.01  -0.00  -0.00    -0.00   0.00   0.00    -0.00  -0.00  -0.00
     5   6    -0.02  -0.00  -0.00    -0.00   0.00   0.00    -0.00   0.01   0.00
     6   6     0.01  -0.00   0.01     0.00  -0.04  -0.02    -0.04  -0.03   0.00
     7   6     0.00   0.00   0.00     0.00   0.02  -0.01    -0.02   0.01   0.00
     8   6    -0.01  -0.00   0.01     0.01  -0.04  -0.02    -0.03  -0.02   0.01
     9   8    -0.02   0.00  -0.00    -0.00  -0.00  -0.00     0.00  -0.00   0.00
    10   6    -0.03  -0.01  -0.07    -0.01   0.00  -0.01     0.02  -0.00   0.01
    11   6    -0.01  -0.00   0.01     0.00  -0.00   0.00    -0.01   0.01  -0.00
    12   1    -0.08   0.01  -0.00     0.01   0.00   0.00    -0.11   0.00  -0.00
    13   1     0.05   0.00   0.00     0.06   0.00  -0.00     0.01   0.01  -0.00
    14   1    -0.00   0.01   0.00    -0.01   0.05  -0.05     0.04   0.05   0.03
    15   1    -0.08  -0.04  -0.03     0.04   0.09  -0.01     0.27  -0.14   0.19
    16   1    -0.00   0.05   0.03    -0.13  -0.12   0.03     0.25  -0.08  -0.25
    17   1     0.01  -0.03  -0.08     0.05  -0.06   0.18    -0.10   0.18   0.01
    18   1     0.05  -0.14  -0.00    -0.20   0.47   0.43     0.07  -0.18   0.25
    19   1     0.17   0.03  -0.10    -0.43  -0.06  -0.15     0.30   0.05  -0.42
    20   1    -0.04   0.12  -0.03     0.43   0.20   0.13     0.10   0.50  -0.05
    21   1     0.39   0.33   0.39     0.07   0.05   0.06    -0.11  -0.04  -0.05
    22   1     0.13  -0.42   0.47     0.03  -0.07   0.07    -0.05   0.09  -0.06
    23   1     0.05   0.13  -0.04     0.01   0.02  -0.00    -0.03  -0.05  -0.02
    24   1    -0.08   0.08  -0.02    -0.02   0.02  -0.01     0.07  -0.08   0.03
    25   1     0.07  -0.07  -0.08     0.00  -0.01  -0.01     0.03   0.04   0.04
                     52                     53                     54
                      A                      A                      A
 Frequencies --   1489.1047              1514.0866              1673.0654
 Red. masses --      1.0741                 2.9149                 8.4015
 Frc consts  --      1.4033                 3.9371                13.8559
 IR Inten    --     13.7548               479.3491               541.2331
  Atom  AN      X      Y      Z        X      Y      Z        X      Y      Z
     1   8     0.00  -0.01   0.00     0.01   0.08  -0.00     0.02  -0.12   0.00
     2   6     0.01   0.01  -0.00    -0.15  -0.07  -0.00    -0.02   0.21  -0.00
     3   6    -0.04   0.00  -0.00     0.33  -0.02   0.00     0.08   0.01   0.00
     4   7     0.01   0.00   0.00    -0.10  -0.01  -0.00    -0.44   0.15  -0.00
     5   6     0.01   0.00   0.00    -0.08  -0.03  -0.01     0.54  -0.20  -0.01
     6   6    -0.01  -0.01  -0.00     0.07   0.03   0.01    -0.05   0.03   0.01
     7   6    -0.00   0.00   0.00     0.00   0.00  -0.00     0.01  -0.01   0.00
     8   6    -0.00  -0.00   0.00    -0.00  -0.00  -0.01    -0.02  -0.01  -0.00
     9   8     0.00   0.00   0.00    -0.00   0.00   0.01    -0.01  -0.02  -0.00
    10   6     0.03  -0.02   0.01     0.07  -0.03  -0.00    -0.00   0.01  -0.00
    11   6     0.04  -0.03   0.02    -0.00   0.00   0.01    -0.00   0.00   0.00
    12   1     0.07  -0.01   0.00    -0.61   0.03  -0.01     0.12  -0.01   0.00
    13   1    -0.04   0.00  -0.00     0.21  -0.00   0.01    -0.41  -0.20   0.01
    14   1     0.02   0.01   0.01    -0.10  -0.08  -0.07    -0.24  -0.21  -0.08
    15   1     0.05  -0.02   0.03    -0.15   0.06  -0.09     0.02   0.03  -0.00
    16   1     0.05  -0.01  -0.05    -0.13   0.04   0.13     0.02   0.00   0.00
    17   1    -0.03   0.04   0.01     0.09  -0.16  -0.02    -0.04   0.08   0.02
    18   1     0.01  -0.03   0.03    -0.05   0.10  -0.06    -0.02   0.01   0.02
    19   1     0.04   0.01  -0.05    -0.09  -0.02   0.09     0.03  -0.00   0.03
    20   1    -0.00   0.05  -0.01     0.03  -0.10   0.03     0.06   0.01   0.03
    21   1    -0.10  -0.01   0.02    -0.31  -0.02   0.01     0.06   0.04   0.02
    22   1    -0.07   0.09  -0.03    -0.15   0.23  -0.07     0.06  -0.07   0.05
    23   1     0.14   0.26   0.27     0.02   0.06   0.12    -0.01  -0.04  -0.01
    24   1    -0.36   0.50  -0.34    -0.06   0.10  -0.10     0.04  -0.01  -0.06
    25   1    -0.34  -0.28  -0.29    -0.08  -0.08  -0.09    -0.03  -0.00  -0.00
                     55                     56                     57
                      A                      A                      A
 Frequencies --   1804.2877              2948.3987              2965.8698
 Red. masses --     11.3427                 1.0822                 1.0813
 Frc consts  --     21.7559                 5.5428                 5.6039
 IR Inten    --    700.3178               117.4447               135.0134
  Atom  AN      X      Y      Z        X      Y      Z        X      Y      Z
     1   8     0.08  -0.40   0.00     0.00  -0.00   0.00     0.00   0.00  -0.00
     2   6    -0.31   0.70  -0.00    -0.00   0.00  -0.00     0.00  -0.00   0.00
     3   6     0.13  -0.15   0.00     0.00  -0.00  -0.00    -0.00   0.00  -0.00
     4   7     0.17  -0.03   0.00    -0.00   0.00  -0.00     0.00  -0.00  -0.00
     5   6    -0.22   0.06  -0.00     0.00   0.02   0.00     0.00  -0.08  -0.00
     6   6     0.03   0.01   0.00     0.03  -0.01  -0.07     0.01  -0.01  -0.02
     7   6    -0.01   0.00  -0.00    -0.00  -0.00   0.00    -0.00  -0.00   0.00
     8   6     0.00  -0.00   0.00    -0.00   0.00   0.00    -0.00   0.00   0.00
     9   8     0.04  -0.05  -0.00     0.00   0.00   0.00     0.00   0.00  -0.00
    10   6    -0.01   0.04   0.00     0.00   0.00   0.00     0.00   0.00   0.00
    11   6     0.00  -0.00   0.01     0.00  -0.00  -0.00     0.00  -0.00  -0.00
    12   1     0.01  -0.17  -0.00    -0.00   0.00   0.00     0.01  -0.03  -0.00
    13   1     0.13   0.08   0.00     0.01  -0.31  -0.00    -0.03   0.95   0.02
    14   1     0.00  -0.01  -0.02    -0.44   0.17   0.82    -0.14   0.05   0.26
    15   1    -0.02   0.01  -0.00     0.01  -0.01  -0.03    -0.00   0.00   0.01
    16   1    -0.02   0.01   0.01    -0.01   0.00  -0.01    -0.01   0.00  -0.01
    17   1     0.02  -0.04  -0.01     0.03   0.01   0.00     0.03   0.02  -0.00
    18   1    -0.00   0.02  -0.02     0.03   0.01  -0.00     0.03   0.02  -0.00
    19   1     0.00  -0.00   0.00    -0.00  -0.02  -0.00    -0.00  -0.04  -0.01
    20   1    -0.01   0.00   0.00     0.02  -0.01  -0.04    -0.00   0.00   0.00
    21   1     0.11   0.06   0.00     0.00   0.00  -0.00     0.00   0.00  -0.00
    22   1     0.12  -0.11   0.07    -0.00  -0.00  -0.00    -0.00  -0.00  -0.00
    23   1    -0.02  -0.05  -0.02    -0.00   0.00  -0.00    -0.00   0.00  -0.00
    24   1     0.07  -0.01  -0.11     0.00   0.00   0.00     0.00   0.00   0.00
    25   1    -0.05   0.00  -0.00    -0.00  -0.00   0.00     0.00  -0.00   0.00
                     58                     59                     60
                      A                      A                      A
 Frequencies --   3028.1725              3043.3444              3044.8046
 Red. masses --      1.0365                 1.0559                 1.0415
 Frc consts  --      5.5998                 5.7619                 5.6889
 IR Inten    --     84.4394                94.7543                64.7685
  Atom  AN      X      Y      Z        X      Y      Z        X      Y      Z
     1   8    -0.00   0.00   0.00     0.00  -0.00   0.00    -0.00   0.00  -0.00
     2   6     0.00  -0.00   0.00     0.00   0.00  -0.00     0.00  -0.00   0.00
     3   6    -0.00  -0.00   0.00    -0.00  -0.00  -0.00    -0.00  -0.00  -0.00
     4   7     0.00  -0.00  -0.00     0.00   0.00   0.00     0.00   0.00   0.00
     5   6     0.00   0.00  -0.00    -0.00   0.00  -0.00     0.00   0.00  -0.00
     6   6     0.00  -0.00   0.00    -0.00   0.00   0.00    -0.00   0.00   0.00
     7   6     0.00   0.01   0.00    -0.00  -0.01  -0.00    -0.02  -0.05  -0.01
     8   6    -0.04   0.01  -0.03    -0.00  -0.00  -0.00    -0.00   0.00  -0.00
     9   8    -0.00  -0.00   0.00    -0.00   0.00   0.00     0.00  -0.00  -0.00
    10   6    -0.00  -0.00  -0.00    -0.04  -0.01  -0.04     0.00   0.00   0.00
    11   6    -0.00   0.00   0.00     0.02  -0.01  -0.02    -0.00   0.00   0.00
    12   1     0.00   0.01   0.00     0.00   0.00  -0.00     0.00   0.01  -0.00
    13   1     0.00  -0.04  -0.00    -0.00  -0.00  -0.00    -0.00  -0.03  -0.00
    14   1     0.01  -0.00  -0.02     0.00  -0.00  -0.00     0.02  -0.01  -0.03
    15   1     0.02  -0.01  -0.05    -0.03   0.01   0.05    -0.22   0.09   0.41
    16   1     0.03  -0.01   0.03    -0.03   0.01  -0.03    -0.22   0.11  -0.26
    17   1    -0.09  -0.04   0.00     0.09   0.05  -0.00     0.69   0.36  -0.03
    18   1     0.62   0.29  -0.03     0.00   0.00   0.00     0.06   0.03  -0.00
    19   1     0.04  -0.50  -0.05     0.00  -0.00   0.00     0.01  -0.06  -0.00
    20   1    -0.22   0.10   0.46    -0.00   0.00   0.00    -0.03   0.01   0.06
    21   1    -0.00  -0.01   0.01    -0.02  -0.36   0.27     0.00   0.04  -0.03
    22   1     0.01   0.01   0.01     0.50   0.51   0.25    -0.05  -0.05  -0.03
    23   1     0.00  -0.00  -0.00    -0.33   0.15  -0.01     0.07  -0.03   0.00
    24   1    -0.00  -0.00  -0.00     0.10   0.10   0.04    -0.03  -0.03  -0.01
    25   1    -0.00   0.00  -0.00     0.01  -0.18   0.15    -0.00   0.04  -0.04
                     61                     62                     63
                      A                      A                      A
 Frequencies --   3050.7177              3101.7185              3102.5585
 Red. masses --      1.0429                 1.0998                 1.0904
 Frc consts  --      5.7184                 6.2342                 6.1844
 IR Inten    --     89.5264                 1.2701                90.7417
  Atom  AN      X      Y      Z        X      Y      Z        X      Y      Z
     1   8     0.00  -0.00   0.00    -0.00   0.00  -0.00    -0.00   0.00  -0.00
     2   6     0.00   0.00  -0.00     0.00  -0.00  -0.00    -0.00  -0.00  -0.00
     3   6    -0.00   0.00  -0.00     0.00   0.04   0.00    -0.00  -0.07  -0.00
     4   7     0.00   0.00   0.00     0.00   0.00   0.00    -0.00  -0.00  -0.00
     5   6    -0.00  -0.00  -0.00    -0.00   0.00   0.00     0.00  -0.00  -0.00
     6   6     0.00  -0.00  -0.00     0.00  -0.00   0.00    -0.00   0.00  -0.00
     7   6     0.00   0.00   0.00     0.00  -0.00  -0.00    -0.00   0.00   0.00
     8   6     0.00  -0.00   0.00    -0.00  -0.00  -0.00     0.00   0.00   0.00
     9   8    -0.00   0.00   0.00     0.00  -0.00   0.00     0.00   0.00   0.00
    10   6    -0.02  -0.00  -0.03    -0.03  -0.07   0.02    -0.02  -0.04   0.01
    11   6    -0.02   0.01   0.04    -0.00   0.02  -0.01    -0.00   0.01  -0.00
    12   1     0.00  -0.00  -0.00    -0.04  -0.53  -0.00     0.07   0.85   0.01
    13   1    -0.00   0.00   0.00     0.01  -0.01  -0.00    -0.01   0.02   0.00
    14   1    -0.00   0.00   0.01     0.00  -0.00  -0.00    -0.00   0.00   0.00
    15   1     0.01  -0.00  -0.02    -0.00   0.00   0.01     0.01  -0.00  -0.01
    16   1     0.01  -0.01   0.01    -0.00   0.00  -0.00     0.01  -0.00   0.01
    17   1    -0.03  -0.02   0.00    -0.00  -0.00   0.00     0.01   0.00  -0.00
    18   1    -0.01  -0.00   0.00     0.01   0.00  -0.00    -0.01  -0.01   0.00
    19   1    -0.00   0.01   0.00    -0.00   0.00   0.00     0.00  -0.01  -0.00
    20   1     0.01  -0.00  -0.01    -0.00   0.00   0.00     0.00  -0.00  -0.00
    21   1    -0.01  -0.21   0.16     0.02   0.55  -0.44     0.01   0.34  -0.27
    22   1     0.24   0.25   0.12     0.28   0.29   0.15     0.17   0.18   0.09
    23   1     0.56  -0.25   0.00     0.10  -0.04   0.00     0.06  -0.03   0.00
    24   1    -0.26  -0.27  -0.11    -0.05  -0.04  -0.02    -0.03  -0.03  -0.01
    25   1    -0.01   0.40  -0.32     0.00  -0.10   0.08     0.00  -0.07   0.05
                     64                     65                     66
                      A                      A                      A
 Frequencies --   3109.7019              3125.5469              3134.1760
 Red. masses --      1.1019                 1.1035                 1.0998
 Frc consts  --      6.2783                 6.3514                 6.3655
 IR Inten    --     69.6980                34.6096                50.9582
  Atom  AN      X      Y      Z        X      Y      Z        X      Y      Z
     1   8    -0.00   0.00  -0.00     0.00   0.00   0.00     0.00   0.00   0.00
     2   6     0.00  -0.00   0.00    -0.00   0.00  -0.00    -0.00  -0.00  -0.00
     3   6    -0.00  -0.00  -0.00     0.00  -0.00  -0.00    -0.00  -0.00  -0.00
     4   7     0.00  -0.00  -0.00    -0.00   0.00   0.00     0.00   0.00   0.00
     5   6    -0.00   0.00  -0.00    -0.00  -0.00   0.00     0.00  -0.00   0.00
     6   6    -0.00  -0.00   0.00     0.00  -0.00  -0.00     0.00  -0.00  -0.00
     7   6     0.00  -0.00  -0.00    -0.01   0.00   0.01     0.08   0.00  -0.05
     8   6    -0.06  -0.06   0.03     0.04  -0.06  -0.06     0.01  -0.00  -0.01
     9   8    -0.00  -0.00  -0.00     0.00   0.00   0.00     0.00   0.00  -0.00
    10   6     0.00   0.00   0.00    -0.00  -0.00   0.00    -0.00  -0.00   0.00
    11   6    -0.00   0.00  -0.00     0.00  -0.00   0.00     0.00  -0.00   0.00
    12   1     0.00   0.02   0.00     0.00   0.00  -0.00     0.00   0.02   0.00
    13   1     0.00   0.00   0.00     0.00   0.01  -0.00    -0.00   0.00  -0.00
    14   1     0.01  -0.00  -0.02    -0.02   0.01   0.04    -0.02   0.01   0.04
    15   1    -0.02   0.01   0.05     0.04  -0.02  -0.09    -0.35   0.16   0.69
    16   1    -0.00   0.00  -0.01     0.01  -0.01   0.02    -0.11   0.07  -0.16
    17   1    -0.02  -0.01  -0.00     0.05   0.03  -0.00    -0.48  -0.26   0.01
    18   1     0.65   0.29  -0.03    -0.08  -0.05  -0.01    -0.05  -0.02   0.00
    19   1    -0.07   0.57   0.06    -0.06   0.64   0.05    -0.00   0.04   0.00
    20   1     0.15  -0.09  -0.35    -0.31   0.14   0.67    -0.04   0.02   0.09
    21   1     0.00   0.00  -0.00     0.00   0.00  -0.00     0.00   0.01  -0.01
    22   1    -0.00  -0.00  -0.00     0.00   0.00   0.00     0.00   0.00   0.00
    23   1     0.00  -0.00   0.00    -0.00   0.00   0.00    -0.04   0.02   0.00
    24   1     0.00   0.00   0.00    -0.00  -0.00  -0.00    -0.01  -0.01  -0.00
    25   1     0.00  -0.00   0.00    -0.00   0.00  -0.00    -0.00   0.04  -0.03
                     67                     68                     69
                      A                      A                      A
 Frequencies --   3134.9953              3170.0703              3176.9679
 Red. masses --      1.1023                 1.1008                 1.1034
 Frc consts  --      6.3828                 6.5175                 6.5614
 IR Inten    --     56.0354                13.2508                13.0100
  Atom  AN      X      Y      Z        X      Y      Z        X      Y      Z
     1   8     0.00  -0.00   0.00    -0.00  -0.00   0.00    -0.00   0.00   0.00
     2   6     0.00   0.00  -0.00     0.00   0.00   0.00     0.00  -0.00  -0.00
     3   6    -0.00   0.00   0.00     0.00   0.00   0.00    -0.00  -0.00  -0.00
     4   7     0.00   0.00   0.00    -0.00  -0.00   0.00     0.00   0.00  -0.00
     5   6    -0.00  -0.00   0.00    -0.00   0.00   0.00    -0.00  -0.00  -0.00
     6   6     0.00  -0.00  -0.00     0.00  -0.00  -0.00     0.00   0.00  -0.00
     7   6     0.01   0.00  -0.00    -0.04   0.01  -0.08     0.00  -0.00   0.00
     8   6     0.00  -0.00  -0.00     0.00   0.00  -0.00     0.00   0.00  -0.00
     9   8    -0.00  -0.00   0.00    -0.00  -0.00   0.00     0.00   0.00  -0.00
    10   6     0.00   0.02  -0.01     0.00  -0.00   0.00    -0.01  -0.01   0.00
    11   6    -0.06   0.06  -0.04    -0.00  -0.00  -0.00    -0.06  -0.07  -0.00
    12   1    -0.00  -0.00  -0.00    -0.00  -0.01  -0.00     0.00   0.00   0.00
    13   1    -0.00  -0.00  -0.00     0.00  -0.00  -0.00    -0.00   0.00   0.00
    14   1    -0.00   0.00   0.00    -0.01   0.00   0.02    -0.00   0.00   0.00
    15   1    -0.02   0.01   0.04    -0.18   0.08   0.30     0.00  -0.00  -0.00
    16   1    -0.01   0.00  -0.01     0.54  -0.31   0.66    -0.00   0.00  -0.00
    17   1    -0.03  -0.02   0.00     0.17   0.09  -0.01    -0.00  -0.00   0.00
    18   1    -0.01  -0.00   0.00    -0.00  -0.00   0.00    -0.00  -0.00   0.00
    19   1    -0.00   0.00   0.00    -0.00  -0.00  -0.00     0.00   0.00   0.00
    20   1    -0.00   0.00   0.01    -0.00   0.00   0.01    -0.00   0.00   0.00
    21   1    -0.01  -0.15   0.12     0.00   0.00  -0.00     0.00   0.05  -0.04
    22   1    -0.03  -0.03  -0.02    -0.00  -0.00  -0.00     0.06   0.06   0.03
    23   1     0.59  -0.25  -0.00     0.00  -0.00   0.00     0.19  -0.09   0.00
    24   1     0.10   0.13   0.04     0.00   0.00   0.00     0.59   0.61   0.27
    25   1     0.00  -0.55   0.45    -0.00   0.00  -0.00    -0.01   0.29  -0.24

 -------------------
 - Thermochemistry -
 -------------------
 Temperature   298.150 Kelvin.  Pressure   1.00000 Atm.
 Atom     1 has atomic number  8 and mass  15.99491
 Atom     2 has atomic number  6 and mass  12.00000
 Atom     3 has atomic number  6 and mass  12.00000
 Atom     4 has atomic number  7 and mass  14.00307
 Atom     5 has atomic number  6 and mass  12.00000
 Atom     6 has atomic number  6 and mass  12.00000
 Atom     7 has atomic number  6 and mass  12.00000
 Atom     8 has atomic number  6 and mass  12.00000
 Atom     9 has atomic number  8 and mass  15.99491
 Atom    10 has atomic number  6 and mass  12.00000
 Atom    11 has atomic number  6 and mass  12.00000
 Atom    12 has atomic number  1 and mass   1.00783
 Atom    13 has atomic number  1 and mass   1.00783
 Atom    14 has atomic number  1 and mass   1.00783
 Atom    15 has atomic number  1 and mass   1.00783
 Atom    16 has atomic number  1 and mass   1.00783
 Atom    17 has atomic number  1 and mass   1.00783
 Atom    18 has atomic number  1 and mass   1.00783
 Atom    19 has atomic number  1 and mass   1.00783
 Atom    20 has atomic number  1 and mass   1.00783
 Atom    21 has atomic number  1 and mass   1.00783
 Atom    22 has atomic number  1 and mass   1.00783
 Atom    23 has atomic number  1 and mass   1.00783
 Atom    24 has atomic number  1 and mass   1.00783
 Atom    25 has atomic number  1 and mass   1.00783
 Molecular mass:   156.10245 amu.
 Principal axes and moments of inertia in atomic units:
                           1         2         3
     Eigenvalues --   541.470364877.337045078.52225
           X            1.00000   0.00002  -0.00167
           Y           -0.00002   1.00000  -0.00037
           Z            0.00167   0.00037   1.00000
 This molecule is an asymmetric top.
 Rotational symmetry number  1.
 Warning -- assumption of classical behavior for rotation
           may cause significant error
 Rotational temperatures (Kelvin)      0.15996     0.01776     0.01705
 Rotational constants (GHZ):           3.33304     0.37003     0.35537
 Zero-point vibrational energy     555802.7 (Joules/Mol)
                                  132.84002 (Kcal/Mol)
 Warning -- explicit consideration of  17 degrees of freedom as
           vibrations may cause significant error
 Vibrational temperatures:     46.99    73.03   104.45   120.73   205.62
          (Kelvin)            268.20   302.43   330.85   372.95   390.23
                              418.02   471.39   523.39   549.88   593.83
                              654.93   732.07   923.73  1011.08  1030.13
                             1104.20  1157.37  1209.44  1243.02  1303.90
                             1315.57  1375.05  1387.07  1443.03  1561.52
                             1589.05  1644.93  1670.73  1708.32  1716.76
                             1722.44  1824.31  1879.11  1914.36  1918.32
                             1931.56  1953.94  1978.14  2002.99  2037.33
                             2080.08  2085.89  2092.22  2102.11  2108.26
                             2121.79  2142.49  2178.43  2407.17  2595.97
                             4242.09  4267.23  4356.86  4378.69  4380.79
                             4389.30  4462.68  4463.89  4474.17  4496.96
                             4509.38  4510.56  4561.02  4570.95
 
 Zero-point correction=                           0.211694 (Hartree/Particle)
 Thermal correction to Energy=                    0.224435
 Thermal correction to Enthalpy=                  0.225380
 Thermal correction to Gibbs Free Energy=         0.171798
 Sum of electronic and zero-point Energies=           -517.658917
 Sum of electronic and thermal Energies=              -517.646175
 Sum of electronic and thermal Enthalpies=            -517.645231
 Sum of electronic and thermal Free Energies=         -517.698813
 
                     E (Thermal)             CV                S
                      KCal/Mol        Cal/Mol-Kelvin    Cal/Mol-Kelvin
 Total                  140.835             45.909            112.772
 Electronic               0.000              0.000              0.000
 Translational            0.889              2.981             41.045
 Rotational               0.889              2.981             30.973
 Vibrational            139.058             39.948             40.753
 Vibration     1          0.594              1.983              5.661
 Vibration     2          0.595              1.977              4.788
 Vibration     3          0.599              1.967              4.082
 Vibration     4          0.601              1.960              3.797
 Vibration     5          0.616              1.910              2.764
 Vibration     6          0.632              1.858              2.263
 Vibration     7          0.642              1.825              2.042
 Vibration     8          0.652              1.795              1.879
 Vibration     9          0.668              1.747              1.667
 Vibration    10          0.675              1.726              1.588
 Vibration    11          0.687              1.691              1.471
 Vibration    12          0.711              1.620              1.272
 Vibration    13          0.737              1.547              1.106
 Vibration    14          0.752              1.508              1.030
 Vibration    15          0.777              1.443              0.917
 Vibration    16          0.814              1.349              0.780
 Vibration    17          0.864              1.230              0.636
                       Q            Log10(Q)             Ln(Q)
 Total Bot       0.951638D-79        -79.021528       -181.953793
 Total V=0       0.224331D+19         18.350889         42.254483
 Vib (Bot)       0.946914D-93        -93.023690       -214.194961
 Vib (Bot)    1  0.633886D+01          0.802011          1.846699
 Vib (Bot)    2  0.407241D+01          0.609851          1.404234
 Vib (Bot)    3  0.283981D+01          0.453289          1.043736
 Vib (Bot)    4  0.245274D+01          0.389651          0.897205
 Vib (Bot)    5  0.142163D+01          0.152786          0.351803
 Vib (Bot)    6  0.107506D+01          0.031433          0.072377
 Vib (Bot)    7  0.944822D+00         -0.024650         -0.056759
 Vib (Bot)    8  0.856548D+00         -0.067248         -0.154845
 Vib (Bot)    9  0.749605D+00         -0.125168         -0.288209
 Vib (Bot)   10  0.712112D+00         -0.147451         -0.339519
 Vib (Bot)   11  0.658003D+00         -0.181772         -0.418545
 Vib (Bot)   12  0.571117D+00         -0.243275         -0.560162
 Vib (Bot)   13  0.502583D+00         -0.298792         -0.687994
 Vib (Bot)   14  0.472354D+00         -0.325732         -0.750027
 Vib (Bot)   15  0.427783D+00         -0.368777         -0.849140
 Vib (Bot)   16  0.375135D+00         -0.425812         -0.980468
 Vib (Bot)   17  0.320473D+00         -0.494208         -1.137957
 Vib (V=0)       0.223217D+05          4.348727         10.013315
 Vib (V=0)    1  0.685855D+01          0.836232          1.925496
 Vib (V=0)    2  0.460299D+01          0.663040          1.526706
 Vib (V=0)    3  0.338349D+01          0.529365          1.218907
 Vib (V=0)    4  0.300318D+01          0.477582          1.099673
 Vib (V=0)    5  0.200699D+01          0.302546          0.696637
 Vib (V=0)    6  0.168565D+01          0.226766          0.522149
 Vib (V=0)    7  0.156897D+01          0.195614          0.450417
 Vib (V=0)    8  0.149180D+01          0.173712          0.399986
 Vib (V=0)    9  0.140106D+01          0.146456          0.337228
 Vib (V=0)   10  0.137012D+01          0.136758          0.314896
 Vib (V=0)   11  0.132642D+01          0.122681          0.282483
 Vib (V=0)   12  0.125906D+01          0.100047          0.230367
 Vib (V=0)   13  0.120894D+01          0.082403          0.189740
 Vib (V=0)   14  0.118784D+01          0.074756          0.172133
 Vib (V=0)   15  0.115803D+01          0.063718          0.146717
 Vib (V=0)   16  0.112508D+01          0.051184          0.117855
 Vib (V=0)   17  0.109389D+01          0.038973          0.089738
 Electronic      0.100000D+01          0.000000          0.000000
 Translational   0.766599D+08          7.884568         18.154890
 Rotational      0.131097D+07          6.117593         14.086278
 ***** Axes restored to original set *****
 -------------------------------------------------------------------
 Center     Atomic                   Forces (Hartrees/Bohr)
 Number     Number              X              Y              Z
 -------------------------------------------------------------------
      1        8           0.000000927   -0.000009581   -0.000013139
      2        6           0.000013965    0.000021944    0.000025047
      3        6          -0.000004107   -0.000008049   -0.000008649
      4        7          -0.000002890    0.000006276    0.000005278
      5        6          -0.000001970   -0.000003459   -0.000009924
      6        6           0.000010788    0.000000203    0.000002781
      7        6          -0.000004145    0.000003271    0.000000903
      8        6          -0.000002853   -0.000003676    0.000003352
      9        8          -0.000020237   -0.000008684   -0.000004247
     10        6           0.000011110    0.000002904   -0.000011927
     11        6           0.000000166   -0.000000626    0.000002000
     12        1           0.000002395   -0.000000470    0.000003644
     13        1           0.000000254    0.000002851    0.000003480
     14        1          -0.000001884    0.000002109    0.000001379
     15        1           0.000003143   -0.000000786   -0.000000736
     16        1           0.000002661   -0.000000678   -0.000000611
     17        1          -0.000003390   -0.000000140    0.000001478
     18        1          -0.000003457    0.000001180   -0.000000177
     19        1           0.000000189    0.000003223    0.000002001
     20        1           0.000000804   -0.000001025    0.000000216
     21        1          -0.000000847   -0.000003706    0.000001131
     22        1          -0.000001065   -0.000001759    0.000001059
     23        1           0.000003035   -0.000000840   -0.000002770
     24        1          -0.000002577    0.000000307   -0.000002952
     25        1          -0.000000015   -0.000000789    0.000001381
 -------------------------------------------------------------------
 Cartesian Forces:  Max     0.000025047 RMS     0.000006378
 FormGI is forming the generalized inverse of G from B-inverse, IUseBI=4.

 GradGradGradGradGradGradGradGradGradGradGradGradGradGradGradGradGradGrad
 Berny optimization.
 Internal  Forces:  Max     0.000015433 RMS     0.000003066
 Search for a local minimum.
 Step number   1 out of a maximum of    2
 All quantities printed in internal units (Hartrees-Bohrs-Radians)
 Second derivative matrix not updated -- analytic derivatives used.
 ITU=  0
     Eigenvalues ---    0.00122   0.00273   0.00310   0.00342   0.00627
     Eigenvalues ---    0.01537   0.01572   0.01772   0.02105   0.02896
     Eigenvalues ---    0.03814   0.03993   0.04251   0.04305   0.04360
     Eigenvalues ---    0.04413   0.04482   0.04512   0.04719   0.05160
     Eigenvalues ---    0.05189   0.06283   0.07631   0.10054   0.11351
     Eigenvalues ---    0.11597   0.11842   0.11879   0.12292   0.12314
     Eigenvalues ---    0.12339   0.13119   0.13550   0.13944   0.14771
     Eigenvalues ---    0.16315   0.16898   0.17916   0.18062   0.19075
     Eigenvalues ---    0.20232   0.21278   0.24971   0.27024   0.29241
     Eigenvalues ---    0.30226   0.30505   0.30968   0.31393   0.31888
     Eigenvalues ---    0.33155   0.33293   0.33504   0.33519   0.33904
     Eigenvalues ---    0.34110   0.34260   0.34416   0.34494   0.34559
     Eigenvalues ---    0.34833   0.35326   0.35767   0.39811   0.43329
     Eigenvalues ---    0.51767   0.55994   0.71768   0.81781
 Angle between quadratic step and forces=  69.28 degrees.
 Linear search not attempted -- first point.
 Iteration  1 RMS(Cart)=  0.00016382 RMS(Int)=  0.00000001
 Iteration  2 RMS(Cart)=  0.00000002 RMS(Int)=  0.00000000
 Variable       Old X    -DE/DX   Delta X   Delta X   Delta X     New X
                                 (Linear)    (Quad)   (Total)
    R1        2.31685   0.00002   0.00000   0.00003   0.00003   2.31688
    R2        2.66537   0.00000   0.00000   0.00001   0.00001   2.66537
    R3        2.66790  -0.00002   0.00000  -0.00008  -0.00008   2.66782
    R4        2.55499   0.00000   0.00000  -0.00001  -0.00001   2.55498
    R5        2.07826   0.00000   0.00000   0.00001   0.00001   2.07828
    R6        2.42484  -0.00000   0.00000  -0.00000  -0.00000   2.42483
    R7        2.85739  -0.00000   0.00000  -0.00002  -0.00002   2.85737
    R8        2.10177   0.00000   0.00000   0.00001   0.00001   2.10179
    R9        2.88028   0.00000   0.00000   0.00000   0.00000   2.88028
   R10        2.89668   0.00001   0.00000   0.00002   0.00002   2.89670
   R11        2.10001   0.00000   0.00000   0.00001   0.00001   2.10002
   R12        2.07909   0.00000   0.00000   0.00001   0.00001   2.07910
   R13        2.07372   0.00000   0.00000   0.00001   0.00001   2.07373
   R14        2.08381   0.00000   0.00000   0.00001   0.00001   2.08382
   R15        2.08515   0.00000   0.00000   0.00001   0.00001   2.08516
   R16        2.08186   0.00000   0.00000   0.00001   0.00001   2.08187
   R17        2.08228   0.00000   0.00000   0.00000   0.00000   2.08228
   R18        2.64395   0.00001   0.00000   0.00004   0.00004   2.64399
   R19        2.87881  -0.00000   0.00000  -0.00000  -0.00000   2.87881
   R20        2.08186  -0.00000   0.00000  -0.00001  -0.00001   2.08185
   R21        2.08470  -0.00000   0.00000  -0.00000  -0.00000   2.08469
   R22        2.08236   0.00000   0.00000   0.00001   0.00001   2.08237
   R23        2.07452   0.00000   0.00000   0.00001   0.00001   2.07452
   R24        2.07937   0.00000   0.00000   0.00000   0.00000   2.07938
    A1        2.29082  -0.00000   0.00000  -0.00003  -0.00003   2.29079
    A2        2.06591  -0.00000   0.00000   0.00000   0.00000   2.06592
    A3        1.92645   0.00000   0.00000   0.00003   0.00003   1.92648
    A4        2.10691   0.00001   0.00000   0.00004   0.00004   2.10694
    A5        2.05949  -0.00000   0.00000  -0.00003  -0.00003   2.05946
    A6        2.11679  -0.00000   0.00000  -0.00000  -0.00000   2.11678
    A7        2.16648   0.00000   0.00000   0.00001   0.00001   2.16650
    A8        2.13646   0.00000   0.00000   0.00002   0.00002   2.13648
    A9        2.12182  -0.00000   0.00000  -0.00001  -0.00001   2.12181
   A10        2.02487  -0.00000   0.00000  -0.00001  -0.00001   2.02486
   A11        1.94267   0.00000   0.00000   0.00001   0.00001   1.94268
   A12        1.93565   0.00000   0.00000   0.00001   0.00001   1.93566
   A13        1.90174  -0.00000   0.00000   0.00001   0.00001   1.90175
   A14        1.93971  -0.00000   0.00000   0.00000   0.00000   1.93971
   A15        1.88175   0.00000   0.00000  -0.00001  -0.00001   1.88175
   A16        1.85922  -0.00000   0.00000  -0.00003  -0.00003   1.85918
   A17        1.91627   0.00000   0.00000   0.00000   0.00000   1.91627
   A18        1.92829   0.00000   0.00000   0.00001   0.00001   1.92830
   A19        1.94135  -0.00000   0.00000  -0.00001  -0.00001   1.94134
   A20        1.85371  -0.00000   0.00000  -0.00004  -0.00004   1.85367
   A21        1.90509   0.00000   0.00000   0.00001   0.00001   1.90510
   A22        1.91700   0.00000   0.00000   0.00002   0.00002   1.91702
   A23        1.95218  -0.00000   0.00000  -0.00001  -0.00001   1.95217
   A24        1.93757  -0.00000   0.00000  -0.00002  -0.00002   1.93754
   A25        1.91848   0.00000   0.00000   0.00001   0.00001   1.91849
   A26        1.88451   0.00000   0.00000  -0.00000  -0.00000   1.88450
   A27        1.89192   0.00000   0.00000   0.00001   0.00001   1.89193
   A28        1.87692   0.00000   0.00000   0.00002   0.00002   1.87693
   A29        2.01398   0.00000   0.00000   0.00002   0.00002   2.01400
   A30        1.95662  -0.00000   0.00000  -0.00003  -0.00003   1.95659
   A31        1.92525   0.00000   0.00000  -0.00001  -0.00001   1.92524
   A32        1.85525  -0.00000   0.00000  -0.00002  -0.00002   1.85523
   A33        1.90319  -0.00000   0.00000  -0.00000  -0.00000   1.90318
   A34        1.92525  -0.00000   0.00000   0.00001   0.00001   1.92526
   A35        1.89721   0.00000   0.00000   0.00005   0.00005   1.89726
   A36        1.94231  -0.00000   0.00000   0.00000   0.00000   1.94231
   A37        1.89302  -0.00000   0.00000  -0.00003  -0.00003   1.89298
   A38        1.92450  -0.00000   0.00000   0.00000   0.00000   1.92450
   A39        1.90407   0.00000   0.00000   0.00001   0.00001   1.90408
   A40        1.89768   0.00000   0.00000   0.00001   0.00001   1.89769
   A41        1.90180   0.00000   0.00000   0.00001   0.00001   1.90181
    D1        0.00691  -0.00000   0.00000  -0.00002  -0.00002   0.00689
    D2       -3.13328  -0.00000   0.00000  -0.00005  -0.00005  -3.13332
    D3       -3.13567   0.00000   0.00000   0.00004   0.00004  -3.13563
    D4        0.00733   0.00000   0.00000   0.00002   0.00002   0.00734
    D5       -0.01094   0.00000   0.00000   0.00018   0.00018  -0.01076
    D6        3.13149  -0.00000   0.00000   0.00013   0.00013   3.13162
    D7       -3.13559   0.00000   0.00000   0.00002   0.00002  -3.13557
    D8        0.00455   0.00000   0.00000   0.00005   0.00005   0.00460
    D9        3.13739   0.00000   0.00000   0.00006   0.00006   3.13745
   D10        0.00493   0.00000   0.00000   0.00007   0.00007   0.00501
   D11        0.08872   0.00000   0.00000   0.00015   0.00015   0.08887
   D12        2.25789   0.00000   0.00000   0.00017   0.00017   2.25806
   D13       -1.98417  -0.00000   0.00000   0.00014   0.00014  -1.98403
   D14       -3.06153   0.00000   0.00000   0.00014   0.00014  -3.06139
   D15       -0.89236   0.00000   0.00000   0.00016   0.00016  -0.89221
   D16        1.14876  -0.00000   0.00000   0.00013   0.00013   1.14889
   D17        1.07490  -0.00000   0.00000  -0.00009  -0.00009   1.07481
   D18       -0.96394   0.00000   0.00000  -0.00005  -0.00005  -0.96400
   D19       -3.09774  -0.00000   0.00000  -0.00008  -0.00008  -3.09783
   D20       -1.09198  -0.00000   0.00000  -0.00011  -0.00011  -1.09209
   D21       -3.13082  -0.00000   0.00000  -0.00008  -0.00008  -3.13089
   D22        1.01857  -0.00000   0.00000  -0.00011  -0.00011   1.01846
   D23       -3.12346  -0.00000   0.00000  -0.00007  -0.00007  -3.12354
   D24        1.12088   0.00000   0.00000  -0.00004  -0.00004   1.12085
   D25       -1.01292  -0.00000   0.00000  -0.00007  -0.00007  -1.01298
   D26        3.05221  -0.00000   0.00000  -0.00005  -0.00005   3.05216
   D27        0.94598  -0.00000   0.00000  -0.00003  -0.00003   0.94596
   D28       -1.12843  -0.00000   0.00000  -0.00004  -0.00004  -1.12847
   D29       -1.06012  -0.00000   0.00000  -0.00003  -0.00003  -1.06015
   D30        3.11683   0.00000   0.00000  -0.00000  -0.00000   3.11683
   D31        1.04242   0.00000   0.00000  -0.00001  -0.00001   1.04240
   D32        0.98516  -0.00000   0.00000  -0.00005  -0.00005   0.98510
   D33       -1.12108   0.00000   0.00000  -0.00003  -0.00003  -1.12110
   D34        3.08769  -0.00000   0.00000  -0.00004  -0.00004   3.08766
   D35       -1.39475  -0.00000   0.00000  -0.00016  -0.00016  -1.39491
   D36        0.72977  -0.00000   0.00000  -0.00019  -0.00019   0.72958
   D37        2.78355  -0.00000   0.00000  -0.00014  -0.00014   2.78340
   D38       -3.06953   0.00000   0.00000   0.00001   0.00001  -3.06952
   D39        1.11902   0.00000   0.00000   0.00002   0.00002   1.11904
   D40       -0.96215   0.00000   0.00000   0.00002   0.00002  -0.96213
   D41        1.07656  -0.00000   0.00000   0.00004   0.00004   1.07660
   D42       -1.01808   0.00000   0.00000   0.00005   0.00005  -1.01803
   D43       -3.09925   0.00000   0.00000   0.00005   0.00005  -3.09920
   D44       -1.00570  -0.00000   0.00000  -0.00003  -0.00003  -1.00573
   D45       -3.10034  -0.00000   0.00000  -0.00001  -0.00001  -3.10036
   D46        1.10167  -0.00000   0.00000  -0.00001  -0.00001   1.10166
         Item               Value     Threshold  Converged?
 Maximum Force            0.000015     0.000450     YES
 RMS     Force            0.000003     0.000300     YES
 Maximum Displacement     0.000485     0.001800     YES
 RMS     Displacement     0.000164     0.001200     YES
 Predicted change in Energy=-3.529426D-09
 Optimization completed.
    -- Stationary point found.
                           ----------------------------
                           !   Optimized Parameters   !
                           ! (Angstroms and Degrees)  !
 --------------------------                            --------------------------
 ! Name  Definition              Value          Derivative Info.                !
 --------------------------------------------------------------------------------
 ! R1    R(1,2)                  1.226          -DE/DX =    0.0                 !
 ! R2    R(2,3)                  1.4105         -DE/DX =    0.0                 !
 ! R3    R(2,9)                  1.4118         -DE/DX =    0.0                 !
 ! R4    R(3,4)                  1.352          -DE/DX =    0.0                 !
 ! R5    R(3,12)                 1.0998         -DE/DX =    0.0                 !
 ! R6    R(4,5)                  1.2832         -DE/DX =    0.0                 !
 ! R7    R(5,6)                  1.5121         -DE/DX =    0.0                 !
 ! R8    R(5,13)                 1.1122         -DE/DX =    0.0                 !
 ! R9    R(6,7)                  1.5242         -DE/DX =    0.0                 !
 ! R10   R(6,8)                  1.5329         -DE/DX =    0.0                 !
 ! R11   R(6,14)                 1.1113         -DE/DX =    0.0                 !
 ! R12   R(7,15)                 1.1002         -DE/DX =    0.0                 !
 ! R13   R(7,16)                 1.0974         -DE/DX =    0.0                 !
 ! R14   R(7,17)                 1.1027         -DE/DX =    0.0                 !
 ! R15   R(8,18)                 1.1034         -DE/DX =    0.0                 !
 ! R16   R(8,19)                 1.1017         -DE/DX =    0.0                 !
 ! R17   R(8,20)                 1.1019         -DE/DX =    0.0                 !
 ! R18   R(9,10)                 1.3991         -DE/DX =    0.0                 !
 ! R19   R(10,11)                1.5234         -DE/DX =    0.0                 !
 ! R20   R(10,21)                1.1017         -DE/DX =    0.0                 !
 ! R21   R(10,22)                1.1032         -DE/DX =    0.0                 !
 ! R22   R(11,23)                1.1019         -DE/DX =    0.0                 !
 ! R23   R(11,24)                1.0978         -DE/DX =    0.0                 !
 ! R24   R(11,25)                1.1004         -DE/DX =    0.0                 !
 ! A1    A(1,2,3)              131.2544         -DE/DX =    0.0                 !
 ! A2    A(1,2,9)              118.368          -DE/DX =    0.0                 !
 ! A3    A(3,2,9)              110.3775         -DE/DX =    0.0                 !
 ! A4    A(2,3,4)              120.7168         -DE/DX =    0.0                 !
 ! A5    A(2,3,12)             118.0002         -DE/DX =    0.0                 !
 ! A6    A(4,3,12)             121.283          -DE/DX =    0.0                 !
 ! A7    A(3,4,5)              124.1303         -DE/DX =    0.0                 !
 ! A8    A(4,5,6)              122.4104         -DE/DX =    0.0                 !
 ! A9    A(4,5,13)             121.5714         -DE/DX =    0.0                 !
 ! A10   A(6,5,13)             116.0163         -DE/DX =    0.0                 !
 ! A11   A(5,6,7)              111.3068         -DE/DX =    0.0                 !
 ! A12   A(5,6,8)              110.9044         -DE/DX =    0.0                 !
 ! A13   A(5,6,14)             108.9618         -DE/DX =    0.0                 !
 ! A14   A(7,6,8)              111.137          -DE/DX =    0.0                 !
 ! A15   A(7,6,14)             107.8164         -DE/DX =    0.0                 !
 ! A16   A(8,6,14)             106.5252         -DE/DX =    0.0                 !
 ! A17   A(6,7,15)             109.7939         -DE/DX =    0.0                 !
 ! A18   A(6,7,16)             110.4828         -DE/DX =    0.0                 !
 ! A19   A(6,7,17)             111.2312         -DE/DX =    0.0                 !
 ! A20   A(15,7,16)            106.2095         -DE/DX =    0.0                 !
 ! A21   A(15,7,17)            109.1538         -DE/DX =    0.0                 !
 ! A22   A(16,7,17)            109.836          -DE/DX =    0.0                 !
 ! A23   A(6,8,18)             111.8516         -DE/DX =    0.0                 !
 ! A24   A(6,8,19)             111.0144         -DE/DX =    0.0                 !
 ! A25   A(6,8,20)             109.9207         -DE/DX =    0.0                 !
 ! A26   A(18,8,19)            107.9742         -DE/DX =    0.0                 !
 ! A27   A(18,8,20)            108.3988         -DE/DX =    0.0                 !
 ! A28   A(19,8,20)            107.5394         -DE/DX =    0.0                 !
 ! A29   A(2,9,10)             115.3925         -DE/DX =    0.0                 !
 ! A30   A(9,10,11)            112.106          -DE/DX =    0.0                 !
 ! A31   A(9,10,21)            110.3084         -DE/DX =    0.0                 !
 ! A32   A(9,10,22)            106.2979         -DE/DX =    0.0                 !
 ! A33   A(11,10,21)           109.0446         -DE/DX =    0.0                 !
 ! A34   A(11,10,22)           110.3088         -DE/DX =    0.0                 !
 ! A35   A(21,10,22)           108.7022         -DE/DX =    0.0                 !
 ! A36   A(10,11,23)           111.286          -DE/DX =    0.0                 !
 ! A37   A(10,11,24)           108.4619         -DE/DX =    0.0                 !
 ! A38   A(10,11,25)           110.2657         -DE/DX =    0.0                 !
 ! A39   A(23,11,24)           109.0954         -DE/DX =    0.0                 !
 ! A40   A(23,11,25)           108.729          -DE/DX =    0.0                 !
 ! A41   A(24,11,25)           108.9652         -DE/DX =    0.0                 !
 ! D1    D(1,2,3,4)              0.396          -DE/DX =    0.0                 !
 ! D2    D(1,2,3,12)          -179.5236         -DE/DX =    0.0                 !
 ! D3    D(9,2,3,4)           -179.6605         -DE/DX =    0.0                 !
 ! D4    D(9,2,3,12)             0.4199         -DE/DX =    0.0                 !
 ! D5    D(1,2,9,10)            -0.627          -DE/DX =    0.0                 !
 ! D6    D(3,2,9,10)           179.4213         -DE/DX =    0.0                 !
 ! D7    D(2,3,4,5)           -179.6562         -DE/DX =    0.0                 !
 ! D8    D(12,3,4,5)             0.2607         -DE/DX =    0.0                 !
 ! D9    D(3,4,5,6)            179.7592         -DE/DX =    0.0                 !
 ! D10   D(3,4,5,13)             0.2827         -DE/DX =    0.0                 !
 ! D11   D(4,5,6,7)              5.0836         -DE/DX =    0.0                 !
 ! D12   D(4,5,6,8)            129.3676         -DE/DX =    0.0                 !
 ! D13   D(4,5,6,14)          -113.6844         -DE/DX =    0.0                 !
 ! D14   D(13,5,6,7)          -175.4128         -DE/DX =    0.0                 !
 ! D15   D(13,5,6,8)           -51.1287         -DE/DX =    0.0                 !
 ! D16   D(13,5,6,14)           65.8192         -DE/DX =    0.0                 !
 ! D17   D(5,6,7,15)            61.5869         -DE/DX =    0.0                 !
 ! D18   D(5,6,7,16)           -55.23           -DE/DX =    0.0                 !
 ! D19   D(5,6,7,17)          -177.4877         -DE/DX =    0.0                 !
 ! D20   D(8,6,7,15)           -62.5657         -DE/DX =    0.0                 !
 ! D21   D(8,6,7,16)          -179.3826         -DE/DX =    0.0                 !
 ! D22   D(8,6,7,17)            58.3597         -DE/DX =    0.0                 !
 ! D23   D(14,6,7,15)         -178.9612         -DE/DX =    0.0                 !
 ! D24   D(14,6,7,16)           64.2219         -DE/DX =    0.0                 !
 ! D25   D(14,6,7,17)          -58.0359         -DE/DX =    0.0                 !
 ! D26   D(5,6,8,18)           174.879          -DE/DX =    0.0                 !
 ! D27   D(5,6,8,19)            54.2007         -DE/DX =    0.0                 !
 ! D28   D(5,6,8,20)           -64.6545         -DE/DX =    0.0                 !
 ! D29   D(7,6,8,18)           -60.7404         -DE/DX =    0.0                 !
 ! D30   D(7,6,8,19)           178.5813         -DE/DX =    0.0                 !
 ! D31   D(7,6,8,20)            59.7261         -DE/DX =    0.0                 !
 ! D32   D(14,6,8,18)           56.4453         -DE/DX =    0.0                 !
 ! D33   D(14,6,8,19)          -64.2329         -DE/DX =    0.0                 !
 ! D34   D(14,6,8,20)          176.9119         -DE/DX =    0.0                 !
 ! D35   D(2,9,10,11)          -79.9132         -DE/DX =    0.0                 !
 ! D36   D(2,9,10,21)           41.8127         -DE/DX =    0.0                 !
 ! D37   D(2,9,10,22)          159.4855         -DE/DX =    0.0                 !
 ! D38   D(9,10,11,23)        -175.8708         -DE/DX =    0.0                 !
 ! D39   D(9,10,11,24)          64.115          -DE/DX =    0.0                 !
 ! D40   D(9,10,11,25)         -55.1274         -DE/DX =    0.0                 !
 ! D41   D(21,10,11,23)         61.6824         -DE/DX =    0.0                 !
 ! D42   D(21,10,11,24)        -58.3318         -DE/DX =    0.0                 !
 ! D43   D(21,10,11,25)       -177.5742         -DE/DX =    0.0                 !
 ! D44   D(22,10,11,23)        -57.6224         -DE/DX =    0.0                 !
 ! D45   D(22,10,11,24)       -177.6365         -DE/DX =    0.0                 !
 ! D46   D(22,10,11,25)         63.1211         -DE/DX =    0.0                 !
 --------------------------------------------------------------------------------
 GradGradGradGradGradGradGradGradGradGradGradGradGradGradGradGradGradGrad


 ----------------------------------------------------------------------

 Electric dipole moment (input orientation):
 (Debye = 10**-18 statcoulomb cm , SI units = C m)
                  (au)            (Debye)         (10**-30 SI)
   Tot        0.576370D+00      0.146499D+01      0.488667D+01
   x         -0.268967D+00     -0.683647D+00     -0.228040D+01
   y         -0.167838D+00     -0.426601D+00     -0.142299D+01
   z          0.481342D+00      0.122345D+01      0.408099D+01

 Dipole polarizability, Alpha (input orientation).
 (esu units = cm**3 , SI units = C**2 m**2 J**-1)
 Alpha(0;0):
               (au)            (10**-24 esu)      (10**-40 SI)
   iso        0.126121D+03      0.186892D+02      0.207945D+02
   aniso      0.114291D+03      0.169362D+02      0.188440D+02
   xx         0.199888D+03      0.296203D+02      0.329570D+02
   yx        -0.932755D+00     -0.138220D+00     -0.153791D+00
   yy         0.817405D+02      0.121127D+02      0.134772D+02
   zx        -0.127342D+02     -0.188702D+01     -0.209959D+01
   zy         0.732950D+01      0.108612D+01      0.120847D+01
   zz         0.967341D+02      0.143345D+02      0.159493D+02

 ----------------------------------------------------------------------

 Dipole orientation:
     8          1.58168569         -1.25013188         -3.26488602
     6          2.21643745          0.24330366         -1.61123996
     6          0.85380649          1.29666537          0.42292794
     7         -1.59453812          0.67892827          0.81277341
     6         -2.95250947          1.57015555          2.61317989
     6         -5.68994777          0.83516141          2.97494733
     6         -6.47833557         -1.21454872          1.11131599
     6         -6.18618122          0.00991166          5.70688068
     8          4.72352996          1.15548076         -1.62139883
     6          6.26457252          0.21447076         -3.55276037
     6          7.26926884         -2.41574685         -2.95266812
     1          1.84223979          2.63115504          1.67245159
     1         -2.17805152          2.95041181          3.99612960
     1         -6.89936054          2.51692224          2.62994455
     1         -5.33946462         -2.92574254          1.42344338
     1         -6.09542171         -0.61146678         -0.83547204
     1         -8.49661319         -1.68892117          1.32059106
     1         -8.20801263         -0.36914047          6.04803297
     1         -5.57112890          1.47446984          7.05258766
     1         -5.11198759         -1.72278185          6.13085137
     1          5.21275781          0.14661074         -5.34809906
     1          7.84157057          1.56322960         -3.75249820
     1          8.58806888         -3.07489745         -4.42322130
     1          5.66285128         -3.72404143         -2.84588055
     1          8.25808341         -2.40901215         -1.12346072

 Electric dipole moment (dipole orientation):
 (Debye = 10**-18 statcoulomb cm , SI units = C m)
                  (au)            (Debye)         (10**-30 SI)
   Tot        0.576370D+00      0.146499D+01      0.488667D+01
   x          0.000000D+00      0.000000D+00      0.000000D+00
   y          0.000000D+00      0.000000D+00      0.000000D+00
   z          0.576370D+00      0.146499D+01      0.488667D+01

 Dipole polarizability, Alpha (dipole orientation).
 (esu units = cm**3 , SI units = C**2 m**2 J**-1)
 Alpha(0;0):
               (au)            (10**-24 esu)      (10**-40 SI)
   iso        0.126121D+03      0.186892D+02      0.207945D+02
   aniso      0.114291D+03      0.169362D+02      0.188440D+02
   xx         0.165917D+03      0.245863D+02      0.273560D+02
   yx        -0.618609D+01     -0.916684D+00     -0.101995D+01
   yy         0.884121D+02      0.131013D+02      0.145772D+02
   zx        -0.505901D+02     -0.749668D+01     -0.834118D+01
   zy         0.158586D+02      0.235000D+01      0.261473D+01
   zz         0.124033D+03      0.183799D+02      0.204504D+02

 ----------------------------------------------------------------------
 Unable to Open any file for archive entry.
 1\1\GINC-NOTCH069\Freq\RM062X\def2SVP\C8H14N1O2(1-)\U6067110\18-Jul-20
 25\0\\#N Geom=AllCheck Guess=TCheck SCRF=Check GenChk RM062X/def2SVP F
 req\\A18_crest_conformers_censo-13\\-1,1\O,1.5929001739,-0.1898481173,
 -1.2449007506\C,1.422057688,0.2842346612,-0.1272260227\C,0.2429497921,
 0.5558321184,0.5975570242\N,-0.9709764959,0.2799099194,0.0700462057\C,
 -2.0838319341,0.5055129783,0.6676896872\C,-3.4210576943,0.1860630493,0
 .0383115702\C,-3.2482158368,-0.5304076098,-1.295820706\C,-4.294789439,
 -0.6319946178,0.9959243729\O,2.5580838085,0.6479582139,0.627958796\C,3
 .7906095944,0.4102344479,0.0099795036\C,4.2140573613,-1.0491436301,0.1
 179776884\H,0.343081812,0.9981052063,1.599484945\H,-2.1182362001,0.958
 7099458,1.6827949548\H,-3.9658088664,1.1354446987,-0.1536613711\H,-2.7
 270923304,-1.4868146957,-1.140331755\H,-2.6125156883,0.0589695504,-1.9
 686732817\H,-4.2225938406,-0.72299722,-1.7748365199\H,-5.3071263227,-0
 .7966560553,0.5889998227\H,-4.3976440261,-0.1242630725,1.9681972082\H,
 -3.8306068204,-1.6139532878,1.1815554847\H,3.7460704822,0.693852605,-1
 .0536301392\H,4.5225649014,1.0599709856,0.518977516\H,5.2180947017,-1.
 2069056256,-0.3078050884\H,3.4897492775,-1.6629808206,-0.4331274102\H,
 4.2232459019,-1.3663636279,1.1715782654\\Version=ES64L-G16RevC.01\Stat
 e=1-A\HF=-517.8706108\RMSD=3.157e-09\RMSF=6.378e-06\ZeroPoint=0.211694
 \Thermal=0.2244354\ETot=-517.6461754\HTot=-517.6452312\GTot=-517.69881
 28\Dipole=-0.2689673,-0.1678379,0.4813418\DipoleDeriv=-1.1706783,0.098
 9567,0.1865021,0.4832476,-0.5488781,-0.3833041,1.0815819,-0.3416489,-1
 .3247362,3.5187353,-0.1472591,-0.3972541,-0.3614509,0.4110998,0.465036
 6,-1.0026377,0.4245915,1.3906726,-2.4670366,0.1450309,0.5158054,-0.057
 2902,-0.3055831,0.2299692,-0.0055084,0.2182049,0.0870498,2.0814868,-0.
 0132087,-0.2650408,0.1581203,-0.2335172,-0.2205625,0.1127754,-0.236888
 8,-0.6410452,-1.0017185,-0.0029366,0.0893166,0.0602293,-0.1422693,0.30
 61416,0.6559444,0.3720042,0.3549862,0.4064258,-0.0320185,-0.0341811,0.
 0536285,0.2126952,-0.1035131,0.1379644,-0.1054495,0.0670322,0.0598452,
 -0.0123316,0.0717825,-0.007682,0.0260617,0.0255105,0.1160624,-0.001639
 8,-0.0307619,0.0415187,-0.0288917,0.0660047,-0.0474928,0.0629478,0.028
 2501,-0.053378,0.0373388,0.0483934,-2.5195997,0.0503084,0.0001483,-0.2
 050391,-0.4327096,-0.0931273,-0.4688264,-0.1163606,-0.5529013,1.223799
 7,-0.0686577,-0.0654589,-0.197677,0.4876566,0.055432,-0.3040355,0.0405
 098,0.33487,-0.0372419,-0.0185972,-0.0591586,0.0818936,-0.1753607,-0.0
 397298,-0.0306607,-0.0079645,0.081965,-0.0418352,0.0011257,0.0186675,-
 0.0596878,0.0731991,-0.1337415,-0.0991924,-0.1439683,-0.1679658,-0.100
 0831,-0.0278176,-0.0363582,0.0289,0.027174,-0.165692,0.0107457,-0.1730
 15,-0.2613185,-0.3415396,0.1108065,-0.0058325,0.1460329,-0.2006091,0.0
 451966,-0.1305562,0.0326769,-0.0257959,0.0487035,0.0785474,0.0099108,0
 .0559699,-0.0923285,-0.0045204,-0.0097886,0.0429511,0.031079,0.0514201
 ,-0.0267184,0.0945971,-0.0313564,0.0097154,0.051725,0.070732,0.0383473
 ,-0.0253836,-0.2121439,-0.0599889,-0.1498555,-0.0531447,0.0284736,-0.0
 461197,-0.1269052,-0.0428047,-0.0292208,-0.3467349,-0.0751532,-0.03679
 17,-0.064633,0.0281306,0.009176,-0.0994403,-0.0116137,0.0039201,0.0670
 641,-0.0032116,0.0225214,0.0339059,-0.001113,-0.1000097,0.053552,-0.06
 23205,-0.1611738,0.047713,0.0929114,-0.0214387,0.0335309,-0.1236425,0.
 0556682,0.0076741,0.0226086,0.0353353,0.0159147,0.0223132,-0.0169499,0
 .0768525,-0.0366032,0.0470694,0.1347608,0.0770948,-0.1151357,-0.231243
 8,-0.0926648,-0.0548995,-0.1019393,-0.1120795,-0.0658616,-0.1115817,-0
 .0938378,-0.0038495,-0.2473104,0.0745685,0.0945316,0.0710237,0.0247614
 ,0.0041411,0.1090831,-0.0127584,0.0160551,0.0990854,-0.0784502,-0.0372
 363,-0.1161346,0.0125018,-0.0104552,-0.0044009,-0.05155,0.0292484,0.05
 54535,0.013337,0.0106677,0.0201926,0.0002772,0.0433205,-0.0439643,0.09
 54925,-0.1413191\Polar=199.88779,-0.9327549,81.7405042,-12.7342294,7.3
 294987,96.7340822\Quadrupole=-8.4493432,5.8506237,2.5987195,-0.3101503
 ,1.1864031,-1.3462167\PG=C01 [X(C8H14N1O2)]\NImag=0\\0.12954027,-0.028
 31859,0.15089721,-0.07277055,0.26282611,0.65997656,-0.12969917,0.03342
 045,0.08030450,0.62336500,0.03393253,-0.16567271,-0.20064020,-0.066325
 71,0.31738959,0.08412832,-0.19809733,-0.55563217,-0.18783913,0.2555618
 8,0.82102147,-0.00297800,0.01865275,0.04578036,-0.23027030,0.02999495,
 0.08352152,0.71488333,0.01497742,0.00987462,-0.02330931,0.05114727,-0.
 07598658,-0.04379990,0.01001115,0.17847598,0.03660961,-0.02338720,-0.0
 3829079,0.13280598,-0.04175032,-0.16623065,-0.03098455,0.21749272,0.58
 459882,0.01123250,-0.01224275,-0.02950123,-0.09449511,0.00842785,0.025
 72539,-0.24799465,-0.05845008,-0.11759836,0.81871802,0.00157906,-0.000
 56865,-0.00138058,-0.00217687,-0.01105403,0.01253609,-0.04493260,-0.07
 218576,-0.04023118,-0.01745619,0.14146614,0.00234842,0.00005130,-0.000
 01481,0.00345977,0.01108351,0.00849195,-0.08910996,-0.03921135,-0.1354
 3515,-0.09113401,0.10740420,0.34562904,-0.00349288,0.00592677,0.013916
 96,0.02675080,-0.00979253,-0.02369314,-0.11633690,0.00481454,0.0206470
 4,-0.42185516,0.06510896,0.17525547,0.78332672,0.00016917,-0.00096205,
 0.00043406,-0.00124603,0.00672608,-0.00287548,-0.00567893,0.01145310,-
 0.00317393,0.07526703,-0.07609529,-0.05752029,-0.02910319,0.20838056,0
 .00172769,-0.00135973,-0.00453342,-0.01049285,-0.00053314,0.00753491,0
 .00728620,-0.00313457,0.00458620,0.18634161,-0.05742449,-0.19570841,-0
 .11303206,0.18295430,0.54799430,0.00109171,-0.00121511,-0.00300782,-0.
 00569756,0.00111930,0.00362963,0.01177763,-0.00048253,0.00133106,-0.05
 757977,0.00004032,-0.00101014,-0.16562173,-0.02171976,-0.05803434,0.51
 047165,0.00019239,-0.00074778,-0.00114519,-0.00182171,0.00268747,0.001
 07563,0.00476564,0.01083061,-0.00503064,-0.00096558,-0.00864463,0.0100
 5252,-0.02364836,-0.07450221,-0.02733858,-0.03850271,0.53673229,0.0006
 9762,-0.00094151,-0.00247163,-0.00395928,0.00058517,0.00422823,0.01016
 562,-0.00507411,0.00153439,0.00364583,0.01034000,0.00949214,-0.0503696
 7,-0.02282497,-0.11567965,0.00444716,0.00777269,0.50595936,-0.00028751
 ,0.00040903,0.00107034,0.00125084,-0.00040057,-0.00115771,-0.00161862,
 -0.00014616,-0.00057532,0.00080708,-0.00143980,-0.00275076,0.00322188,
 -0.01525995,-0.02865121,-0.08145061,0.00705872,0.01364152,0.58883701,0
 .00007374,-0.00017392,0.00001024,-0.00013751,-0.00000992,0.00014028,0.
 00036771,0.00002569,0.00015239,0.00140368,-0.00186617,0.00049394,-0.00
 273735,-0.00399581,-0.00969487,0.00839296,-0.10978604,-0.05901170,0.01
 174878,0.55619808,0.00009604,-0.00014938,-0.00058694,-0.00085382,0.000
 34570,0.00082063,0.00195292,0.00023902,-0.00009376,0.00019378,-0.00015
 364,-0.00285877,-0.00596742,-0.01054108,-0.01873977,0.01466683,-0.0544
 6844,-0.17734319,0.00570188,-0.04247150,0.51239561,-0.00027838,0.00036
 043,0.00086111,0.00136117,-0.00006136,-0.00138358,-0.00281864,0.001819
 58,-0.00089534,0.00005211,-0.00461329,-0.00054130,-0.02751260,-0.01648
 488,0.01907997,-0.10856705,-0.03798472,0.04363405,-0.00344612,-0.00160
 315,0.00519527,0.54113988,-0.00000069,0.00006994,0.00027838,0.00036034
 ,-0.00005619,-0.00043340,-0.00100307,0.00014794,-0.00006498,0.00294815
 ,-0.00124464,-0.00043293,-0.00983500,-0.00258290,0.00259076,-0.0366647
 2,-0.11429476,0.04430611,0.00931455,0.00915321,-0.00926441,-0.03316002
 ,0.54211403,-0.00046258,0.00061538,0.00152972,0.00221552,-0.00052217,-
 0.00207190,-0.00356652,0.00094081,-0.00014664,0.00035347,-0.00092789,-
 0.00023235,-0.00291370,-0.00544796,0.01172749,0.03900072,0.03885902,-0
 .12538143,0.02015361,0.01648855,-0.02583209,0.03618125,0.03794403,0.53
 629103,0.00686882,-0.02376168,-0.04789819,-0.14565121,-0.00773180,-0.0
 1623882,-0.07108563,-0.01455167,-0.02699758,0.01073288,0.00358185,0.00
 682851,-0.00947109,-0.00073105,0.00169988,0.00200361,0.00089750,0.0021
 8002,-0.00052277,0.00010962,0.00041511,-0.00071321,-0.00008263,-0.0012
 1944,0.50756982,-0.02193785,0.00594071,-0.03487981,-0.00319908,-0.0675
 0797,-0.02924320,-0.00382511,0.01150409,0.00011912,0.00410013,0.004985
 15,-0.00103316,-0.00115242,-0.00054070,0.00051406,0.00037047,-0.000438
 82,0.00052020,-0.00004194,0.00002967,0.00004211,-0.00018486,-0.0000436
 6,-0.00021039,-0.00916392,0.11423462,-0.04726932,-0.03536514,-0.057785
 71,0.00221051,-0.02545976,-0.11856116,-0.00245005,0.00101625,0.0133904
 6,0.00876327,-0.00103312,0.00254173,-0.00203229,0.00014395,0.00051526,
 0.00055439,0.00043166,0.00026033,-0.00004430,0.00002446,0.00010544,-0.
 00006457,-0.00000948,-0.00022086,-0.04453096,0.09557226,0.29859665,0.0
 0029209,0.00469008,0.01438329,-0.07156649,-0.00533976,-0.00326887,0.00
 894500,-0.00050801,-0.00257040,-0.00659637,-0.00026912,0.00009557,0.00
 331459,-0.00001662,-0.00132242,-0.00091597,-0.00031646,-0.00069424,0.0
 0022397,-0.00003934,-0.00014028,0.00024262,0.00003932,0.00043346,-0.21
 213560,0.01761749,0.05661901,0.55366326,-0.00245182,-0.00582228,-0.001
 88831,-0.00657144,0.00235434,0.01260192,-0.00203076,0.00016258,-0.0025
 3636,-0.00037196,0.00231538,-0.00055304,-0.00043461,-0.00024047,0.0001
 5331,0.00012372,-0.00021105,0.00026007,-0.00004606,0.00002890,0.000010
 77,-0.00011410,0.00000020,-0.00011035,0.02754730,-0.07580068,-0.027603
 97,0.05157457,0.52157497,0.00045120,-0.00422915,-0.01179563,-0.0034091
 9,0.01411026,0.03214585,-0.00422712,-0.00250383,-0.00360547,0.00007866
 ,-0.00041496,0.00106426,-0.00108835,-0.00004022,0.00022949,0.00022912,
 0.00022939,0.00021220,-0.00008442,-0.00000006,0.00005240,-0.00006597,-
 0.00001020,-0.00014643,0.07505681,-0.02437323,-0.13765539,0.04495166,0
 .00620155,0.60954446,-0.00045184,0.00025349,-0.00208258,0.00369715,0.0
 0446875,0.00315875,-0.00179745,-0.00069234,-0.00024765,0.00097534,-0.0
 0031633,0.00030056,-0.00057524,0.00003443,0.00017962,0.00012580,0.0001
 0966,0.00008496,-0.00003503,0.00000914,0.00002060,-0.00002692,-0.00000
 298,-0.00005911,-0.02809480,0.03853922,0.00414540,-0.08034146,0.018661
 89,-0.00489994,0.58450609,0.00095293,-0.00253280,-0.00016600,0.0001513
 0,0.00119952,0.00167441,0.00046835,-0.00010970,-0.00018548,-0.00037794
 ,0.00001375,-0.00004177,0.00015172,0.00000826,-0.00006225,-0.00005057,
 -0.00002106,-0.00003557,0.00001485,-0.00000396,-0.00000844,0.00001485,
 -0.00000070,0.00002817,0.01297022,-0.00306349,-0.00561969,0.02501883,-
 0.20910508,0.01573334,0.02813375,0.49086508,-0.00007774,-0.00056878,0.
 00206564,-0.00280813,-0.00065152,-0.00183144,0.00066156,0.00061113,0.0
 0013319,-0.00024884,0.00012989,-0.00020244,0.00020247,0.00001613,-0.00
 001809,-0.00003745,-0.00005269,-0.00003034,0.00001038,0.00000611,-0.00
 001298,0.00000885,0.00000076,0.00002327,0.01451007,-0.01779132,0.00277
 581,-0.00777136,0.01842688,-0.08346415,0.00005928,0.00655766,0.5865465
 4,-0.00556392,0.00078870,0.00289285,0.00709686,0.00962594,0.02110823,-
 0.05323449,-0.00769287,-0.01482092,-0.01328974,-0.01325691,-0.02831177
 ,0.00727455,-0.00251906,-0.00681350,-0.00052977,0.00016409,0.00053202,
 -0.00000587,0.00005458,-0.00004259,-0.00010804,0.00002524,-0.00004390,
 -0.00174712,0.00011436,0.00039525,0.00012898,-0.00000531,-0.00031889,0
 .00009294,0.00001865,-0.00001748,0.05903192,0.00133145,0.00575574,-0.0
 0248433,-0.00370060,-0.00724845,-0.00343591,-0.00443443,-0.06687767,-0
 .10702838,-0.00603715,0.00555092,-0.01121473,0.00230291,-0.00427375,0.
 00265250,-0.00019237,0.00025201,-0.00000926,0.00009544,0.00016696,-0.0
 0001202,0.00001836,0.00008847,-0.00011352,-0.00005136,-0.00050153,0.00
 114712,0.00023151,-0.00056701,0.00040895,0.00013432,-0.00002108,-0.000
 16657,0.01159146,0.06875278,0.00415374,-0.00252798,0.00076018,-0.00951
 888,-0.00441083,-0.01498814,-0.00738415,-0.10671611,-0.26324608,-0.011
 54150,-0.01069221,-0.01270292,0.00422405,0.00299951,0.00113237,-0.0004
 6112,-0.00006190,0.00035850,0.00016301,0.00003265,0.00007186,-0.000131
 01,0.00001187,-0.00018032,0.00000663,0.00111226,0.00152799,0.00036987,
 0.00044534,0.00011720,-0.00012055,-0.00000231,0.00004434,0.02275173,0.
 11885083,0.28604939,-0.00051483,-0.00001251,0.00001636,0.00077129,-0.0
 0022171,-0.00043312,0.00538726,0.00277983,0.00500654,-0.00750575,0.013
 59584,0.03292516,-0.05549458,-0.00237188,-0.00423920,0.00141736,-0.011
 30787,-0.02124440,-0.00485790,-0.00048834,-0.00089821,0.00130727,0.000
 37727,-0.00148273,-0.00065320,-0.00007835,-0.00014828,0.00016589,-0.00
 004906,-0.00008737,-0.00002226,0.00000905,0.00001367,0.00070794,-0.000
 90997,-0.00233783,0.05894527,0.00020590,0.00018291,0.00012669,-0.00032
 552,0.00013578,-0.00030751,-0.00211978,-0.00720977,0.00485026,0.005933
 63,0.01567952,-0.01859976,-0.00303235,-0.07557120,-0.08976456,0.000815
 15,-0.00107471,-0.00547582,-0.00154360,0.00123532,-0.00048754,0.001349
 50,0.00049508,-0.00075606,0.00043871,0.00009426,0.00008628,-0.00010150
 ,0.00009312,-0.00001116,-0.00000275,-0.00000388,-0.00000402,0.00113350
 ,-0.00100454,0.00084871,-0.00154209,0.06748386,0.00033556,0.00024875,0
 .00074829,0.00000773,-0.00038427,-0.00082883,-0.00710620,0.00439598,0.
 00129523,0.01772148,-0.01927750,-0.02113330,-0.00763437,-0.09004113,-0
 .23412753,0.00413849,-0.00550022,-0.01137131,-0.00281387,0.00018673,0.
 00064532,0.00054637,0.00025016,-0.00004849,0.00068445,0.00002954,0.000
 11872,-0.00015998,0.00000876,0.00009086,0.00003175,-0.00000235,-0.0000
 3443,0.00236271,0.00092508,0.00066053,-0.00702494,0.10950981,0.2634936
 7,-0.00093939,0.00100485,0.00243381,0.00440627,-0.00165688,-0.00296242
 ,-0.00718193,-0.00254971,0.00096172,0.00542417,0.00306068,-0.00468071,
 -0.02293737,0.02082895,-0.00116855,-0.09553702,0.10311735,-0.01909748,
 -0.00205055,0.00211170,-0.00085493,0.00724406,-0.01724752,0.00452906,-
 0.00214479,-0.00015691,-0.00052406,0.00080910,-0.00004264,-0.00030496,
 -0.00013408,0.00004908,0.00005609,-0.00004842,-0.00019648,-0.00017880,
 0.00042257,-0.00116049,-0.00047165,0.11206751,0.00017109,0.00003033,-0
 .00010547,-0.00050214,-0.00016511,0.00015118,0.00025504,-0.00060535,0.
 00025649,-0.00009564,0.00035717,0.00001894,-0.00238455,0.00995323,-0.0
 0083583,0.09526112,-0.22046702,0.03250215,0.00747499,-0.01365044,0.002
 13081,0.00795882,-0.01782206,0.00425666,0.00025050,0.00007595,0.000023
 67,-0.00010296,0.00000896,0.00003298,0.00001096,-0.00000365,-0.0000060
 4,0.00000117,0.00014357,0.00000396,0.00084205,-0.00015436,0.00050424,-
 0.10570117,0.24226221,-0.00039648,0.00059065,0.00126916,0.00209509,-0.
 00092741,-0.00157249,-0.00368000,-0.00068704,0.00027042,0.00366317,0.0
 0114908,-0.00166660,-0.01007237,0.00868147,0.00109688,-0.01950385,0.03
 609851,-0.05274575,0.01427665,-0.02617093,0.00324760,-0.00826618,0.020
 70820,-0.00551231,-0.00096510,-0.00008131,-0.00023111,0.00036986,-0.00
 002957,-0.00013295,-0.00006208,0.00002304,0.00002027,0.00001561,0.0000
 0392,-0.00007623,0.00040677,-0.00064439,-0.00012042,0.01966674,-0.0381
 3312,0.06019469,0.00021900,0.00008508,-0.00004958,-0.00031042,-0.00004
 320,-0.00003196,-0.00005270,0.00005780,-0.00002830,-0.00006073,-0.0000
 9532,0.00003731,0.00051112,-0.00110088,-0.00069233,-0.00260744,0.00429
 906,0.00039057,-0.10539351,0.11400513,-0.02071535,-0.00006193,0.000286
 87,-0.00084691,0.00027544,0.00003458,0.00007112,-0.00010709,0.00001873
 ,0.00004219,0.00001266,-0.00000936,-0.00000908,0.00005452,0.00005243,0
 .00010736,-0.00001869,0.00007145,0.00031439,0.00034846,0.00010832,0.00
 099437,0.10977481,0.00009502,0.00024720,0.00031177,0.00020663,-0.00025
 957,-0.00049642,-0.00111944,0.00003272,0.00003165,0.00107133,0.0015575
 4,0.00074737,0.00131995,0.00034399,0.00040609,0.00710675,-0.01504966,0
 .00241064,0.11202926,-0.25198656,0.03683073,-0.00080203,0.00102333,0.0
 0089546,0.00002695,0.00002251,0.00002546,-0.00000814,-0.00000772,0.000
 00844,-0.00000420,-0.00000031,-0.00000535,0.00012518,0.00000677,0.0001
 4444,-0.00025230,-0.00006176,0.00004383,0.00006132,-0.00064008,-0.0035
 4635,-0.12426693,0.27078179,0.00004716,-0.00016124,-0.00033665,-0.0003
 5754,0.00011472,0.00039428,0.00039898,0.00004063,0.00003449,-0.0010975
 2,-0.00030846,-0.00017269,0.00107702,0.00054219,0.00046073,0.01395579,
 -0.02570784,0.00393740,-0.02062394,0.03857036,-0.05072110,-0.00004114,
 -0.00134547,0.00196756,0.00012706,0.00000634,-0.00001231,-0.00005688,0
 .00001069,0.00002027,0.00001145,-0.00000410,0.00000058,0.00002846,0.00
 001169,-0.00001824,0.00009249,0.00025296,-0.00002418,0.00070574,-0.003
 20528,-0.00478585,0.02046990,-0.03740336,0.05552566,0.00031751,-0.0000
 1455,0.00014855,-0.00029060,-0.00008920,-0.00021921,-0.00029606,-0.000
 05488,-0.00007358,-0.00075149,-0.00040321,-0.00156014,-0.00011421,0.00
 008172,-0.00054410,-0.00233639,-0.00113587,0.00279743,-0.13809331,-0.0
 9082127,0.10114158,0.00000286,0.00100768,0.00054163,0.00031827,0.00004
 648,0.00009939,-0.00012562,0.00002671,0.00004822,0.00001481,-0.0000099
 4,-0.00000693,0.00003537,0.00005590,0.00014300,-0.00002569,0.00026949,
 0.00024256,-0.00015904,-0.00000563,-0.00006293,0.00829131,0.00851378,-
 0.00976154,0.14564042,-0.00006279,-0.00022550,-0.00045785,-0.00032342,
 0.00024948,0.00056195,0.00078820,-0.00001382,-0.00005516,-0.00174142,-
 0.00070352,-0.00138537,-0.00013570,0.00024061,0.00047763,0.01013586,0.
 00956438,-0.01004664,-0.08926658,-0.13020235,0.09567102,-0.00002200,-0
 .00106709,-0.00256904,0.00002691,-0.00001536,-0.00004941,-0.00001645,0
 .00000292,0.00000759,0.00000594,-0.00000026,0.00000238,-0.00006827,-0.
 00004205,-0.00010510,0.00025412,-0.00002917,-0.00005359,0.00034183,0.0
 0084923,0.00070572,-0.01600948,-0.01418398,0.01630079,0.09628087,0.137
 57000,0.00021887,-0.00004692,-0.00000593,-0.00026633,-0.00003748,-0.00
 012061,-0.00088189,-0.00002509,0.00013404,0.00047544,-0.00034963,0.000
 91633,0.00148410,0.00020829,0.00035880,0.01480104,0.01736144,-0.015916
 52,0.09817057,0.09301941,-0.14889396,-0.00037274,-0.00420932,-0.004781
 93,0.00027902,0.00000959,0.00004472,-0.00011224,0.00003021,0.00004105,
 0.00001383,-0.00000891,-0.00000683,0.00020001,0.00014361,0.00017810,-0
 .00009438,0.00016355,0.00011505,-0.00000558,-0.00013330,0.00098327,0.0
 0235016,0.00154706,-0.00306918,-0.10909495,-0.09893622,0.16125146,-0.0
 0035970,0.00009307,0.00029026,0.00084947,-0.00000877,-0.00023611,0.000
 01530,-0.00005904,-0.00007638,-0.00027479,-0.00073683,-0.00174560,-0.0
 0055007,0.00038525,0.00181431,0.00361468,0.00150921,0.00411355,-0.2552
 9328,-0.03935360,-0.09952648,0.00060275,0.00033909,0.00031112,-0.00061
 651,-0.00006917,-0.00011647,0.00024900,-0.00004623,-0.00009141,-0.0000
 2960,0.00001944,0.00001403,-0.00018997,-0.00013400,-0.00014565,0.00023
 888,-0.00002413,-0.00001847,0.00054271,-0.00059595,-0.00048393,-0.0109
 9034,-0.00424058,-0.00449336,-0.01292064,-0.00034685,-0.00842997,0.274
 57339,-0.00011413,0.00019035,0.00027195,0.00043389,-0.00020355,-0.0003
 0101,-0.00051812,0.00006988,-0.00007047,0.00065906,0.00047548,0.000105
 54,0.00149266,-0.00041968,-0.00274874,-0.01514909,-0.00389838,-0.00591
 054,-0.03893366,-0.05481359,-0.01724231,-0.00000519,0.00009703,0.00079
 177,-0.00023595,-0.00001592,-0.00003313,0.00009552,-0.00002328,-0.0000
 3190,-0.00001427,0.00000630,0.00000172,-0.00000691,0.00003941,-0.00000
 330,-0.00084920,0.00001727,-0.00053418,-0.00021338,0.00004190,0.000582
 60,0.02296730,0.00736970,0.01125217,-0.01321056,-0.00261061,-0.0093179
 7,0.04312303,0.05353749,-0.00018939,0.00022292,0.00061953,0.00087545,-
 0.00021759,-0.00073200,-0.00128189,-0.00006355,0.00004709,0.00191306,0
 .00044580,0.00097205,0.00303277,-0.00269434,-0.00425843,-0.02663222,-0
 .00286027,-0.01196981,-0.09853868,-0.01734853,-0.09343315,-0.00165916,
 -0.00002141,0.00121767,-0.00044458,-0.00004730,-0.00006566,0.00017752,
 -0.00003116,-0.00006517,-0.00002454,0.00001289,0.00000904,0.00005485,-
 0.00000878,0.00006967,-0.00151826,-0.00060977,-0.00065708,0.00043550,-
 0.00001619,0.00101855,-0.00293553,-0.00122734,-0.00315695,0.01612290,0
 .00108428,0.00965238,0.10937740,0.02312588,0.10056084,-0.00056834,0.00
 056993,0.00137264,0.00243769,-0.00049920,-0.00178107,-0.00342130,0.000
 43810,-0.00014060,0.00322927,-0.00153985,-0.00001081,-0.00289804,-0.00
 204644,0.00560789,-0.01489243,-0.00017949,-0.00871376,0.00027751,0.000
 30543,-0.00135701,-0.26480356,-0.03274473,-0.09240872,-0.00126130,-0.0
 0018032,-0.00023153,0.00049253,-0.00010321,-0.00015963,-0.00006446,0.0
 0003291,0.00002340,-0.00000720,-0.00003067,-0.00012026,0.00008357,0.00
 022213,-0.00049944,0.00071551,-0.00026256,0.00002022,-0.00005940,-0.00
 008850,-0.00000945,0.00028034,-0.00002750,0.00013189,0.00033174,0.0002
 5047,0.00097191,0.28708595,-0.00012224,0.00012171,0.00027926,0.0004364
 5,-0.00004688,-0.00039410,-0.00054727,0.00026336,0.00001804,-0.0009356
 3,-0.00061801,0.00007371,-0.00122687,0.00001712,0.00341581,-0.01605265
 ,-0.00267304,-0.00854530,0.00068812,0.00012425,-0.00069961,-0.03222592
 ,-0.05227392,-0.01405139,-0.00029623,-0.00004826,-0.00003805,0.0001022
 1,-0.00003793,-0.00003399,-0.00001154,0.00000706,0.00000528,-0.0000242
 2,-0.00001683,-0.00006192,0.00024318,0.00005255,-0.00008650,0.00042129
 ,0.00014035,-0.00071800,0.00006838,-0.00001490,0.00009850,0.00006739,-
 0.00019912,-0.00004342,0.00019939,0.00031844,0.00020917,0.03861450,0.0
 5149519,-0.00000340,-0.00003619,-0.00006406,-0.00003514,0.00003036,0.0
 0012302,0.00021835,-0.00044307,0.00016069,0.00138420,0.00076930,0.0001
 3542,0.00025341,0.00093515,-0.00288198,0.01951178,0.00208840,0.0079468
 4,0.00051684,0.00019289,0.00176998,-0.09272517,-0.01434606,-0.08454803
 ,0.00004102,0.00002058,0.00000540,0.00000241,0.00001564,-0.00000436,-0
 .00000135,0.00000062,-0.00000094,0.00003595,-0.00003759,0.00008231,0.0
 0028280,0.00034944,0.00044331,-0.00083066,-0.00050176,0.00072498,0.000
 00177,-0.00008419,-0.00005352,-0.00017935,0.00002829,0.00021741,-0.000
 40040,-0.00001172,-0.00021441,0.09955613,0.01416311,0.08800075,0.00011
 150,-0.00015296,-0.00036053,-0.00050061,0.00014898,0.00041816,0.000552
 22,0.00004639,0.00009644,-0.00061896,-0.00042998,-0.00083231,0.0010517
 8,0.00165009,0.00166185,-0.00211185,0.01031105,0.01437639,-0.00229479,
 -0.00290755,0.00182591,-0.04719610,0.01095827,0.01902653,0.00023993,0.
 00002356,0.00002052,-0.00010151,0.00001939,0.00003850,0.00001470,-0.00
 000723,-0.00000269,-0.00001864,-0.00000490,-0.00000689,-0.00030099,-0.
 00054722,-0.00069175,0.00058777,-0.00008995,-0.00058732,0.00017687,-0.
 00024636,-0.00033660,0.00019191,0.00027557,0.00128338,0.00032641,0.000
 09601,0.00029517,0.00367227,-0.01391417,-0.02482516,0.04795036,0.00007
 634,-0.00005813,-0.00015961,-0.00032258,0.00007253,0.00020251,0.000370
 94,-0.00011254,0.00001536,-0.00026526,0.00007409,-0.00017510,0.0004997
 3,0.00047866,0.00051086,-0.00116941,0.00903720,0.01610099,-0.00205593,
 -0.00151987,0.00155329,0.01173157,-0.10598356,-0.11263518,0.00018390,0
 .00002734,0.00004844,-0.00006535,0.00001299,0.00001878,0.00000757,-0.0
 0000351,-0.00000666,0.00000653,-0.00000027,0.00005552,0.00014769,-0.00
 004500,-0.00023604,0.00074611,0.00085522,-0.00032958,-0.00031116,0.000
 23603,0.00017726,-0.00043513,0.00055510,0.00080555,0.00003475,-0.00016
 439,-0.00002090,0.00058090,-0.00267331,-0.00205999,-0.01061608,0.11091
 812,0.00003509,0.00006466,0.00016047,0.00003328,-0.00005342,-0.0002111
 0,-0.00021934,-0.00010269,-0.00003895,0.00070272,0.00019916,0.00054490
 ,-0.00249902,-0.00053826,0.00006552,0.00124609,-0.01080515,-0.01668118
 ,0.00304580,0.00435034,-0.00186999,0.01996887,-0.11237606,-0.25201102,
 0.00006038,0.00001810,0.00004973,-0.00001459,-0.00000120,-0.00000292,-
 0.00000006,-0.00000052,-0.00000386,0.00004238,0.00001760,0.00008134,0.
 00067829,0.00042781,0.00070134,-0.00051782,0.00029964,0.00042065,-0.00
 006069,-0.00010785,0.00022055,0.00015439,-0.00084474,-0.00133427,-0.00
 013876,0.00008070,0.00041005,0.00177549,-0.00444247,-0.00912733,-0.023
 77149,0.12040227,0.27314679,0.00016292,-0.00015635,-0.00039330,-0.0006
 9200,0.00017075,0.00048799,0.00091697,0.00006986,0.00003727,-0.0011226
 8,0.00017798,0.00021740,0.00241716,-0.00010023,-0.00068821,0.00712249,
 -0.01660309,0.00312522,0.00078970,-0.00050646,-0.00089324,-0.09633693,
 0.10509510,-0.01961636,0.00036269,0.00003965,0.00007565,-0.00014295,0.
 00002160,0.00005059,0.00002132,-0.00001057,-0.00000850,0.00001928,0.00
 004855,0.00002505,0.00000103,-0.00010477,-0.00003213,-0.00122650,-0.00
 262307,0.00266683,-0.00002803,0.00047038,-0.00014965,-0.00000975,-0.00
 009307,-0.00017849,-0.00005678,0.00015855,0.00001380,-0.01049618,0.024
 54834,-0.00280830,-0.00175867,0.00083579,-0.00052588,0.10002029,-0.000
 02053,0.00004048,0.00001002,0.00001985,-0.00002568,-0.00001582,0.00004
 903,-0.00007237,0.00008870,-0.00112627,0.00043167,0.00014164,0.0018300
 9,0.00155764,-0.00079530,0.00781966,-0.01729349,0.00308493,0.00029303,
 0.00105718,-0.00132843,0.10400240,-0.25780978,0.03652124,-0.00005391,0
 .00001224,-0.00001941,0.00001352,-0.00001663,-0.00000198,-0.00000277,0
 .00000278,0.00000284,-0.00001022,-0.00006627,-0.00002381,-0.00016457,-
 0.00029259,0.00000418,-0.00280921,-0.00121931,0.00272608,-0.00022167,0
 .00057523,0.00075771,-0.00017125,0.00026183,-0.00017943,-0.00008249,-0
 .00001648,0.00006706,-0.00330747,0.00605974,-0.00106979,0.00538653,-0.
 01170697,0.00341049,-0.11144002,0.27851340,0.00001549,-0.00007214,-0.0
 0012518,-0.00010880,0.00008352,0.00014840,0.00018493,0.00019809,-0.000
 08659,0.00007838,-0.00054176,0.00009251,-0.00094649,-0.00123783,0.0002
 9724,-0.00878301,0.01899491,-0.00428052,-0.00153537,0.00103167,0.00128
 496,-0.01935293,0.03641757,-0.05167175,0.00004925,-0.00000692,-0.00000
 357,-0.00002374,0.00000244,0.00001205,0.00000599,-0.00000245,0.0000017
 4,-0.00001201,0.00002053,-0.00002738,0.00009402,0.00003028,0.00002854,
 0.00277021,0.00276430,-0.00242215,0.00059459,-0.00053304,-0.00020516,0
 .00006921,-0.00033178,0.00024165,-0.00003119,-0.00001589,-0.00003756,-
 0.00405852,0.01084422,-0.00271635,0.01238345,-0.02426813,0.00547215,0.
 01860216,-0.04337715,0.05400220,-0.00212549,-0.00124156,-0.00455497,0.
 00391257,0.00268633,0.00801313,-0.00073704,-0.00002686,-0.00091395,0.0
 0015224,0.00008530,-0.00021159,-0.00015089,0.00003497,0.00006531,0.000
 03262,-0.00002415,0.00004828,-0.00001393,-0.00000074,0.00000581,-0.000
 01729,-0.00000398,-0.00001781,-0.01330052,-0.00774674,0.03748966,-0.04
 822363,0.00690688,-0.02578604,0.00094472,0.00223681,-0.00834306,0.0003
 3954,-0.00027319,-0.00013995,0.00000642,0.00002248,-0.00001639,-0.0000
 1486,0.00000047,-0.00001002,-0.00000101,-0.00000429,0.00000348,-0.0000
 0384,0.00000577,-0.00000152,-0.00000015,-0.00000324,-0.00000604,-0.000
 01542,-0.00000411,0.00000246,0.00000456,0.00000168,-0.00000325,0.00000
 322,0.00000065,0.00000077,0.05870123,0.00040231,-0.00115017,-0.0016062
 8,-0.00083807,0.00171808,0.00225102,0.00085170,-0.00021064,-0.00056128
 ,-0.00059962,-0.00013921,-0.00005207,0.00030578,0.00001989,-0.00009652
 ,-0.00007342,-0.00001663,-0.00006121,0.00001780,-0.00000615,-0.0000118
 6,0.00002353,-0.00000070,0.00003511,0.00084374,0.00407347,-0.00770950,
 0.00473959,-0.06792616,0.06325595,0.00288677,-0.01031862,0.03174435,0.
 00008346,-0.00002795,-0.00006904,0.00001875,-0.00001699,-0.00002183,0.
 00006581,-0.00000946,0.00002800,-0.00001065,-0.00000311,-0.00000114,-0
 .00001286,0.00000430,-0.00001019,0.00002008,0.00000724,0.00001300,0.00
 003941,0.00000924,-0.00000093,-0.00000683,-0.00000600,-0.00000329,-0.0
 0001165,0.00000308,-0.00000055,-0.00964016,0.07241227,-0.00449616,-0.0
 0022317,0.00305657,-0.00639870,-0.00337107,-0.00565359,0.00099603,0.00
 027561,0.00018466,-0.00048336,-0.00016812,0.00010592,0.00033386,0.0000
 0720,-0.00010694,-0.00009356,-0.00003028,-0.00008310,0.00002819,0.0000
 0040,-0.00001748,0.00002923,0.00000748,0.00004900,0.01836581,0.0009305
 8,-0.01720140,-0.01564230,0.06779865,-0.29068753,-0.00125606,0.0002874
 2,-0.00062027,0.00001395,0.00020603,0.00006983,0.00001233,0.00000558,-
 0.00002774,0.00009316,-0.00001667,0.00003999,-0.00001291,-0.00000541,-
 0.00000581,-0.00001599,-0.00000088,-0.00001270,0.00003026,0.00001096,0
 .00002108,0.00005649,0.00001215,0.00000111,-0.00001346,-0.00000633,0.0
 0000043,-0.00001609,-0.00000268,-0.00000292,0.01099329,-0.06926265,0.3
 1929010,0.00054645,-0.00045709,-0.00119606,0.00255941,0.00041127,0.008
 05909,-0.00224447,-0.00063923,-0.00159651,0.00063304,0.00052977,0.0003
 6889,-0.00072678,-0.00007389,0.00016572,0.00016987,0.00003840,0.000186
 87,-0.00003895,0.00000820,0.00003098,-0.00006220,-0.00000929,-0.000098
 87,-0.04179602,-0.01382315,-0.01209767,-0.14713080,-0.09581788,-0.0798
 7586,0.00744659,0.00555796,0.00428229,-0.00003759,0.00000560,0.0001592
 6,-0.00005455,0.00003806,0.00007816,-0.00016932,0.00002869,-0.00007396
 ,0.00002415,0.00000749,0.00000963,0.00002867,-0.00000058,0.00002573,-0
 .00005569,-0.00001895,-0.00003604,-0.00010654,-0.00002520,0.00000222,0
 .00001951,0.00001575,0.00000739,0.00002962,-0.00000186,0.00000294,0.00
 010892,-0.00081471,-0.00172971,0.17979893,0.00019509,0.00055237,0.0001
 5924,0.00266919,0.00031460,0.00015045,-0.00030796,0.00008807,0.0001292
 0,0.00028667,0.00003639,0.00003561,-0.00010361,-0.00000432,0.00002581,
 0.00002692,0.00000957,0.00001938,-0.00000023,-0.00000612,0.00000764,-0
 .00000330,-0.00000652,-0.00001058,0.00443616,0.00701404,0.00402460,-0.
 09990301,-0.14001069,-0.07322075,-0.02020789,-0.01958316,-0.01664368,-
 0.00001686,-0.00000579,-0.00000694,-0.00000437,0.00000145,0.00001489,-
 0.00002803,0.00000874,-0.00000996,0.00000431,0.00000573,-0.00000103,0.
 00000343,-0.00000173,0.00000227,-0.00000902,-0.00000035,-0.00000460,-0
 .00001509,-0.00000198,-0.00000123,0.00000150,0.00000377,0.00000383,0.0
 0000399,0.00000290,-0.00000122,0.00583218,0.00588684,0.00331026,0.1042
 6493,0.14974615,-0.00348241,0.00061849,0.00291151,0.00121615,-0.002088
 53,-0.00617286,-0.00007126,0.00015743,0.00078903,0.00047643,-0.0001093
 1,0.00004405,-0.00011727,0.00003466,0.00005925,0.00004397,0.00002583,0
 .00001550,-0.00000509,0.00000007,0.00000744,-0.00000361,-0.00000160,-0
 .00001505,0.01921746,0.00967107,0.00919173,-0.08597491,-0.07461540,-0.
 11445624,0.00223443,0.00407775,0.00216508,-0.00003135,0.00001522,0.000
 02124,-0.00001209,0.00000137,0.00001543,-0.00004425,0.00000780,-0.0000
 1791,0.00000623,0.00000481,0.00000023,0.00000836,-0.00000325,0.0000053
 0,-0.00001413,-0.00000348,-0.00000726,-0.00002160,-0.00000340,-0.00000
 188,0.00000370,0.00000333,0.00000366,0.00000652,0.00000135,0.00000003,
 -0.01765904,-0.01828247,-0.01014067,0.08358758,0.08056624,0.11381107,-
 0.00086069,0.00086697,-0.00034611,0.00275015,-0.00033368,0.00001426,-0
 .00122529,-0.00013460,-0.00002383,0.00090110,0.00004996,0.00015420,-0.
 00048149,0.00000095,0.00017571,0.00012823,0.00005468,0.00009672,-0.000
 02599,-0.00000033,0.00002049,-0.00002998,-0.00000906,-0.00005842,-0.00
 130722,0.00336479,-0.00067341,-0.00651726,-0.00453324,0.00282200,-0.26
 873540,0.03320627,0.09466980,-0.00000842,0.00001825,0.00001828,-0.0000
 3146,0.00000837,0.00002896,-0.00012048,0.00001842,-0.00005308,0.000018
 21,0.00000492,0.00000902,0.00002010,0.00000269,0.00001728,-0.00004153,
 -0.00001214,-0.00002633,-0.00007334,-0.00001369,-0.00000261,0.00001476
 ,0.00000944,0.00000235,0.00002137,0.00000080,0.00000321,0.00008573,0.0
 0031471,-0.00048948,0.00040556,0.00059045,0.00010621,0.28859679,-0.000
 10564,0.00095635,0.00099684,-0.00252968,-0.00193355,-0.00246168,0.0008
 5949,0.00030294,0.00025559,-0.00037417,0.00011786,-0.00014092,0.000269
 52,-0.00000195,-0.00007718,-0.00005879,-0.00004206,-0.00004608,0.00001
 706,-0.00000621,-0.00001012,0.00001579,-0.00000141,0.00002979,0.006309
 37,-0.00754499,0.00085542,0.02676403,0.00407734,-0.01378313,0.03122760
 ,-0.05246782,-0.01261359,-0.00003206,-0.00006005,0.00005456,0.00001224
 ,-0.00001009,-0.00001390,0.00006053,-0.00000436,0.00002758,-0.00000587
 ,0.00000205,-0.00000339,-0.00000788,-0.00000124,-0.00000774,0.00001474
 ,0.00000756,0.00001173,0.00003171,0.00000743,-0.00000059,-0.00000656,-
 0.00000440,-0.00000091,-0.00000939,0.00000342,-0.00000183,-0.00046022,
 0.00099805,0.00087360,-0.00104943,0.00087982,-0.00061078,-0.03750282,0
 .05198173,-0.00037133,0.00070103,0.00010272,-0.00048538,-0.00065540,-0
 .00094220,0.00014122,-0.00006934,0.00012657,-0.00010184,0.00000259,0.0
 0000477,0.00005715,-0.00000493,-0.00002713,-0.00002057,-0.00000198,-0.
 00001484,0.00000376,-0.00000004,-0.00000325,0.00000442,0.00000301,0.00
 000848,0.00086833,0.00002486,0.00174652,-0.00335213,0.00057881,-0.0007
 1986,0.09463412,-0.01372279,-0.08671228,-0.00000766,0.00002811,0.00001
 694,0.00000377,-0.00000192,-0.00000032,0.00001824,-0.00000445,0.000008
 24,-0.00000276,-0.00000135,-0.00000170,-0.00000317,-0.00000033,-0.0000
 0279,0.00000797,0.00000246,0.00000504,0.00001348,0.00000211,0.00000162
 ,-0.00000328,-0.00000112,-0.00000051,-0.00000370,-0.00000170,-0.000001
 13,0.00004460,-0.00047845,0.00002676,-0.00000198,-0.00014524,0.0000027
 5,-0.10461793,0.01506391,0.08782310,-0.00151053,-0.00033248,-0.0022087
 7,-0.00137134,0.00205108,0.00266883,0.00084271,-0.00014909,-0.00018877
 ,-0.00069994,-0.00014522,-0.00013131,0.00034217,0.00000941,-0.00011498
 ,-0.00009903,-0.00002983,-0.00007815,0.00001939,0.00000131,-0.00001694
 ,0.00002617,0.00000600,0.00004632,0.00070484,-0.00153763,-0.00015648,0
 .00620277,0.00550906,0.00461257,-0.17111075,-0.10727973,-0.09333518,0.
 00005474,0.00003880,-0.00006942,0.00002483,-0.00000849,-0.00002432,0.0
 0008706,-0.00001331,0.00003818,-0.00001387,-0.00000403,-0.00000579,-0.
 00001385,-0.00000167,-0.00001257,0.00002980,0.00000785,0.00001923,0.00
 005424,0.00001070,0.00000013,-0.00001004,-0.00000768,-0.00000230,-0.00
 001573,0.00000086,-0.00000155,0.00010624,-0.00053453,0.00000087,0.0005
 2986,0.00253645,-0.00010369,-0.01523771,-0.01467938,-0.01386144,0.1794
 3758,-0.00123933,0.00263801,0.00299662,0.00087182,-0.00301073,-0.00553
 104,-0.00099220,0.00018590,0.00059376,0.00098544,0.00009434,0.00019581
 ,-0.00045871,0.00000112,0.00015987,0.00012091,0.00004619,0.00008742,-0
 .00002478,0.00000849,0.00001721,-0.00003091,-0.00000287,-0.00005360,0.
 00148244,0.00392568,0.00147519,-0.02392138,-0.02069257,-0.01625698,-0.
 10324959,-0.12944118,-0.07909723,-0.00011357,-0.00002035,0.00014729,-0
 .00003011,0.00001051,0.00003296,-0.00010737,0.00001433,-0.00004838,0.0
 0001472,0.00000205,0.00000637,0.00001857,-0.00000085,0.00001529,-0.000
 03189,-0.00001191,-0.00002081,-0.00006214,-0.00001247,-0.00000007,0.00
 001170,0.00000806,0.00000335,0.00001832,-0.00000254,0.00000288,-0.0003
 5300,0.00124182,-0.00017245,0.00239397,-0.00624655,0.00086876,0.004666
 04,0.00273125,0.00399831,0.11234821,0.14342736,-0.00054993,0.00054273,
 -0.00226084,0.00028422,-0.00004582,0.00178685,0.00025989,-0.00009457,-
 0.00030523,-0.00017164,-0.00002489,-0.00001563,0.00008849,0.00000252,-
 0.00003339,-0.00001842,-0.00000829,-0.00001288,0.00000773,-0.00001026,
 -0.00000358,0.00000954,-0.00000854,0.00001063,-0.00047996,-0.00043183,
 -0.00062114,0.00251164,0.00161043,0.00178073,-0.09363959,-0.08079944,-
 0.12139824,0.00002651,0.00003651,-0.00004252,0.00000169,-0.00000711,-0
 .00000129,0.00001342,0.00000348,0.00000688,-0.00000104,0.00000352,0.00
 000260,-0.00000203,0.00000355,-0.00000245,0.00000099,0.00000386,0.0000
 0204,0.00000749,0.00000402,-0.00000203,-0.00000129,-0.00000078,-0.0000
 0091,-0.00000238,0.00000626,-0.00000072,0.00068691,0.00023085,0.000366
 66,-0.00026882,0.00105769,0.00098069,0.00957225,0.00927801,0.00727383,
 0.10082992,0.08547556,0.12497396,-0.00075211,0.00078404,0.00089867,-0.
 00066387,-0.00053335,-0.00168815,-0.00002699,-0.00002488,0.00023638,-0
 .00001261,0.00000181,0.00003915,0.00000827,-0.00000917,-0.00001202,-0.
 00000903,0.00000207,-0.00000683,0.00000135,0.00000365,-0.00000096,0.00
 000006,0.00000579,0.00000239,0.00142469,-0.00115327,-0.00010477,-0.000
 82506,0.00220849,-0.00798238,-0.04643285,-0.00126163,-0.00184545,-0.00
 004744,0.00004015,0.00003404,0.00000033,0.00000431,0.00000091,0.000008
 56,-0.00000469,0.00000380,-0.00000138,-0.00000214,-0.00000276,-0.00000
 109,-0.00000201,-0.00000067,0.00000492,0.00000045,0.00000312,0.0000068
 9,-0.00000018,0.00000208,-0.00000236,-0.00000011,0.00000067,-0.0000018
 7,-0.00000420,-0.00000097,0.00020606,0.00192910,-0.00030568,0.00012232
 ,-0.00025191,0.00063367,0.00175425,-0.00876016,0.02703612,0.00162041,0
 .00768284,-0.01916559,0.04361858,0.00001917,0.00041606,-0.00047825,0.0
 0030317,0.00033347,0.00048548,0.00007472,-0.00003327,0.00007212,-0.000
 04331,-0.00003549,-0.00004362,0.00002262,0.00001008,0.00000475,-0.0000
 0200,0.00000165,-0.00000702,-0.00000235,-0.00000064,0.00000047,0.00000
 090,0.00000154,0.00000215,-0.00244498,0.00358164,-0.00193411,-0.000278
 55,-0.01017014,0.03490432,0.00002117,-0.06542250,0.07010233,0.00001339
 ,-0.00002306,-0.00002548,0.00000230,-0.00000754,-0.00000340,0.00000030
 ,0.00000003,0.00000117,0.00000034,0.00000101,-0.00000107,0.00000021,-0
 .00000118,-0.00000067,0.00000052,0.00000009,-0.00000018,0.00000172,0.0
 0000023,-0.00000060,0.00000076,-0.00000117,-0.00000138,-0.00000018,0.0
 0000051,0.00000030,0.00196873,-0.00654249,-0.00046619,-0.00056884,0.00
 131679,-0.00033595,-0.00063814,0.00001234,-0.00531615,0.00220335,0.005
 10691,-0.01682745,-0.00065501,0.07145514,-0.00079554,0.00068386,0.0007
 0342,0.00102497,-0.00016618,-0.00114646,-0.00060463,-0.00013316,0.0001
 9401,0.00036139,0.00006162,0.00010798,-0.00020663,-0.00001901,0.000056
 30,0.00004643,0.00002147,0.00003727,-0.00000959,0.00000742,0.00000879,
 -0.00001623,0.00000551,-0.00002424,-0.00161517,-0.00049221,0.00148779,
 0.00119007,-0.00078611,-0.00257474,-0.00248724,0.07226679,-0.29944920,
 -0.00004044,0.00004339,0.00004003,-0.00001307,0.00001687,0.00001861,-0
 .00004180,0.00000181,-0.00001781,0.00000647,-0.00000061,-0.00000100,0.
 00000671,-0.00000386,0.00000761,-0.00001156,-0.00000497,-0.00000755,-0
 .00002465,-0.00000723,0.00000208,0.00000279,0.00000526,0.00000444,0.00
 000774,-0.00000700,-0.00000047,0.00030995,0.00067100,0.00134803,0.0000
 0874,0.00053815,0.00078789,-0.00141955,0.00232482,-0.00872133,0.002095
 61,0.00510394,-0.01248399,0.00222523,-0.08013157,0.31962253\\-0.000000
 93,0.00000958,0.00001314,-0.00001396,-0.00002194,-0.00002505,0.0000041
 1,0.00000805,0.00000865,0.00000289,-0.00000628,-0.00000528,0.00000197,
 0.00000346,0.00000992,-0.00001079,-0.00000020,-0.00000278,0.00000414,-
 0.00000327,-0.00000090,0.00000285,0.00000368,-0.00000335,0.00002024,0.
 00000868,0.00000425,-0.00001111,-0.00000290,0.00001193,-0.00000017,0.0
 0000063,-0.00000200,-0.00000239,0.00000047,-0.00000364,-0.00000025,-0.
 00000285,-0.00000348,0.00000188,-0.00000211,-0.00000138,-0.00000314,0.
 00000079,0.00000074,-0.00000266,0.00000068,0.00000061,0.00000339,0.000
 00014,-0.00000148,0.00000346,-0.00000118,0.00000018,-0.00000019,-0.000
 00322,-0.00000200,-0.00000080,0.00000102,-0.00000022,0.00000085,0.0000
 0371,-0.00000113,0.00000107,0.00000176,-0.00000106,-0.00000304,0.00000
 084,0.00000277,0.00000258,-0.00000031,0.00000295,0.00000001,0.00000079
 ,-0.00000138\\\@
 The archive entry for this job was punched.


 ERWIN WITH HIS PSI CAN DO
 CALCULATIONS QUITE A FEW.
 BUT ONE THING HAS NOT BEEN SEEN
 JUST WHAT DOES PSI REALLY MEAN.
 -- WALTER HUCKEL, TRANS. BY FELIX BLOCH
 Job cpu time:       0 days  2 hours 12 minutes  7.2 seconds.
 Elapsed time:       0 days  0 hours  8 minutes 31.4 seconds.
 File lengths (MBytes):  RWF=    161 Int=      0 D2E=      0 Chk=      6 Scr=      2
 Normal termination of Gaussian 16 at Fri Jul 18 11:50:32 2025.
 Initial command:
 /uufs/chpc.utah.edu/sys/installdir/gaussian16/C01/AVX/g16/l1.exe "/scratch/general/vast/u6067110/5269603-notchpeak.peaks/Gau-3518522.inp" -scrdir="/scratch/general/vast/u6067110/5269603-notchpeak.peaks/"
 Entering Link 1 = /uufs/chpc.utah.edu/sys/installdir/gaussian16/C01/AVX/g16/l1.exe PID=   3526639.
  
 Copyright (c) 1988-2019, Gaussian, Inc.  All Rights Reserved.
  
 This is part of the Gaussian(R) 16 program.  It is based on
 the Gaussian(R) 09 system (copyright 2009, Gaussian, Inc.),
 the Gaussian(R) 03 system (copyright 2003, Gaussian, Inc.),
 the Gaussian(R) 98 system (copyright 1998, Gaussian, Inc.),
 the Gaussian(R) 94 system (copyright 1995, Gaussian, Inc.),
 the Gaussian 92(TM) system (copyright 1992, Gaussian, Inc.),
 the Gaussian 90(TM) system (copyright 1990, Gaussian, Inc.),
 the Gaussian 88(TM) system (copyright 1988, Gaussian, Inc.),
 the Gaussian 86(TM) system (copyright 1986, Carnegie Mellon
 University), and the Gaussian 82(TM) system (copyright 1983,
 Carnegie Mellon University). Gaussian is a federally registered
 trademark of Gaussian, Inc.
  
 This software contains proprietary and confidential information,
 including trade secrets, belonging to Gaussian, Inc.
  
 This software is provided under written license and may be
 used, copied, transmitted, or stored only in accord with that
 written license.
  
 The following legend is applicable only to US Government
 contracts under FAR:
  
                    RESTRICTED RIGHTS LEGEND
  
 Use, reproduction and disclosure by the US Government is
 subject to restrictions as set forth in subparagraphs (a)
 and (c) of the Commercial Computer Software - Restricted
 Rights clause in FAR 52.227-19.
  
 Gaussian, Inc.
 340 Quinnipiac St., Bldg. 40, Wallingford CT 06492
  
  
 ---------------------------------------------------------------
 Warning -- This program may not be used in any manner that
 competes with the business of Gaussian, Inc. or will provide
 assistance to any competitor of Gaussian, Inc.  The licensee
 of this program is prohibited from giving any competitor of
 Gaussian, Inc. access to this program.  By using this program,
 the user acknowledges that Gaussian, Inc. is engaged in the
 business of creating and licensing software in the field of
 computational chemistry and represents and warrants to the
 licensee that it is not a competitor of Gaussian, Inc. and that
 it will not use this program in any manner prohibited above.
 ---------------------------------------------------------------
  

 Cite this work as:
 Gaussian 16, Revision C.01,
 M. J. Frisch, G. W. Trucks, H. B. Schlegel, G. E. Scuseria, 
 M. A. Robb, J. R. Cheeseman, G. Scalmani, V. Barone, 
 G. A. Petersson, H. Nakatsuji, X. Li, M. Caricato, A. V. Marenich, 
 J. Bloino, B. G. Janesko, R. Gomperts, B. Mennucci, H. P. Hratchian, 
 J. V. Ortiz, A. F. Izmaylov, J. L. Sonnenberg, D. Williams-Young, 
 F. Ding, F. Lipparini, F. Egidi, J. Goings, B. Peng, A. Petrone, 
 T. Henderson, D. Ranasinghe, V. G. Zakrzewski, J. Gao, N. Rega, 
 G. Zheng, W. Liang, M. Hada, M. Ehara, K. Toyota, R. Fukuda, 
 J. Hasegawa, M. Ishida, T. Nakajima, Y. Honda, O. Kitao, H. Nakai, 
 T. Vreven, K. Throssell, J. A. Montgomery, Jr., J. E. Peralta, 
 F. Ogliaro, M. J. Bearpark, J. J. Heyd, E. N. Brothers, K. N. Kudin, 
 V. N. Staroverov, T. A. Keith, R. Kobayashi, J. Normand, 
 K. Raghavachari, A. P. Rendell, J. C. Burant, S. S. Iyengar, 
 J. Tomasi, M. Cossi, J. M. Millam, M. Klene, C. Adamo, R. Cammi, 
 J. W. Ochterski, R. L. Martin, K. Morokuma, O. Farkas, 
 J. B. Foresman, and D. J. Fox, Gaussian, Inc., Wallingford CT, 2019.
 
 ******************************************
 Gaussian 16:  ES64L-G16RevC.01  3-Jul-2019
                18-Jul-2025 
 ******************************************
 %NProcShared=32
 Will use up to   32 processors via shared memory.
 %Mem=48GB
 %chk=A18_crest_conformers_censo-13.chk
 ----------------------------------------------------------------------
 #N Guess=Read Geom=Check Integral(Ultrafine) Density Pop=NBO7 Pop=Hirs
 hfeld Pop=(ChelpG,ReadRadii) Polar Prop=(Potential,EFG) Volume M062X E
 mpiricalDispersion=GD3 def2TZVPP SCRF(IEFPCM,solvent=thf)
 ----------------------------------------------------------------------
 1/29=2,38=1,172=1/1;
 2/12=2,40=1/2;
 3/5=44,7=202,11=2,14=-4,25=1,30=1,70=2201,72=20,74=-55,75=-5,116=-2,124=31/1,2,3;
 4/5=1/1;
 5/5=2,38=6,53=20,98=1/2;
 8/6=4,10=90,11=11/1;
 10/6=1,13=10/2;
 6/7=2,8=2,9=2,10=2,14=4,15=8,20=103,22=-1,28=1,40=1,44=1,79=1,113=1,114=1,124=3103/1,2,4,12;
 99/5=1,9=1/99;
 -----------------------------
 A18_crest_conformers_censo-13
 -----------------------------
 Structure from the checkpoint file:  "A18_crest_conformers_censo-13.chk"
 Charge = -1 Multiplicity = 1
 Redundant internal coordinates found in file.  (old form).
 O,0,1.5929001739,-0.1898481173,-1.2449007506
 C,0,1.422057688,0.2842346612,-0.1272260227
 C,0,0.2429497921,0.5558321184,0.5975570242
 N,0,-0.9709764959,0.2799099194,0.0700462057
 C,0,-2.0838319341,0.5055129783,0.6676896872
 C,0,-3.4210576943,0.1860630493,0.0383115702
 C,0,-3.2482158368,-0.5304076098,-1.295820706
 C,0,-4.294789439,-0.6319946178,0.9959243729
 O,0,2.5580838085,0.6479582139,0.627958796
 C,0,3.7906095944,0.4102344479,0.0099795036
 C,0,4.2140573613,-1.0491436301,0.1179776884
 H,0,0.343081812,0.9981052063,1.599484945
 H,0,-2.1182362001,0.9587099458,1.6827949548
 H,0,-3.9658088664,1.1354446987,-0.1536613711
 H,0,-2.7270923304,-1.4868146957,-1.140331755
 H,0,-2.6125156883,0.0589695504,-1.9686732817
 H,0,-4.2225938406,-0.72299722,-1.7748365199
 H,0,-5.3071263227,-0.7966560553,0.5889998227
 H,0,-4.3976440261,-0.1242630725,1.9681972082
 H,0,-3.8306068204,-1.6139532878,1.1815554847
 H,0,3.7460704822,0.693852605,-1.0536301392
 H,0,4.5225649014,1.0599709856,0.518977516
 H,0,5.2180947017,-1.2069056256,-0.3078050884
 H,0,3.4897492775,-1.6629808206,-0.4331274102
 H,0,4.2232459019,-1.3663636279,1.1715782654
 Recover connectivity data from disk.
                           ----------------------------
                           !    Current Parameters    !
                           ! (Angstroms and Degrees)  !
 --------------------------                            --------------------------
 ! Name  Definition              Value                                          !
 --------------------------------------------------------------------------------
 ! R1    R(1,2)                  1.226                                          !
 ! R2    R(2,3)                  1.4105                                         !
 ! R3    R(2,9)                  1.4118                                         !
 ! R4    R(3,4)                  1.352                                          !
 ! R5    R(3,12)                 1.0998                                         !
 ! R6    R(4,5)                  1.2832                                         !
 ! R7    R(5,6)                  1.5121                                         !
 ! R8    R(5,13)                 1.1122                                         !
 ! R9    R(6,7)                  1.5242                                         !
 ! R10   R(6,8)                  1.5329                                         !
 ! R11   R(6,14)                 1.1113                                         !
 ! R12   R(7,15)                 1.1002                                         !
 ! R13   R(7,16)                 1.0974                                         !
 ! R14   R(7,17)                 1.1027                                         !
 ! R15   R(8,18)                 1.1034                                         !
 ! R16   R(8,19)                 1.1017                                         !
 ! R17   R(8,20)                 1.1019                                         !
 ! R18   R(9,10)                 1.3991                                         !
 ! R19   R(10,11)                1.5234                                         !
 ! R20   R(10,21)                1.1017                                         !
 ! R21   R(10,22)                1.1032                                         !
 ! R22   R(11,23)                1.1019                                         !
 ! R23   R(11,24)                1.0978                                         !
 ! R24   R(11,25)                1.1004                                         !
 ! A1    A(1,2,3)              131.2544                                         !
 ! A2    A(1,2,9)              118.368                                          !
 ! A3    A(3,2,9)              110.3775                                         !
 ! A4    A(2,3,4)              120.7168                                         !
 ! A5    A(2,3,12)             118.0002                                         !
 ! A6    A(4,3,12)             121.283                                          !
 ! A7    A(3,4,5)              124.1303                                         !
 ! A8    A(4,5,6)              122.4104                                         !
 ! A9    A(4,5,13)             121.5714                                         !
 ! A10   A(6,5,13)             116.0163                                         !
 ! A11   A(5,6,7)              111.3068                                         !
 ! A12   A(5,6,8)              110.9044                                         !
 ! A13   A(5,6,14)             108.9618                                         !
 ! A14   A(7,6,8)              111.137                                          !
 ! A15   A(7,6,14)             107.8164                                         !
 ! A16   A(8,6,14)             106.5252                                         !
 ! A17   A(6,7,15)             109.7939                                         !
 ! A18   A(6,7,16)             110.4828                                         !
 ! A19   A(6,7,17)             111.2312                                         !
 ! A20   A(15,7,16)            106.2095                                         !
 ! A21   A(15,7,17)            109.1538                                         !
 ! A22   A(16,7,17)            109.836                                          !
 ! A23   A(6,8,18)             111.8516                                         !
 ! A24   A(6,8,19)             111.0144                                         !
 ! A25   A(6,8,20)             109.9207                                         !
 ! A26   A(18,8,19)            107.9742                                         !
 ! A27   A(18,8,20)            108.3988                                         !
 ! A28   A(19,8,20)            107.5394                                         !
 ! A29   A(2,9,10)             115.3925                                         !
 ! A30   A(9,10,11)            112.106                                          !
 ! A31   A(9,10,21)            110.3084                                         !
 ! A32   A(9,10,22)            106.2979                                         !
 ! A33   A(11,10,21)           109.0446                                         !
 ! A34   A(11,10,22)           110.3088                                         !
 ! A35   A(21,10,22)           108.7022                                         !
 ! A36   A(10,11,23)           111.286                                          !
 ! A37   A(10,11,24)           108.4619                                         !
 ! A38   A(10,11,25)           110.2657                                         !
 ! A39   A(23,11,24)           109.0954                                         !
 ! A40   A(23,11,25)           108.729                                          !
 ! A41   A(24,11,25)           108.9652                                         !
 ! D1    D(1,2,3,4)              0.396                                          !
 ! D2    D(1,2,3,12)          -179.5236                                         !
 ! D3    D(9,2,3,4)           -179.6605                                         !
 ! D4    D(9,2,3,12)             0.4199                                         !
 ! D5    D(1,2,9,10)            -0.627                                          !
 ! D6    D(3,2,9,10)           179.4213                                         !
 ! D7    D(2,3,4,5)           -179.6562                                         !
 ! D8    D(12,3,4,5)             0.2607                                         !
 ! D9    D(3,4,5,6)            179.7592                                         !
 ! D10   D(3,4,5,13)             0.2827                                         !
 ! D11   D(4,5,6,7)              5.0836                                         !
 ! D12   D(4,5,6,8)            129.3676                                         !
 ! D13   D(4,5,6,14)          -113.6844                                         !
 ! D14   D(13,5,6,7)          -175.4128                                         !
 ! D15   D(13,5,6,8)           -51.1287                                         !
 ! D16   D(13,5,6,14)           65.8192                                         !
 ! D17   D(5,6,7,15)            61.5869                                         !
 ! D18   D(5,6,7,16)           -55.23                                           !
 ! D19   D(5,6,7,17)          -177.4877                                         !
 ! D20   D(8,6,7,15)           -62.5657                                         !
 ! D21   D(8,6,7,16)          -179.3826                                         !
 ! D22   D(8,6,7,17)            58.3597                                         !
 ! D23   D(14,6,7,15)         -178.9612                                         !
 ! D24   D(14,6,7,16)           64.2219                                         !
 ! D25   D(14,6,7,17)          -58.0359                                         !
 ! D26   D(5,6,8,18)           174.879                                          !
 ! D27   D(5,6,8,19)            54.2007                                         !
 ! D28   D(5,6,8,20)           -64.6545                                         !
 ! D29   D(7,6,8,18)           -60.7404                                         !
 ! D30   D(7,6,8,19)           178.5813                                         !
 ! D31   D(7,6,8,20)            59.7261                                         !
 ! D32   D(14,6,8,18)           56.4453                                         !
 ! D33   D(14,6,8,19)          -64.2329                                         !
 ! D34   D(14,6,8,20)          176.9119                                         !
 ! D35   D(2,9,10,11)          -79.9132                                         !
 ! D36   D(2,9,10,21)           41.8127                                         !
 ! D37   D(2,9,10,22)          159.4855                                         !
 ! D38   D(9,10,11,23)        -175.8708                                         !
 ! D39   D(9,10,11,24)          64.115                                          !
 ! D40   D(9,10,11,25)         -55.1274                                         !
 ! D41   D(21,10,11,23)         61.6824                                         !
 ! D42   D(21,10,11,24)        -58.3318                                         !
 ! D43   D(21,10,11,25)       -177.5742                                         !
 ! D44   D(22,10,11,23)        -57.6224                                         !
 ! D45   D(22,10,11,24)       -177.6365                                         !
 ! D46   D(22,10,11,25)         63.1211                                         !
 --------------------------------------------------------------------------------
                          Input orientation:                          
 ---------------------------------------------------------------------
 Center     Atomic      Atomic             Coordinates (Angstroms)
 Number     Number       Type             X           Y           Z
 ---------------------------------------------------------------------
      1          8           0        1.592900   -0.189848   -1.244901
      2          6           0        1.422058    0.284235   -0.127226
      3          6           0        0.242950    0.555832    0.597557
      4          7           0       -0.970976    0.279910    0.070046
      5          6           0       -2.083832    0.505513    0.667690
      6          6           0       -3.421058    0.186063    0.038312
      7          6           0       -3.248216   -0.530408   -1.295821
      8          6           0       -4.294789   -0.631995    0.995924
      9          8           0        2.558084    0.647958    0.627959
     10          6           0        3.790610    0.410234    0.009980
     11          6           0        4.214057   -1.049144    0.117978
     12          1           0        0.343082    0.998105    1.599485
     13          1           0       -2.118236    0.958710    1.682795
     14          1           0       -3.965809    1.135445   -0.153661
     15          1           0       -2.727092   -1.486815   -1.140332
     16          1           0       -2.612516    0.058970   -1.968673
     17          1           0       -4.222594   -0.722997   -1.774837
     18          1           0       -5.307126   -0.796656    0.589000
     19          1           0       -4.397644   -0.124263    1.968197
     20          1           0       -3.830607   -1.613953    1.181555
     21          1           0        3.746070    0.693853   -1.053630
     22          1           0        4.522565    1.059971    0.518978
     23          1           0        5.218095   -1.206906   -0.307805
     24          1           0        3.489749   -1.662981   -0.433127
     25          1           0        4.223246   -1.366364    1.171578
 ---------------------------------------------------------------------
                    Distance matrix (angstroms):
                    1          2          3          4          5
     1  O    0.000000
     2  C    1.226025   0.000000
     3  C    2.402718   1.410451   0.000000
     4  N    2.919456   2.401155   1.352042   0.000000
     5  C    4.202367   3.601683   2.328382   1.283169   0.000000
     6  C    5.189192   4.846938   3.724840   2.452083   1.512064
     7  C    4.853347   4.882695   4.117406   2.776333   2.506849
     8  C    6.315194   5.897735   4.707516   3.568831   2.507986
     9  O    2.267400   1.411791   2.317166   3.591795   4.644271
    10  C    2.600913   2.375866   3.598935   4.763748   5.911914
    11  C    3.076734   3.103753   4.309946   5.352874   6.510188
    12  H    3.326230   2.157622   1.099769   2.140499   2.645902
    13  H    4.864475   4.032961   2.629687   2.092351   1.112209
    14  H    5.817770   5.454756   4.314386   3.122660   2.147852
    15  H    4.511695   4.623683   4.001726   2.769526   2.766242
    16  H    4.274492   4.440659   3.871188   2.626755   2.725677
    17  H    5.863877   5.965838   5.215816   3.870714   3.471235
    18  H    7.165317   6.852972   5.712499   4.497833   3.477278
    19  H    6.798156   6.198919   4.886338   3.938068   2.727941
    20  H    6.109844   5.736420   4.652192   3.605504   2.794176
    21  H    2.335306   2.535162   3.875219   4.866675   6.081626
    22  H    3.640913   3.260750   4.309923   5.566779   6.631291
    23  H    3.880024   4.082402   5.355277   6.376362   7.563207
    24  H    2.535179   2.856672   4.065360   4.891429   6.081034
    25  H    3.760622   3.501146   4.457252   5.559095   6.598262
                    6          7          8          9         10
     6  C    0.000000
     7  C    1.524176   0.000000
     8  C    1.532856   2.521454   0.000000
     9  O    6.025875   6.229172   6.981085   0.000000
    10  C    7.215206   7.220456   8.211699   1.399118   0.000000
    11  C    7.734796   7.612715   8.564186   2.425383   1.523403
    12  H    4.155168   4.859688   4.952914   2.443911   3.841558
    13  H    2.235767   3.516600   2.781999   4.803875   6.165517
    14  H    1.111275   2.143486   2.133921   6.588608   7.791966
    15  H    2.160858   1.100210   2.784238   5.968014   6.884944
    16  H    2.167460   1.097365   3.477976   5.815884   6.711071
    17  H    2.180907   1.102705   2.773195   7.323287   8.287413
    18  H    2.196873   2.804024   1.103416   7.996872   9.195686
    19  H    2.185059   3.484243   1.101674   7.125638   8.436101
    20  H    2.171358   2.765980   1.101893   6.799859   7.972005
    21  H    7.267593   7.104753   8.403212   2.059408   1.101675
    22  H    8.005991   8.136819   8.990882   2.010178   1.103175
    23  H    8.757575   8.550569   9.619002   3.375179   2.180331
    24  H    7.169412   6.886736   7.981489   2.708199   2.141281
    25  H    7.882239   7.912624   8.551437   2.669416   2.166284
                   11         12         13         14         15
    11  C    0.000000
    12  H    4.622828   0.000000
    13  H    6.824813   2.463043   0.000000
    14  H    8.470916   4.653915   2.611002   0.000000
    15  H    7.067847   4.807015   3.784355   3.063361   0.000000
    16  H    7.223858   4.727503   3.793029   2.506884   1.757477
    17  H    8.652526   5.932422   4.383113   2.479507   1.795143
    18  H    9.536171   6.013909   3.800884   2.466514   3.181742
    19  H    8.856643   4.885708   2.539682   2.505121   3.782888
    20  H    8.134300   4.941375   3.130823   3.059456   2.573921
    21  H    2.151677   4.325728   6.476748   7.776762   6.831154
    22  H    2.168950   4.317337   6.742771   8.515317   7.861104
    23  H    1.101940   5.680280   7.904058   9.479159   7.993588
    24  H    1.097786   4.595042   6.542163   7.968352   6.259416
    25  H    1.100358   4.563934   6.773604   8.664636   7.325752
                   16         17         18         19         20
    16  H    0.000000
    17  H    1.800388   0.000000
    18  H    3.812442   2.601799   0.000000
    19  H    4.326570   3.794658   1.783664   0.000000
    20  H    3.769132   3.112509   1.788633   1.777502   0.000000
    21  H    6.455385   8.125713   9.320956   8.724726   8.229706
    22  H    7.622322   9.215116  10.003739   9.114427   8.795701
    23  H    8.104282   9.566240  10.571322   9.940560   9.179482
    24  H    6.523853   7.884414   8.898330   8.387192   7.496480
    25  H    7.656395   8.968137   9.565143   8.746265   8.057664
                   21         22         23         24         25
    21  H    0.000000
    22  H    1.791670   0.000000
    23  H    2.517140   2.511187   0.000000
    24  H    2.450589   3.063932   1.791895   0.000000
    25  H    3.069811   2.530332   1.789896   1.789156   0.000000
 Stoichiometry    C8H14NO2(1-)
 Framework group  C1[X(C8H14NO2)]
 Deg. of freedom    69
 Full point group                 C1      NOp   1
 Largest Abelian subgroup         C1      NOp   1
 Largest concise Abelian subgroup C1      NOp   1
                         Standard orientation:                         
 ---------------------------------------------------------------------
 Center     Atomic      Atomic             Coordinates (Angstroms)
 Number     Number       Type             X           Y           Z
 ---------------------------------------------------------------------
      1          8           0       -1.629654    1.240489   -0.296150
      2          6           0       -1.447134    0.028126   -0.295167
      3          6           0       -0.260164   -0.733707   -0.286036
      4          7           0        0.948753   -0.128546   -0.268170
      5          6           0        2.068020   -0.756046   -0.265370
      6          6           0        3.399134   -0.038933   -0.250476
      7          6           0        3.214939    1.467906   -0.114015
      8          6           0        4.303756   -0.587896    0.858554
      9          8           0       -2.575633   -0.820126   -0.305760
     10          6           0       -3.814687   -0.170305   -0.302702
     11          6           0       -4.210919    0.301955    1.090398
     12          1           0       -0.350047   -1.829758   -0.295247
     13          1           0        2.112677   -1.867226   -0.282501
     14          1           0        3.923930   -0.231735   -1.210867
     15          1           0        2.713235    1.697230    0.837911
     16          1           0        2.557290    1.847668   -0.906157
     17          1           0        4.183808    1.993348   -0.148125
     18          1           0        5.311374   -0.139349    0.826327
     19          1           0        4.415139   -1.680570    0.772872
     20          1           0        3.859952   -0.375647    1.844533
     21          1           0       -3.793993    0.695616   -0.983467
     22          1           0       -4.548555   -0.901268   -0.682340
     23          1           0       -5.219511    0.745817    1.090508
     24          1           0       -3.486065    1.057379    1.420633
     25          1           0       -4.195873   -0.541179    1.797283
 ---------------------------------------------------------------------
 Rotational constants (GHZ):           3.3330379           0.3700259           0.3553674
 Standard basis: def2TZVPP (5D, 7F)
 There are   606 symmetry adapted cartesian basis functions of A   symmetry.
 There are   537 symmetry adapted basis functions of A   symmetry.
   537 basis functions,   799 primitive gaussians,   606 cartesian basis functions
    43 alpha electrons       43 beta electrons
       nuclear repulsion energy       596.7438611113 Hartrees.
 NAtoms=   25 NActive=   25 NUniq=   25 SFac= 1.00D+00 NAtFMM=   60 NAOKFM=F Big=F
 Integral buffers will be    131072 words long.
 Raffenetti 2 integral format.
 Two-electron integral symmetry is turned on.
 Nuclear repulsion after empirical dispersion term =      596.7430624097 Hartrees.
 ------------------------------------------------------------------------------
 Polarizable Continuum Model (PCM)
 =================================
 Model                : PCM.
 Atomic radii         : UFF (Universal Force Field).
 Polarization charges : Total charges.
 Charge compensation  : None.
 Solution method      : On-the-fly selection.
 Cavity type          : Scaled VdW (van der Waals Surface) (Alpha=1.100).
 Cavity algorithm     : GePol (No added spheres)
                        Default sphere list used, NSphG=   25.
                        Lebedev-Laikov grids with approx.  5.0 points / Ang**2.
                        Smoothing algorithm: York/Karplus (Gamma=1.0000).
                        Polarization charges: spherical gaussians, with
                                              point-specific exponents (IZeta= 3).
                        Self-potential: point-specific (ISelfS= 7).
                        Self-field    : sphere-specific E.n sum rule (ISelfD= 2).
 Solvent              : TetraHydroFuran, Eps=   7.425700 Eps(inf)=   1.974025
 ------------------------------------------------------------------------------
 One-electron integrals computed using PRISM.
   1 Symmetry operations used in ECPInt.
 ECPInt:  NShTT=   21115 NPrTT=   55562 LenC2=   18217 LenP2D=   37173.
 LDataN:  DoStor=T MaxTD1= 6 Len=  172
 NBasis=   537 RedAO= T EigKep=  6.11D-05  NBF=   537
 NBsUse=   537 1.00D-06 EigRej= -1.00D+00 NBFU=   537
 Initial guess from the checkpoint file:  "A18_crest_conformers_censo-13.chk"
 B after Tr=     0.000000   -0.000000    0.000000
         Rot=    1.000000   -0.000000   -0.000000   -0.000000 Ang=   0.00 deg.
 Requested convergence on RMS density matrix=1.00D-08 within 128 cycles.
 Requested convergence on MAX density matrix=1.00D-06.
 Requested convergence on             energy=1.00D-06.
 No special actions if energy rises.
 Inv3:  Mode=1 IEnd=    11560107.
 Iteration    1 A*A^-1 deviation from unit magnitude is 5.00D-15 for   1944.
 Iteration    1 A*A^-1 deviation from orthogonality  is 3.14D-15 for   1944   1512.
 Iteration    1 A^-1*A deviation from unit magnitude is 4.77D-15 for   1944.
 Iteration    1 A^-1*A deviation from orthogonality  is 5.07D-15 for   1960   1174.
 Error on total polarization charges =  0.01316
 SCF Done:  E(RM062X) =  -518.550031745     A.U. after   13 cycles
            NFock= 13  Conv=0.51D-08     -V/T= 2.0053
 DoSCS=F DFT=T ScalE2(SS,OS)=  1.000000  1.000000
 Range of M.O.s used for correlation:     1   537
 NBasis=   537 NAE=    43 NBE=    43 NFC=     0 NFV=     0
 NROrb=    537 NOA=    43 NOB=    43 NVA=   494 NVB=   494

 **** Warning!!: The largest alpha MO coefficient is  0.20240198D+02

 NEqPCM:  Using equilibrium solvation (IEInf=0, Eps=   7.4257, EpsInf=   1.9740)
          Differentiating once with respect to electric field.
                with respect to dipole field.
          Electric field/nuclear overlap derivatives assumed to be zero.
          There are     3 degrees of freedom in the 1st order CPHF.  IDoFFX=0 NUNeed=     3.
      3 vectors produced by pass  0 Test12= 7.08D-13 3.33D-08 XBig12= 1.29D+02 8.77D+00.
 AX will form     3 AO Fock derivatives at one time.
      3 vectors produced by pass  1 Test12= 7.08D-13 3.33D-08 XBig12= 1.38D+01 6.63D-01.
      3 vectors produced by pass  2 Test12= 7.08D-13 3.33D-08 XBig12= 5.42D+00 9.23D-01.
      3 vectors produced by pass  3 Test12= 7.08D-13 3.33D-08 XBig12= 9.20D-01 2.34D-01.
      3 vectors produced by pass  4 Test12= 7.08D-13 3.33D-08 XBig12= 2.65D-01 1.25D-01.
      3 vectors produced by pass  5 Test12= 7.08D-13 3.33D-08 XBig12= 3.68D-02 3.70D-02.
      3 vectors produced by pass  6 Test12= 7.08D-13 3.33D-08 XBig12= 5.39D-03 1.05D-02.
      3 vectors produced by pass  7 Test12= 7.08D-13 3.33D-08 XBig12= 6.85D-04 3.04D-03.
      3 vectors produced by pass  8 Test12= 7.08D-13 3.33D-08 XBig12= 5.41D-05 9.19D-04.
      3 vectors produced by pass  9 Test12= 7.08D-13 3.33D-08 XBig12= 7.41D-06 5.30D-04.
      3 vectors produced by pass 10 Test12= 7.08D-13 3.33D-08 XBig12= 8.72D-07 1.89D-04.
      3 vectors produced by pass 11 Test12= 7.08D-13 3.33D-08 XBig12= 3.72D-08 2.69D-05.
      3 vectors produced by pass 12 Test12= 7.08D-13 3.33D-08 XBig12= 1.31D-09 4.74D-06.
      3 vectors produced by pass 13 Test12= 7.08D-13 3.33D-08 XBig12= 5.54D-11 1.48D-06.
      2 vectors produced by pass 14 Test12= 7.08D-13 3.33D-08 XBig12= 2.63D-12 3.10D-07.
      1 vectors produced by pass 15 Test12= 7.08D-13 3.33D-08 XBig12= 9.87D-14 4.23D-08.
 InvSVY:  IOpt=1 It=  1 EMax= 1.78D-15
 Solved reduced A of dimension    45 with     3 vectors.
 Isotropic polarizability for W=    0.000000      173.98 Bohr**3.
 End of Minotr F.D. properties file   721 does not exist.
 End of Minotr F.D. properties file   722 does not exist.
 End of Minotr F.D. properties file   788 does not exist.

 **********************************************************************

            Population analysis using the SCF Density.

 **********************************************************************

 Orbital symmetries:
       Occupied  (A) (A) (A) (A) (A) (A) (A) (A) (A) (A) (A) (A)
                 (A) (A) (A) (A) (A) (A) (A) (A) (A) (A) (A) (A)
                 (A) (A) (A) (A) (A) (A) (A) (A) (A) (A) (A) (A)
                 (A) (A) (A) (A) (A) (A) (A)
       Virtual   (A) (A) (A) (A) (A) (A) (A) (A) (A) (A) (A) (A)
                 (A) (A) (A) (A) (A) (A) (A) (A) (A) (A) (A) (A)
                 (A) (A) (A) (A) (A) (A) (A) (A) (A) (A) (A) (A)
                 (A) (A) (A) (A) (A) (A) (A) (A) (A) (A) (A) (A)
                 (A) (A) (A) (A) (A) (A) (A) (A) (A) (A) (A) (A)
                 (A) (A) (A) (A) (A) (A) (A) (A) (A) (A) (A) (A)
                 (A) (A) (A) (A) (A) (A) (A) (A) (A) (A) (A) (A)
                 (A) (A) (A) (A) (A) (A) (A) (A) (A) (A) (A) (A)
                 (A) (A) (A) (A) (A) (A) (A) (A) (A) (A) (A) (A)
                 (A) (A) (A) (A) (A) (A) (A) (A) (A) (A) (A) (A)
                 (A) (A) (A) (A) (A) (A) (A) (A) (A) (A) (A) (A)
                 (A) (A) (A) (A) (A) (A) (A) (A) (A) (A) (A) (A)
                 (A) (A) (A) (A) (A) (A) (A) (A) (A) (A) (A) (A)
                 (A) (A) (A) (A) (A) (A) (A) (A) (A) (A) (A) (A)
                 (A) (A) (A) (A) (A) (A) (A) (A) (A) (A) (A) (A)
                 (A) (A) (A) (A) (A) (A) (A) (A) (A) (A) (A) (A)
                 (A) (A) (A) (A) (A) (A) (A) (A) (A) (A) (A) (A)
                 (A) (A) (A) (A) (A) (A) (A) (A) (A) (A) (A) (A)
                 (A) (A) (A) (A) (A) (A) (A) (A) (A) (A) (A) (A)
                 (A) (A) (A) (A) (A) (A) (A) (A) (A) (A) (A) (A)
                 (A) (A) (A) (A) (A) (A) (A) (A) (A) (A) (A) (A)
                 (A) (A) (A) (A) (A) (A) (A) (A) (A) (A) (A) (A)
                 (A) (A) (A) (A) (A) (A) (A) (A) (A) (A) (A) (A)
                 (A) (A) (A) (A) (A) (A) (A) (A) (A) (A) (A) (A)
                 (A) (A) (A) (A) (A) (A) (A) (A) (A) (A) (A) (A)
                 (A) (A) (A) (A) (A) (A) (A) (A) (A) (A) (A) (A)
                 (A) (A) (A) (A) (A) (A) (A) (A) (A) (A) (A) (A)
                 (A) (A) (A) (A) (A) (A) (A) (A) (A) (A) (A) (A)
                 (A) (A) (A) (A) (A) (A) (A) (A) (A) (A) (A) (A)
                 (A) (A) (A) (A) (A) (A) (A) (A) (A) (A) (A) (A)
                 (A) (A) (A) (A) (A) (A) (A) (A) (A) (A) (A) (A)
                 (A) (A) (A) (A) (A) (A) (A) (A) (A) (A) (A) (A)
                 (A) (A) (A) (A) (A) (A) (A) (A) (A) (A) (A) (A)
                 (A) (A) (A) (A) (A) (A) (A) (A) (A) (A) (A) (A)
                 (A) (A) (A) (A) (A) (A) (A) (A) (A) (A) (A) (A)
                 (A) (A) (A) (A) (A) (A) (A) (A) (A) (A) (A) (A)
                 (A) (A) (A) (A) (A) (A) (A) (A) (A) (A) (A) (A)
                 (A) (A) (A) (A) (A) (A) (A) (A) (A) (A) (A) (A)
                 (A) (A) (A) (A) (A) (A) (A) (A) (A) (A) (A) (A)
                 (A) (A) (A) (A) (A) (A) (A) (A) (A) (A) (A) (A)
                 (A) (A) (A) (A) (A) (A) (A) (A) (A) (A) (A) (A)
                 (A) (A)
 The electronic state is 1-A.
 Alpha  occ. eigenvalues --  -19.60223 -19.53780 -14.70209 -10.59303 -10.55385
 Alpha  occ. eigenvalues --  -10.51448 -10.51232 -10.50688 -10.50167 -10.49748
 Alpha  occ. eigenvalues --  -10.47726  -1.15883  -1.06620  -0.98286  -0.86724
 Alpha  occ. eigenvalues --   -0.82766  -0.76243  -0.74818  -0.69931  -0.65335
 Alpha  occ. eigenvalues --   -0.59589  -0.56384  -0.54160  -0.51891  -0.50354
 Alpha  occ. eigenvalues --   -0.49713  -0.48414  -0.47152  -0.45669  -0.43439
 Alpha  occ. eigenvalues --   -0.43247  -0.42183  -0.41208  -0.40449  -0.38356
 Alpha  occ. eigenvalues --   -0.37155  -0.37025  -0.36290  -0.35312  -0.31888
 Alpha  occ. eigenvalues --   -0.29406  -0.27086  -0.17410
 Alpha virt. eigenvalues --    0.06878   0.09768   0.10653   0.12527   0.13156
 Alpha virt. eigenvalues --    0.13676   0.14417   0.15063   0.15331   0.15865
 Alpha virt. eigenvalues --    0.16672   0.17024   0.17397   0.18503   0.18809
 Alpha virt. eigenvalues --    0.19251   0.20318   0.20690   0.21379   0.22669
 Alpha virt. eigenvalues --    0.24537   0.24772   0.25193   0.25441   0.27769
 Alpha virt. eigenvalues --    0.28031   0.28978   0.29316   0.30149   0.30967
 Alpha virt. eigenvalues --    0.32771   0.34036   0.35146   0.35582   0.36827
 Alpha virt. eigenvalues --    0.38000   0.38294   0.39632   0.40071   0.42106
 Alpha virt. eigenvalues --    0.42695   0.43560   0.44440   0.44961   0.46114
 Alpha virt. eigenvalues --    0.46247   0.46674   0.47075   0.47712   0.48530
 Alpha virt. eigenvalues --    0.48998   0.49475   0.49590   0.50125   0.50867
 Alpha virt. eigenvalues --    0.51373   0.52253   0.52768   0.53313   0.54176
 Alpha virt. eigenvalues --    0.54375   0.55164   0.56817   0.57533   0.58733
 Alpha virt. eigenvalues --    0.59552   0.60247   0.61201   0.62573   0.63039
 Alpha virt. eigenvalues --    0.64803   0.65037   0.67209   0.68689   0.69328
 Alpha virt. eigenvalues --    0.70155   0.71028   0.71923   0.73603   0.74727
 Alpha virt. eigenvalues --    0.75099   0.77280   0.79041   0.79423   0.80692
 Alpha virt. eigenvalues --    0.81535   0.83674   0.84882   0.86314   0.86838
 Alpha virt. eigenvalues --    0.87620   0.89869   0.90889   0.91561   0.94076
 Alpha virt. eigenvalues --    0.94946   0.95558   0.97064   0.97292   0.97893
 Alpha virt. eigenvalues --    0.98390   0.99366   0.99808   1.00815   1.02464
 Alpha virt. eigenvalues --    1.02848   1.04061   1.04765   1.05762   1.06344
 Alpha virt. eigenvalues --    1.07319   1.08997   1.10144   1.12981   1.13242
 Alpha virt. eigenvalues --    1.14984   1.15058   1.15968   1.16902   1.17264
 Alpha virt. eigenvalues --    1.18234   1.19678   1.21245   1.22474   1.23429
 Alpha virt. eigenvalues --    1.24232   1.24671   1.24735   1.26322   1.26779
 Alpha virt. eigenvalues --    1.27374   1.29175   1.31540   1.32497   1.34179
 Alpha virt. eigenvalues --    1.34804   1.35793   1.37695   1.39345   1.40905
 Alpha virt. eigenvalues --    1.41504   1.44153   1.45648   1.46137   1.46639
 Alpha virt. eigenvalues --    1.46874   1.47378   1.49029   1.49633   1.49745
 Alpha virt. eigenvalues --    1.50656   1.51758   1.52592   1.53035   1.54350
 Alpha virt. eigenvalues --    1.55018   1.56538   1.57343   1.57659   1.58325
 Alpha virt. eigenvalues --    1.59346   1.59433   1.60210   1.60592   1.62342
 Alpha virt. eigenvalues --    1.63597   1.64895   1.65570   1.67358   1.68329
 Alpha virt. eigenvalues --    1.69328   1.70847   1.72470   1.73638   1.76864
 Alpha virt. eigenvalues --    1.77584   1.79663   1.81182   1.83493   1.85834
 Alpha virt. eigenvalues --    1.87548   1.88916   1.91217   1.95292   1.96772
 Alpha virt. eigenvalues --    1.97511   2.00404   2.03622   2.04978   2.08964
 Alpha virt. eigenvalues --    2.10709   2.12788   2.12997   2.14214   2.15420
 Alpha virt. eigenvalues --    2.17011   2.20838   2.21280   2.24696   2.27536
 Alpha virt. eigenvalues --    2.27968   2.29955   2.30924   2.33612   2.38127
 Alpha virt. eigenvalues --    2.41663   2.42640   2.44972   2.45274   2.48169
 Alpha virt. eigenvalues --    2.49965   2.52128   2.53201   2.54980   2.56124
 Alpha virt. eigenvalues --    2.57533   2.58590   2.59598   2.61076   2.61161
 Alpha virt. eigenvalues --    2.62089   2.65149   2.66952   2.67368   2.69530
 Alpha virt. eigenvalues --    2.71079   2.72610   2.76147   2.77441   2.79471
 Alpha virt. eigenvalues --    2.81522   2.81589   2.83555   2.85420   2.85898
 Alpha virt. eigenvalues --    2.86531   2.87087   2.87464   2.88757   2.89797
 Alpha virt. eigenvalues --    2.91566   2.92847   2.93793   2.95111   2.95561
 Alpha virt. eigenvalues --    2.96036   2.96915   2.97680   2.98341   2.98980
 Alpha virt. eigenvalues --    3.00521   3.00648   3.02378   3.03649   3.04150
 Alpha virt. eigenvalues --    3.05860   3.06801   3.07791   3.08748   3.09410
 Alpha virt. eigenvalues --    3.09814   3.10870   3.12117   3.13491   3.14374
 Alpha virt. eigenvalues --    3.14895   3.16233   3.16919   3.18292   3.18911
 Alpha virt. eigenvalues --    3.19134   3.19573   3.20488   3.20826   3.22168
 Alpha virt. eigenvalues --    3.24347   3.24812   3.25678   3.27075   3.28555
 Alpha virt. eigenvalues --    3.29614   3.31963   3.33131   3.33516   3.34088
 Alpha virt. eigenvalues --    3.35066   3.35771   3.35868   3.36676   3.38694
 Alpha virt. eigenvalues --    3.39402   3.40813   3.42011   3.43023   3.44564
 Alpha virt. eigenvalues --    3.47550   3.48205   3.48856   3.49425   3.50179
 Alpha virt. eigenvalues --    3.51515   3.52376   3.52754   3.55167   3.55747
 Alpha virt. eigenvalues --    3.56525   3.58119   3.59070   3.60140   3.60508
 Alpha virt. eigenvalues --    3.61935   3.63523   3.63662   3.64543   3.64910
 Alpha virt. eigenvalues --    3.66085   3.67784   3.69526   3.72188   3.73571
 Alpha virt. eigenvalues --    3.75198   3.76122   3.77311   3.79439   3.79786
 Alpha virt. eigenvalues --    3.81809   3.82259   3.83316   3.84404   3.85417
 Alpha virt. eigenvalues --    3.87094   3.87872   3.89088   3.89595   3.89850
 Alpha virt. eigenvalues --    3.91940   3.92690   3.93778   3.95038   3.95496
 Alpha virt. eigenvalues --    3.96138   3.97108   3.98269   3.98614   3.99770
 Alpha virt. eigenvalues --    4.00330   4.00952   4.01924   4.03322   4.03721
 Alpha virt. eigenvalues --    4.04844   4.05024   4.06314   4.06801   4.07796
 Alpha virt. eigenvalues --    4.08854   4.09527   4.11277   4.12223   4.12508
 Alpha virt. eigenvalues --    4.13051   4.15273   4.16010   4.16733   4.19383
 Alpha virt. eigenvalues --    4.21246   4.21894   4.24003   4.24259   4.25979
 Alpha virt. eigenvalues --    4.26992   4.28083   4.30600   4.31705   4.32007
 Alpha virt. eigenvalues --    4.34108   4.36365   4.39506   4.40433   4.43960
 Alpha virt. eigenvalues --    4.47027   4.49539   4.50530   4.52726   4.53850
 Alpha virt. eigenvalues --    4.55161   4.56117   4.57907   4.58098   4.58983
 Alpha virt. eigenvalues --    4.60346   4.63841   4.64572   4.65314   4.69752
 Alpha virt. eigenvalues --    4.71550   4.73453   4.75046   4.76167   4.78249
 Alpha virt. eigenvalues --    4.79173   4.79772   4.81659   4.84888   4.85550
 Alpha virt. eigenvalues --    4.86871   4.87584   4.89750   4.90261   4.91705
 Alpha virt. eigenvalues --    4.94687   4.96780   4.97122   5.01524   5.02340
 Alpha virt. eigenvalues --    5.05054   5.09770   5.11491   5.12050   5.14930
 Alpha virt. eigenvalues --    5.17161   5.17480   5.18508   5.21594   5.22521
 Alpha virt. eigenvalues --    5.24373   5.25077   5.26526   5.27607   5.28126
 Alpha virt. eigenvalues --    5.29302   5.29583   5.30406   5.31573   5.32897
 Alpha virt. eigenvalues --    5.34010   5.35256   5.36494   5.37908   5.39086
 Alpha virt. eigenvalues --    5.40268   5.41332   5.42864   5.43932   5.46465
 Alpha virt. eigenvalues --    5.47574   5.51475   5.51951   5.52400   5.52814
 Alpha virt. eigenvalues --    5.58156   5.58629   5.59862   5.60502   5.61873
 Alpha virt. eigenvalues --    5.62376   5.63409   5.64041   5.65895   5.67201
 Alpha virt. eigenvalues --    5.71870   5.76750   5.86734   5.90141   5.93760
 Alpha virt. eigenvalues --    6.01031   6.06255   6.20861   6.24519   6.30708
 Alpha virt. eigenvalues --    6.43238   6.48493   6.55550   6.62364   6.76955
 Alpha virt. eigenvalues --    6.78463   6.86991   6.95049   7.00740   7.15129
 Alpha virt. eigenvalues --    7.21131   7.38265   7.46351  23.19554  23.24235
 Alpha virt. eigenvalues --   23.43599  23.45957  23.52313  23.67474  23.70736
 Alpha virt. eigenvalues --   23.79034  32.89953  44.19725  44.49797
          Condensed to atoms (all electrons):
               1          2          3          4          5          6
     1  O    8.125125   0.639464  -0.122628  -0.000753   0.002525  -0.000612
     2  C    0.639464   4.475200   0.514898  -0.087127   0.002394   0.000384
     3  C   -0.122628   0.514898   5.338964   0.445284  -0.202810   0.008707
     4  N   -0.000753  -0.087127   0.445284   6.430773   0.641578  -0.121392
     5  C    0.002525   0.002394  -0.202810   0.641578   5.209578   0.231876
     6  C   -0.000612   0.000384   0.008707  -0.121392   0.231876   5.228546
     7  C    0.000118  -0.000545  -0.000781  -0.003016  -0.045263   0.254206
     8  C   -0.000006  -0.000222   0.000722   0.003762  -0.101213   0.294588
     9  O   -0.112056   0.282764  -0.106092   0.005017   0.000338  -0.000073
    10  C   -0.006131  -0.068300  -0.004398  -0.000153   0.000061  -0.000022
    11  C   -0.028088   0.008098   0.008795  -0.000072  -0.000040   0.000005
    12  H    0.004907  -0.053841   0.410469  -0.051255  -0.009822  -0.008210
    13  H   -0.000055  -0.004154  -0.007011  -0.055153   0.451765  -0.114905
    14  H   -0.000008   0.000119   0.000455  -0.000918  -0.068521   0.465772
    15  H    0.000192  -0.000184  -0.001249   0.005242  -0.005429  -0.030225
    16  H    0.000554  -0.000212  -0.000690   0.009445  -0.007733  -0.038184
    17  H    0.000012   0.000031   0.000053   0.001884   0.017458  -0.054215
    18  H    0.000000   0.000008   0.000007  -0.000255   0.016895  -0.040666
    19  H    0.000000  -0.000001   0.000021   0.000315  -0.006826  -0.039925
    20  H   -0.000000  -0.000027  -0.000681   0.001113  -0.002470  -0.022833
    21  H    0.020095  -0.015010   0.003646  -0.000078   0.000001   0.000004
    22  H    0.001750   0.006585   0.001379   0.000004  -0.000000   0.000000
    23  H    0.000406  -0.000118  -0.000329   0.000000   0.000000  -0.000000
    24  H    0.018281   0.000515  -0.000277  -0.000000   0.000040  -0.000000
    25  H    0.001298  -0.002927  -0.000408   0.000005   0.000005  -0.000000
               7          8          9         10         11         12
     1  O    0.000118  -0.000006  -0.112056  -0.006131  -0.028088   0.004907
     2  C   -0.000545  -0.000222   0.282764  -0.068300   0.008098  -0.053841
     3  C   -0.000781   0.000722  -0.106092  -0.004398   0.008795   0.410469
     4  N   -0.003016   0.003762   0.005017  -0.000153  -0.000072  -0.051255
     5  C   -0.045263  -0.101213   0.000338   0.000061  -0.000040  -0.009822
     6  C    0.254206   0.294588  -0.000073  -0.000022   0.000005  -0.008210
     7  C    5.019782  -0.051845   0.000013   0.000004  -0.000000   0.000746
     8  C   -0.051845   5.081297  -0.000001  -0.000000   0.000000   0.000082
     9  O    0.000013  -0.000001   8.154879   0.237977  -0.054449   0.014602
    10  C    0.000004  -0.000000   0.237977   4.869684   0.238529   0.002160
    11  C   -0.000000   0.000000  -0.054449   0.238529   5.117623   0.000036
    12  H    0.000746   0.000082   0.014602   0.002160   0.000036   0.617835
    13  H    0.012957  -0.001528   0.000065   0.000028  -0.000003   0.022865
    14  H   -0.051215  -0.088877  -0.000001   0.000000  -0.000000   0.000020
    15  H    0.407880  -0.017632   0.000003   0.000002  -0.000002   0.000092
    16  H    0.416785   0.012519   0.000010  -0.000003   0.000001   0.000155
    17  H    0.422334  -0.007733   0.000000   0.000000  -0.000000   0.000017
    18  H   -0.009310   0.408794   0.000000   0.000000  -0.000000  -0.000002
    19  H    0.010462   0.414830   0.000000   0.000000  -0.000000   0.000063
    20  H   -0.011385   0.388003   0.000000   0.000000  -0.000000   0.000005
    21  H   -0.000001  -0.000000  -0.048904   0.442103  -0.078781  -0.000063
    22  H   -0.000000  -0.000000  -0.035637   0.416006  -0.047275  -0.000354
    23  H   -0.000000  -0.000000   0.005692  -0.029013   0.392024   0.000000
    24  H   -0.000001  -0.000000  -0.003635  -0.032693   0.399621  -0.000135
    25  H    0.000000  -0.000000   0.005045  -0.031709   0.387358   0.000038
              13         14         15         16         17         18
     1  O   -0.000055  -0.000008   0.000192   0.000554   0.000012   0.000000
     2  C   -0.004154   0.000119  -0.000184  -0.000212   0.000031   0.000008
     3  C   -0.007011   0.000455  -0.001249  -0.000690   0.000053   0.000007
     4  N   -0.055153  -0.000918   0.005242   0.009445   0.001884  -0.000255
     5  C    0.451765  -0.068521  -0.005429  -0.007733   0.017458   0.016895
     6  C   -0.114905   0.465772  -0.030225  -0.038184  -0.054215  -0.040666
     7  C    0.012957  -0.051215   0.407880   0.416785   0.422334  -0.009310
     8  C   -0.001528  -0.088877  -0.017632   0.012519  -0.007733   0.408794
     9  O    0.000065  -0.000001   0.000003   0.000010   0.000000   0.000000
    10  C    0.000028   0.000000   0.000002  -0.000003   0.000000   0.000000
    11  C   -0.000003  -0.000000  -0.000002   0.000001  -0.000000  -0.000000
    12  H    0.022865   0.000020   0.000092   0.000155   0.000017  -0.000002
    13  H    0.650843  -0.001166   0.000679   0.000809   0.000094  -0.000498
    14  H   -0.001166   0.672362   0.010322  -0.007603  -0.006000  -0.002032
    15  H    0.000679   0.010322   0.566733  -0.024778  -0.025998   0.000616
    16  H    0.000809  -0.007603  -0.024778   0.547131  -0.021787  -0.000401
    17  H    0.000094  -0.006000  -0.025998  -0.021787   0.568829   0.002269
    18  H   -0.000498  -0.002032   0.000616  -0.000401   0.002269   0.563308
    19  H    0.004255  -0.003689   0.000035  -0.000398  -0.000031  -0.023290
    20  H    0.000258   0.011195   0.005636  -0.000346  -0.000036  -0.021624
    21  H   -0.000003   0.000000  -0.000001  -0.000001  -0.000000  -0.000000
    22  H    0.000000   0.000000   0.000000  -0.000000  -0.000000   0.000000
    23  H    0.000000   0.000000   0.000000  -0.000000   0.000000   0.000000
    24  H   -0.000000   0.000000   0.000003  -0.000002   0.000000   0.000000
    25  H   -0.000000   0.000000   0.000000  -0.000000  -0.000000   0.000000
              19         20         21         22         23         24
     1  O    0.000000  -0.000000   0.020095   0.001750   0.000406   0.018281
     2  C   -0.000001  -0.000027  -0.015010   0.006585  -0.000118   0.000515
     3  C    0.000021  -0.000681   0.003646   0.001379  -0.000329  -0.000277
     4  N    0.000315   0.001113  -0.000078   0.000004   0.000000  -0.000000
     5  C   -0.006826  -0.002470   0.000001  -0.000000   0.000000   0.000040
     6  C   -0.039925  -0.022833   0.000004   0.000000  -0.000000  -0.000000
     7  C    0.010462  -0.011385  -0.000001  -0.000000  -0.000000  -0.000001
     8  C    0.414830   0.388003  -0.000000  -0.000000  -0.000000  -0.000000
     9  O    0.000000   0.000000  -0.048904  -0.035637   0.005692  -0.003635
    10  C    0.000000   0.000000   0.442103   0.416006  -0.029013  -0.032693
    11  C   -0.000000  -0.000000  -0.078781  -0.047275   0.392024   0.399621
    12  H    0.000063   0.000005  -0.000063  -0.000354   0.000000  -0.000135
    13  H    0.004255   0.000258  -0.000003   0.000000   0.000000  -0.000000
    14  H   -0.003689   0.011195   0.000000   0.000000   0.000000   0.000000
    15  H    0.000035   0.005636  -0.000001   0.000000   0.000000   0.000003
    16  H   -0.000398  -0.000346  -0.000001  -0.000000  -0.000000  -0.000002
    17  H   -0.000031  -0.000036  -0.000000  -0.000000   0.000000   0.000000
    18  H   -0.023290  -0.021624  -0.000000   0.000000   0.000000   0.000000
    19  H    0.562757  -0.025013  -0.000000   0.000000   0.000000   0.000000
    20  H   -0.025013   0.571280   0.000000   0.000000   0.000000   0.000000
    21  H   -0.000000   0.000000   0.606723  -0.028626   0.003847  -0.008468
    22  H    0.000000   0.000000  -0.028626   0.585584  -0.002719   0.006757
    23  H    0.000000   0.000000   0.003847  -0.002719   0.569664  -0.022023
    24  H    0.000000   0.000000  -0.008468   0.006757  -0.022023   0.548785
    25  H    0.000000   0.000000   0.009427  -0.006220  -0.017587  -0.025877
              25
     1  O    0.001298
     2  C   -0.002927
     3  C   -0.000408
     4  N    0.000005
     5  C    0.000005
     6  C   -0.000000
     7  C    0.000000
     8  C   -0.000000
     9  O    0.005045
    10  C   -0.031709
    11  C    0.387358
    12  H    0.000038
    13  H   -0.000000
    14  H    0.000000
    15  H    0.000000
    16  H   -0.000000
    17  H   -0.000000
    18  H    0.000000
    19  H    0.000000
    20  H    0.000000
    21  H    0.009427
    22  H   -0.006220
    23  H   -0.017587
    24  H   -0.025877
    25  H    0.581831
 Mulliken charges:
               1
     1  O   -0.544391
     2  C    0.302207
     3  C   -0.286044
     4  N   -0.224251
     5  C   -0.124389
     6  C   -0.012825
     7  C   -0.371925
     8  C   -0.335539
     9  O   -0.345557
    10  C   -0.034132
    11  C   -0.343379
    12  H    0.049591
    13  H    0.039861
    14  H    0.069785
    15  H    0.108063
    16  H    0.114729
    17  H    0.102818
    18  H    0.106181
    19  H    0.106434
    20  H    0.106923
    21  H    0.094089
    22  H    0.102766
    23  H    0.100155
    24  H    0.119110
    25  H    0.099721
 Sum of Mulliken charges =  -1.00000
 Mulliken charges with hydrogens summed into heavy atoms:
               1
     1  O   -0.544391
     2  C    0.302207
     3  C   -0.236453
     4  N   -0.224251
     5  C   -0.084528
     6  C    0.056960
     7  C   -0.046316
     8  C   -0.016000
     9  O   -0.345557
    10  C    0.162722
    11  C   -0.024394
 Electronic spatial extent (au):  <R**2>=           3234.0590
 Charge=             -1.0000 electrons
 Dipole moment (field-independent basis, Debye):
    X=              2.0842    Y=             -1.8731    Z=              1.1202  Tot=              3.0178
 Quadrupole moment (field-independent basis, Debye-Ang):
   XX=            -80.6205   YY=            -79.6291   ZZ=            -74.3249
   XY=              1.0150   XZ=             -1.1487   YZ=              0.5845
 Traceless Quadrupole moment (field-independent basis, Debye-Ang):
   XX=             -2.4290   YY=             -1.4376   ZZ=              3.8666
   XY=              1.0150   XZ=             -1.1487   YZ=              0.5845
 Octapole moment (field-independent basis, Debye-Ang**2):
  XXX=            -32.8940  YYY=             -6.8091  ZZZ=             -0.9585  XYY=              3.5368
  XXY=             -1.0427  XXZ=             -6.1042  XZZ=             -6.0795  YZZ=              2.5828
  YYZ=              1.4308  XYZ=              0.9327
 Hexadecapole moment (field-independent basis, Debye-Ang**3):
 XXXX=          -3906.8271 YYYY=           -411.3211 ZZZZ=           -245.6064 XXXY=             11.7019
 XXXZ=             -2.3712 YYYX=              0.5310 YYYZ=              1.1865 ZZZX=              5.6245
 ZZZY=             -2.6828 XXYY=           -746.6032 XXZZ=           -715.3824 YYZZ=           -109.8374
 XXYZ=              2.5888 YYXZ=             -3.5202 ZZXY=              4.5985
 N-N= 5.967430624097D+02 E-N=-2.417316699526D+03  KE= 5.158177486317D+02
 There are a total of      571000 grid points.
 ElSum from          density=       85.9999837909
 ElSum from atomic densities=       84.9999702010
 Hirshfeld populations at iteration   1 (CA, CB, DipXYZ):
               1          2          3          4          5
     1  O    4.206609   4.206609  -0.042706  -0.221940   0.018062
     2  C    2.950586   2.950586  -0.139210  -0.027168   0.007279
     3  C    3.090854   3.090854   0.062584   0.004277   0.001753
     4  N    3.589901   3.589901  -0.012263  -0.163666  -0.002059
     5  C    3.022321   3.022321   0.061798  -0.012401   0.000912
     6  C    3.015384   3.015384   0.010525   0.006390   0.018682
     7  C    3.049814   3.049814   0.027296  -0.018102  -0.006061
     8  C    3.046969   3.046969  -0.002007   0.010647  -0.021053
     9  O    4.098179   4.098179  -0.027861   0.176543   0.009422
    10  C    2.995173   2.995173   0.031121  -0.026326   0.021133
    11  C    3.050945   3.050945  -0.016700  -0.002626  -0.019015
    12  H    0.509427   0.509427   0.003895  -0.126246  -0.000584
    13  H    0.498877   0.498877   0.012174  -0.115804  -0.002921
    14  H    0.491151   0.491151   0.065866  -0.019489  -0.109306
    15  H    0.491123   0.491123  -0.046863   0.035524   0.115268
    16  H    0.491309   0.491309  -0.057995   0.056146  -0.100892
    17  H    0.490487   0.490487   0.118693   0.062169  -0.006625
    18  H    0.488322   0.488322   0.123938   0.055371  -0.007478
    19  H    0.488781   0.488781   0.017242  -0.133544  -0.014423
    20  H    0.489301   0.489301  -0.048936   0.027601   0.119965
    21  H    0.492215   0.492215  -0.028732   0.089146  -0.080697
    22  H    0.488230   0.488230  -0.098883  -0.086374  -0.043097
    23  H    0.485905   0.485905  -0.127903   0.056359  -0.005326
    24  H    0.489575   0.489575   0.068258   0.087834   0.052603
    25  H    0.488555   0.488555  -0.003116  -0.105177   0.087504
       Tot  42.999992  42.999992  -0.049783  -0.390854   0.033047

 Dip from Atomic Chgs              0.869755  -0.346089   0.407659
         Total Dipole              0.819971  -0.736944   0.440706

 Hirshfeld charges, spin densities, dipoles, and CM5 charges using IRadAn=      5:
              Q-H        S-H        Dx         Dy         Dz        Q-CM5   
     1  O   -0.413218   0.000000  -0.042706  -0.221940   0.018062  -0.461107
     2  C    0.098827   0.000000  -0.139210  -0.027168   0.007279   0.155749
     3  C   -0.181708   0.000000   0.062584   0.004277   0.001753  -0.152732
     4  N   -0.179803   0.000000  -0.012263  -0.163666  -0.002059  -0.383213
     5  C   -0.044643   0.000000   0.061798  -0.012401   0.000912  -0.011616
     6  C   -0.030769   0.000000   0.010525   0.006390   0.018682  -0.093625
     7  C   -0.099627   0.000000   0.027296  -0.018102  -0.006061  -0.242498
     8  C   -0.093937   0.000000  -0.002007   0.010647  -0.021053  -0.238596
     9  O   -0.196359   0.000000  -0.027861   0.176543   0.009422  -0.278227
    10  C    0.009654   0.000000   0.031121  -0.026326   0.021133  -0.069093
    11  C   -0.101889   0.000000  -0.016700  -0.002626  -0.019015  -0.246312
    12  H   -0.018854   0.000000   0.003895  -0.126246  -0.000584   0.048225
    13  H    0.002247   0.000000   0.012174  -0.115804  -0.002921   0.064849
    14  H    0.017697   0.000000   0.065866  -0.019489  -0.109306   0.074654
    15  H    0.017753   0.000000  -0.046863   0.035524   0.115268   0.071625
    16  H    0.017382   0.000000  -0.057995   0.056146  -0.100892   0.072055
    17  H    0.019027   0.000000   0.118693   0.062169  -0.006625   0.069572
    18  H    0.023356   0.000000   0.123938   0.055371  -0.007478   0.073515
    19  H    0.022437   0.000000   0.017242  -0.133544  -0.014423   0.073129
    20  H    0.021398   0.000000  -0.048936   0.027601   0.119965   0.072849
    21  H    0.015571   0.000000  -0.028732   0.089146  -0.080697   0.083414
    22  H    0.023540   0.000000  -0.098883  -0.086374  -0.043097   0.085991
    23  H    0.028191   0.000000  -0.127903   0.056359  -0.005326   0.078373
    24  H    0.020850   0.000000   0.068258   0.087834   0.052603   0.077512
    25  H    0.022890   0.000000  -0.003116  -0.105177   0.087504   0.075525
       Tot  -0.999984   0.000000  -0.049783  -0.390854   0.033047  -0.999984
 Hirshfeld charges with hydrogens summed into heavy atoms:
              Q-H       Q-CM5   
     1  O   -0.413218  -0.461107
     2  C    0.098827   0.155749
     3  C   -0.200562  -0.104507
     4  N   -0.179803  -0.383213
     5  C   -0.042396   0.053233
     6  C   -0.013071  -0.018972
     7  C   -0.045465  -0.029247
     8  C   -0.026745  -0.019104
     9  O   -0.196359  -0.278227
    10  C    0.048766   0.100312
    11  C   -0.029957  -0.014902
 
 EQQ=  0.00000000000     EQD=  0.00000000000     EDD=-0.180568198237E-02
 EQQ+QD+DD=-0.180568198237E-02
 
  Exact polarizability:     259.030     -18.161     144.433       2.247      -0.417     118.473
 Approx polarizability:     202.172     -16.666     141.162       0.738      -0.303     116.977
 Breneman (CHELPG) radii used.
 Read replacement radii for each type of atom:
 Atom Element Radius
    1     8    1.70
    2     6    1.50
    3     6    1.50
    4     7    1.70
    5     6    1.50
    6     6    1.50
    7     6    1.50
    8     6    1.50
    9     8    1.70
   10     6    1.50
   11     6    1.50
   12     1    1.45
   13     1    1.45
   14     1    1.45
   15     1    1.45
   16     1    1.45
   17     1    1.45
   18     1    1.45
   19     1    1.45
   20     1    1.45
   21     1    1.45
   22     1    1.45
   23     1    1.45
   24     1    1.45
   25     1    1.45
 Generate Potential Derived Charges using the Breneman model, NDens= 1.
 Grid spacing= 0.300 Box extension= 2.800
 NStep X,Y,Z=   54     33     30   Total possible points=       53460
 Number of Points to Fit=   16357

 **********************************************************************

            Electrostatic Properties Using The SCF Density.

 **********************************************************************

       Atomic Center    1 is at  -1.629654  1.240489 -0.296150
       Atomic Center    2 is at  -1.447134  0.028126 -0.295167
       Atomic Center    3 is at  -0.260164 -0.733707 -0.286036
       Atomic Center    4 is at   0.948753 -0.128546 -0.268170
       Atomic Center    5 is at   2.068020 -0.756046 -0.265370
       Atomic Center    6 is at   3.399134 -0.038933 -0.250476
       Atomic Center    7 is at   3.214939  1.467906 -0.114015
       Atomic Center    8 is at   4.303756 -0.587896  0.858554
       Atomic Center    9 is at  -2.575633 -0.820126 -0.305760
       Atomic Center   10 is at  -3.814687 -0.170305 -0.302702
       Atomic Center   11 is at  -4.210919  0.301955  1.090398
       Atomic Center   12 is at  -0.350047 -1.829758 -0.295247
       Atomic Center   13 is at   2.112677 -1.867226 -0.282501
       Atomic Center   14 is at   3.923930 -0.231735 -1.210867
       Atomic Center   15 is at   2.713235  1.697230  0.837911
       Atomic Center   16 is at   2.557290  1.847668 -0.906157
       Atomic Center   17 is at   4.183808  1.993348 -0.148125
       Atomic Center   18 is at   5.311374 -0.139349  0.826327
       Atomic Center   19 is at   4.415139 -1.680570  0.772872
       Atomic Center   20 is at   3.859952 -0.375647  1.844533
       Atomic Center   21 is at  -3.793993  0.695616 -0.983467
       Atomic Center   22 is at  -4.548555 -0.901268 -0.682340
       Atomic Center   23 is at  -5.219511  0.745817  1.090508
       Atomic Center   24 is at  -3.486065  1.057379  1.420633
       Atomic Center   25 is at  -4.195873 -0.541179  1.797283
 Evaluate density.
 Using the total density.
 Monte-Carlo method of calculating molar volume:
 based on  0.001 e/bohr**3 density envelope.
 Number of points per bohr**3 =   20 CutOff= 1.00D-04
 Using the SCF density.
 There are       397 points.  Will hold       397 in memory.
 LenV=  6441880400 MDV=  6442450944.
 Box volume = 7854.307 fraction occupied=0.244
 Integrated density= 7.0439765972374374D+01 error=-1.5560234027625626D+01
 Molar volume = 1919.062 bohr**3/mol (171.255 cm**3/mol)
 Recommended a0 for SCRF calculation =  4.99 angstrom (  9.43 bohr)
 Running external command "gaunbo7 R"
         input file       "/scratch/general/vast/u6067110/5269603-notchpeak.peaks/Gau-3526639.EIn"
         output file      "/scratch/general/vast/u6067110/5269603-notchpeak.peaks/Gau-3526639.EOu"
         message file     "/scratch/general/vast/u6067110/5269603-notchpeak.peaks/Gau-3526639.EMs"
         fchk file        "/scratch/general/vast/u6067110/5269603-notchpeak.peaks/Gau-3526639.EFC"
         mat. el file     "/scratch/general/vast/u6067110/5269603-notchpeak.peaks/Gau-3526639.EUF"

 Writing WrtUnf unformatted file "/scratch/general/vast/u6067110/5269603-notchpeak.peaks/Gau-3526639.EUF"
 Gaussian matrix elements                                         Version   2 NLab=11 Len12L=8 Len4L=8
 Write SHELL TO ATOM MAP                   from file      0 offset           0 length                 205 to matrix element file.
 Write SHELL TYPES                         from file      0 offset           0 length                 205 to matrix element file.
 Write NUMBER OF PRIMITIVES PER SHELL      from file      0 offset           0 length                 205 to matrix element file.
 Write PRIMITIVE EXPONENTS                 from file      0 offset           0 length                 332 to matrix element file.
 Write CONTRACTION COEFFICIENTS            from file      0 offset           0 length                 332 to matrix element file.
 Write P(S=P) CONTRACTION COEFFICIENTS     from file      0 offset           0 length                 332 to matrix element file.
 Write COORDINATES OF EACH SHELL           from file      0 offset           0 length                 615 to matrix element file.
 Write BONDS PER ATOM                      from file      0 offset           0 length                  25 to matrix element file.
 Write BONDED ATOMS                        from file      0 offset           0 length                  48 to matrix element file.
 Write BOND TYPES                          from file      0 offset           0 length                  48 to matrix element file.
 Write ONIOM CHARGE/MULT                   from file      0 offset           0 length                  32 to matrix element file.
 Write ONIOM ATOM LAYERS                   from file      0 offset           0 length                  25 to matrix element file.
 Write ONIOM ATOM MODIFIERS                from file      0 offset           0 length                  25 to matrix element file.
 Write ONIOM ATOM TYPES                    from file      0 offset           0 length                  25 to matrix element file.
 Write ONIOM LINK ATOMS                    from file      0 offset           0 length                  25 to matrix element file.
 Write ONIOM LINK CHARGES                  from file      0 offset           0 length                  25 to matrix element file.
 Write ONIOM LINK DISTANCES                from file      0 offset           0 length                 100 to matrix element file.
 Write SYMINF INTS                         from file      0 offset           0 length                  26 to matrix element file.
 Write ROTTR TO SO                         from file      0 offset           0 length                  12 to matrix element file.
 Write GAUSSIAN SCALARS                    from file    501 offset           0 to matrix element file.
 Write OPTIMIZATION FLAGS                  from file      0 offset           0 length                  25 to matrix element file.
 Write INTEGER ISO                         from file      0 offset           0 length                  25 to matrix element file.
 Write INTEGER SPIN                        from file      0 offset           0 length                  25 to matrix element file.
 Write REAL ZEFFECTIVE                     from file      0 offset           0 length                  25 to matrix element file.
 Write REAL QUADRUPOLEMOMENT               from file      0 offset           0 length                  25 to matrix element file.
 Write REAL GFACTOR                        from file      0 offset           0 length                  25 to matrix element file.
 Write REAL ZNUCLEAR                       from file      0 offset           0 length                  25 to matrix element file.
 Write MULLIKEN CHARGES                    from file      0 offset           0 length                  25 to matrix element file.
 Write TYPE 6 CHARGES                      from file      0 offset           0 length                  25 to matrix element file.
 Write TYPE 7 CHARGES                      from file      0 offset           0 length                  25 to matrix element file.
 Write NUCLEAR GRADIENT                    from file  10584 offset           0 length                  75 to matrix element file.
 Array NUCLEAR FORCE CONSTANTS              on  file  10585 does not exist.
 Write ELECTRIC DIPOLE MOMENT              from file      0 offset           0 length                   3 to matrix element file.
 Write ELECTRIC DIPOLE POLARIZABILITY      from file      0 offset           0 length                   6 to matrix element file.
 Write ELECTRIC DIPOLE HYPERPOLARIZABILITY from file      0 offset           0 length                  10 to matrix element file.
 Write NON-ADIABATIC COUPLING              from file  10810 offset           0 length                  75 to matrix element file.
 Write RED INT COORD DIMS                  from file      0 offset           0 length                   4 to matrix element file.
 Write RED INT COORD ATOMS                 from file      0 offset           0 length                 444 to matrix element file.
 Write RED INT COORD VALS                  from file      0 offset           0 length                 111 to matrix element file.
 Write RED INT COORD IFLAGS                from file      0 offset           0 length                 111 to matrix element file.
 Write RED INT COORD RFLAGS                from file      0 offset           0 length                 111 to matrix element file.
 Write RED INT COORD CONSTRAINT            from file      0 offset           0 length                 222 to matrix element file.
 Write FINITE EM FIELD                     from file  10521 offset           0 length                  35 to matrix element file.
 Write OVERLAP                             from file  10514 offset           0 length              144453 to matrix element file.
 Write CORE HAMILTONIAN ALPHA              from file  10515 offset           0 length              144453 to matrix element file.
 Write CORE HAMILTONIAN BETA               from file  10515 offset      144453 length              144453 to matrix element file.
 Write KINETIC ENERGY                      from file  10516 offset           0 length              144453 to matrix element file.
 Write ORTHOGONAL BASIS                    from file  10685 offset           0 length              288369 to matrix element file.
 Write DIPOLE INTEGRALS                    from file  10518 offset           0 length              433359 to matrix element file.
 Array DIP VEL INTEGRALS                    on  file  10572 does not exist.
 Array R X DEL INTEGRALS                    on  file  10572 does not exist.
 Write ALPHA ORBITAL ENERGIES              from file      0 offset           0 length                 537 to matrix element file.
 Write ALPHA MO COEFFICIENTS               from file  10524 offset           0 length              288369 to matrix element file.
 Write ALPHA DENSITY MATRIX                from file      0 offset           0 length              144453 to matrix element file.
 Write ALPHA FOCK MATRIX                   from file  10536 offset           0 length              144453 to matrix element file.
 Write ENERGY-WEIGHTED DENSITY             from file  10571 offset           0 length              144453 to matrix element file.
 Write ALPHA SCF DENSITY MATRIX            from file      0 offset           0 length              144453 to matrix element file.
 Write TRANS MO COEFFICIENTS               from file  10548 offset           0 length              288369 to matrix element file.
 No 2e integrals to process.
 Perform NBO analysis...executing G16NBO...

 *********************************** NBO 7.0 ***********************************
             N A T U R A L   A T O M I C   O R B I T A L   A N D
          N A T U R A L   B O N D   O R B I T A L   A N A L Y S I S
 **************************** Anita Orendt (S101720) ***************************
  (c) Copyright 1996-2021 Board of Regents of the University of Wisconsin System
      on behalf of the Theoretical Chemistry Institute.  All rights reserved.

          Cite this program [NBO 7.0.10 (8-Feb-2021)] as:

          NBO 7.0.  E. D. Glendening, J. K. Badenhoop, A. E. Reed,
          J. E. Carpenter, J. A. Bohmann, C. M. Morales, P. Karafiloglou,
          C. R. Landis, and F. Weinhold, Theoretical Chemistry Institute,
          University of Wisconsin, Madison, WI (2018)

 Filename set to /scratch/general/vast/u6067110/5269603-notchpeak.pea

 Job title: A18_crest_conformers_censo-13


 NATURAL POPULATIONS:  Natural atomic orbital occupancies

  NAO Atom No lang   Type(AO)    Occupancy      Energy
 -------------------------------------------------------
   1    O  1  s      Cor( 1s)     2.00000     -19.53762
   2    O  1  s      Val( 2s)     1.70004      -0.69856
   3    O  1  s      Ryd( 3s)     0.00041       1.42887
   4    O  1  s      Ryd( 4s)     0.00004       6.88998
   5    O  1  s      Ryd( 5s)     0.00000      39.72234
   6    O  1  px     Val( 2p)     1.83962      -0.27338
   7    O  1  px     Ryd( 3p)     0.00197       0.85526
   8    O  1  px     Ryd( 4p)     0.00002       3.36853
   9    O  1  py     Val( 2p)     1.56894      -0.26153
  10    O  1  py     Ryd( 3p)     0.00093       0.70927
  11    O  1  py     Ryd( 4p)     0.00014       4.01252
  12    O  1  pz     Val( 2p)     1.63077      -0.25026
  13    O  1  pz     Ryd( 3p)     0.00264       0.72136
  14    O  1  pz     Ryd( 4p)     0.00001       3.01414
  15    O  1  dxy    Ryd( 3d)     0.00419       2.14622
  16    O  1  dxy    Ryd( 4d)     0.00002       6.80985
  17    O  1  dxz    Ryd( 3d)     0.00016       1.72651
  18    O  1  dxz    Ryd( 4d)     0.00000       6.39717
  19    O  1  dyz    Ryd( 3d)     0.00484       1.96857
  20    O  1  dyz    Ryd( 4d)     0.00003       6.60053
  21    O  1  dx2y2  Ryd( 3d)     0.00646       2.18647
  22    O  1  dx2y2  Ryd( 4d)     0.00001       6.77120
  23    O  1  dz2    Ryd( 3d)     0.00234       1.92128
  24    O  1  dz2    Ryd( 4d)     0.00000       6.61113
  25    O  1  f(0)   Ryd( 4f)     0.00005       5.55276
  26    O  1  f(c1)  Ryd( 4f)     0.00001       5.34167
  27    O  1  f(s1)  Ryd( 4f)     0.00006       5.85167
  28    O  1  f(c2)  Ryd( 4f)     0.00012       5.73220
  29    O  1  f(s2)  Ryd( 4f)     0.00001       5.54808
  30    O  1  f(c3)  Ryd( 4f)     0.00018       6.16381
  31    O  1  f(s3)  Ryd( 4f)     0.00013       6.07021

  32    C  2  s      Cor( 1s)     1.99999     -10.59294
  33    C  2  s      Val( 2s)     0.82356      -0.04707
  34    C  2  s      Ryd( 3s)     0.00433       1.49119
  35    C  2  s      Ryd( 4s)     0.00024       2.16908
  36    C  2  s      Ryd( 5s)     0.00000      22.01417
  37    C  2  px     Val( 2p)     0.85425       0.03758
  38    C  2  px     Ryd( 3p)     0.00539       1.34828
  39    C  2  px     Ryd( 4p)     0.00026       1.73891
  40    C  2  py     Val( 2p)     0.76829       0.10651
  41    C  2  py     Ryd( 3p)     0.01792       1.28409
  42    C  2  py     Ryd( 4p)     0.00026       1.43627
  43    C  2  pz     Val( 2p)     0.83982      -0.05827
  44    C  2  pz     Ryd( 3p)     0.00283       0.88090
  45    C  2  pz     Ryd( 4p)     0.00041       1.13530
  46    C  2  dxy    Ryd( 4d)     0.00207       3.65170
  47    C  2  dxy    Ryd( 3d)     0.00029       3.29067
  48    C  2  dxz    Ryd( 4d)     0.00169       2.37728
  49    C  2  dxz    Ryd( 3d)     0.00019       2.34933
  50    C  2  dyz    Ryd( 4d)     0.00245       2.60719
  51    C  2  dyz    Ryd( 3d)     0.00009       2.37981
  52    C  2  dx2y2  Ryd( 4d)     0.00059       3.27140
  53    C  2  dx2y2  Ryd( 3d)     0.00045       3.46572
  54    C  2  dz2    Ryd( 4d)     0.00021       2.92436
  55    C  2  dz2    Ryd( 3d)     0.00017       2.75929
  56    C  2  f(0)   Ryd( 4f)     0.00024       3.36389
  57    C  2  f(c1)  Ryd( 4f)     0.00020       3.44047
  58    C  2  f(s1)  Ryd( 4f)     0.00017       3.50560
  59    C  2  f(c2)  Ryd( 4f)     0.00002       3.37950
  60    C  2  f(s2)  Ryd( 4f)     0.00003       3.42793
  61    C  2  f(c3)  Ryd( 4f)     0.00009       4.13423
  62    C  2  f(s3)  Ryd( 4f)     0.00034       3.95165

  63    C  3  s      Cor( 1s)     1.99999     -10.47716
  64    C  3  s      Val( 2s)     0.94738      -0.07806
  65    C  3  s      Ryd( 3s)     0.00462       1.17219
  66    C  3  s      Ryd( 4s)     0.00020       2.78121
  67    C  3  s      Ryd( 5s)     0.00000      19.63404
  68    C  3  px     Val( 2p)     0.93218       0.04045
  69    C  3  px     Ryd( 3p)     0.00577       0.93804
  70    C  3  px     Ryd( 4p)     0.00040       1.84789
  71    C  3  py     Val( 2p)     1.10522       0.00459
  72    C  3  py     Ryd( 3p)     0.00407       0.95830
  73    C  3  py     Ryd( 4p)     0.00102       1.80946
  74    C  3  pz     Val( 2p)     1.36200      -0.09031
  75    C  3  pz     Ryd( 3p)     0.01078       0.51654
  76    C  3  pz     Ryd( 4p)     0.00016       1.48739
  77    C  3  dxy    Ryd( 3d)     0.00138       3.65314
  78    C  3  dxy    Ryd( 4d)     0.00023       3.81519
  79    C  3  dxz    Ryd( 3d)     0.00065       2.08222
  80    C  3  dxz    Ryd( 4d)     0.00016       2.79589
  81    C  3  dyz    Ryd( 3d)     0.00029       1.94684
  82    C  3  dyz    Ryd( 4d)     0.00005       2.81956
  83    C  3  dx2y2  Ryd( 3d)     0.00074       2.78540
  84    C  3  dx2y2  Ryd( 4d)     0.00036       3.97997
  85    C  3  dz2    Ryd( 3d)     0.00086       2.67533
  86    C  3  dz2    Ryd( 4d)     0.00004       3.38492
  87    C  3  f(0)   Ryd( 4f)     0.00063       3.30984
  88    C  3  f(c1)  Ryd( 4f)     0.00026       3.52397
  89    C  3  f(s1)  Ryd( 4f)     0.00040       3.41562
  90    C  3  f(c2)  Ryd( 4f)     0.00004       3.31421
  91    C  3  f(s2)  Ryd( 4f)     0.00002       3.40503
  92    C  3  f(c3)  Ryd( 4f)     0.00010       4.01774
  93    C  3  f(s3)  Ryd( 4f)     0.00043       4.00326

  94    N  4  s      Cor( 1s)     1.99999     -14.70200
  95    N  4  s      Val( 2s)     1.32832      -0.36723
  96    N  4  s      Ryd( 3s)     0.00382       1.08720
  97    N  4  s      Ryd( 4s)     0.00007       4.18309
  98    N  4  s      Ryd( 5s)     0.00000      29.24479
  99    N  4  px     Val( 2p)     1.22059      -0.08584
 100    N  4  px     Ryd( 3p)     0.00277       1.17339
 101    N  4  px     Ryd( 4p)     0.00008       3.59465
 102    N  4  py     Val( 2p)     1.69529      -0.20727
 103    N  4  py     Ryd( 3p)     0.00810       0.78525
 104    N  4  py     Ryd( 4p)     0.00016       3.35407
 105    N  4  pz     Val( 2p)     1.14956      -0.14457
 106    N  4  pz     Ryd( 3p)     0.00092       0.64134
 107    N  4  pz     Ryd( 4p)     0.00003       2.50743
 108    N  4  dxy    Ryd( 3d)     0.00628       2.16997
 109    N  4  dxy    Ryd( 4d)     0.00012       5.41288
 110    N  4  dxz    Ryd( 3d)     0.00067       1.66913
 111    N  4  dxz    Ryd( 4d)     0.00020       4.90429
 112    N  4  dyz    Ryd( 3d)     0.00278       1.46880
 113    N  4  dyz    Ryd( 4d)     0.00001       4.73255
 114    N  4  dx2y2  Ryd( 3d)     0.00294       2.25910
 115    N  4  dx2y2  Ryd( 4d)     0.00021       5.32669
 116    N  4  dz2    Ryd( 3d)     0.00443       1.83243
 117    N  4  dz2    Ryd( 4d)     0.00002       5.05871
 118    N  4  f(0)   Ryd( 4f)     0.00020       4.36722
 119    N  4  f(c1)  Ryd( 4f)     0.00024       4.61747
 120    N  4  f(s1)  Ryd( 4f)     0.00011       4.28505
 121    N  4  f(c2)  Ryd( 4f)     0.00013       4.43603
 122    N  4  f(s2)  Ryd( 4f)     0.00001       4.54834
 123    N  4  f(c3)  Ryd( 4f)     0.00020       5.05934
 124    N  4  f(s3)  Ryd( 4f)     0.00040       5.01705

 125    C  5  s      Cor( 1s)     1.99999     -10.51224
 126    C  5  s      Val( 2s)     0.93813      -0.09622
 127    C  5  s      Ryd( 3s)     0.00831       1.03210
 128    C  5  s      Ryd( 4s)     0.00029       2.15356
 129    C  5  s      Ryd( 5s)     0.00000      21.19867
 130    C  5  px     Val( 2p)     0.91683       0.04877
 131    C  5  px     Ryd( 3p)     0.00496       1.12031
 132    C  5  px     Ryd( 4p)     0.00026       1.86202
 133    C  5  py     Val( 2p)     1.07392       0.00343
 134    C  5  py     Ryd( 3p)     0.00352       1.14651
 135    C  5  py     Ryd( 4p)     0.00076       1.64140
 136    C  5  pz     Val( 2p)     1.06688      -0.07776
 137    C  5  pz     Ryd( 3p)     0.00527       0.70398
 138    C  5  pz     Ryd( 4p)     0.00042       1.34361
 139    C  5  dxy    Ryd( 4d)     0.00083       3.51101
 140    C  5  dxy    Ryd( 3d)     0.00027       3.21657
 141    C  5  dxz    Ryd( 4d)     0.00057       2.71345
 142    C  5  dxz    Ryd( 3d)     0.00005       2.38923
 143    C  5  dyz    Ryd( 4d)     0.00020       2.55074
 144    C  5  dyz    Ryd( 3d)     0.00010       2.25595
 145    C  5  dx2y2  Ryd( 4d)     0.00093       3.08352
 146    C  5  dx2y2  Ryd( 3d)     0.00052       3.44929
 147    C  5  dz2    Ryd( 4d)     0.00070       3.11224
 148    C  5  dz2    Ryd( 3d)     0.00016       2.74527
 149    C  5  f(0)   Ryd( 4f)     0.00030       3.33190
 150    C  5  f(c1)  Ryd( 4f)     0.00028       3.42596
 151    C  5  f(s1)  Ryd( 4f)     0.00032       3.36558
 152    C  5  f(c2)  Ryd( 4f)     0.00001       3.37736
 153    C  5  f(s2)  Ryd( 4f)     0.00003       3.40907
 154    C  5  f(c3)  Ryd( 4f)     0.00013       3.93741
 155    C  5  f(s3)  Ryd( 4f)     0.00044       3.87265

 156    C  6  s      Cor( 1s)     1.99999     -10.51426
 157    C  6  s      Val( 2s)     1.01034      -0.17524
 158    C  6  s      Ryd( 3s)     0.00180       1.31945
 159    C  6  s      Ryd( 4s)     0.00004       6.61785
 160    C  6  s      Ryd( 5s)     0.00001      14.89065
 161    C  6  px     Val( 2p)     1.07588      -0.04554
 162    C  6  px     Ryd( 3p)     0.00220       1.04597
 163    C  6  px     Ryd( 4p)     0.00015       1.70530
 164    C  6  py     Val( 2p)     1.04271      -0.04174
 165    C  6  py     Ryd( 3p)     0.00147       1.09558
 166    C  6  py     Ryd( 4p)     0.00013       1.55656
 167    C  6  pz     Val( 2p)     1.11772      -0.06636
 168    C  6  pz     Ryd( 3p)     0.00193       1.04508
 169    C  6  pz     Ryd( 4p)     0.00009       1.61640
 170    C  6  dxy    Ryd( 3d)     0.00041       2.36325
 171    C  6  dxy    Ryd( 4d)     0.00040       3.78157
 172    C  6  dxz    Ryd( 3d)     0.00096       2.27256
 173    C  6  dxz    Ryd( 4d)     0.00013       3.82839
 174    C  6  dyz    Ryd( 3d)     0.00028       1.99721
 175    C  6  dyz    Ryd( 4d)     0.00045       3.47291
 176    C  6  dx2y2  Ryd( 3d)     0.00042       2.36922
 177    C  6  dx2y2  Ryd( 4d)     0.00028       3.85991
 178    C  6  dz2    Ryd( 3d)     0.00082       2.39884
 179    C  6  dz2    Ryd( 4d)     0.00018       3.83893
 180    C  6  f(0)   Ryd( 4f)     0.00003       3.61213
 181    C  6  f(c1)  Ryd( 4f)     0.00029       3.77976
 182    C  6  f(s1)  Ryd( 4f)     0.00008       3.50812
 183    C  6  f(c2)  Ryd( 4f)     0.00002       3.60880
 184    C  6  f(s2)  Ryd( 4f)     0.00003       3.55902
 185    C  6  f(c3)  Ryd( 4f)     0.00002       3.80836
 186    C  6  f(s3)  Ryd( 4f)     0.00029       3.68486

 187    C  7  s      Cor( 1s)     1.99999     -10.49734
 188    C  7  s      Val( 2s)     1.10849      -0.20321
 189    C  7  s      Ryd( 3s)     0.00054       1.56956
 190    C  7  s      Ryd( 4s)     0.00002       2.17039
 191    C  7  s      Ryd( 5s)     0.00000      21.93455
 192    C  7  px     Val( 2p)     1.19715      -0.07108
 193    C  7  px     Ryd( 3p)     0.00188       0.98947
 194    C  7  px     Ryd( 4p)     0.00005       1.83591
 195    C  7  py     Val( 2p)     1.06461      -0.04918
 196    C  7  py     Ryd( 3p)     0.00085       0.78925
 197    C  7  py     Ryd( 4p)     0.00011       2.22627
 198    C  7  pz     Val( 2p)     1.21556      -0.08157
 199    C  7  pz     Ryd( 3p)     0.00081       0.79362
 200    C  7  pz     Ryd( 4p)     0.00002       1.79677
 201    C  7  dxy    Ryd( 3d)     0.00092       1.88466
 202    C  7  dxy    Ryd( 4d)     0.00010       3.53666
 203    C  7  dxz    Ryd( 3d)     0.00184       1.82057
 204    C  7  dxz    Ryd( 4d)     0.00002       3.65839
 205    C  7  dyz    Ryd( 3d)     0.00036       1.82557
 206    C  7  dyz    Ryd( 4d)     0.00009       3.35991
 207    C  7  dx2y2  Ryd( 3d)     0.00153       2.20366
 208    C  7  dx2y2  Ryd( 4d)     0.00002       3.54087
 209    C  7  dz2    Ryd( 3d)     0.00188       1.93175
 210    C  7  dz2    Ryd( 4d)     0.00002       3.59902
 211    C  7  f(0)   Ryd( 4f)     0.00004       3.37982
 212    C  7  f(c1)  Ryd( 4f)     0.00037       3.59924
 213    C  7  f(s1)  Ryd( 4f)     0.00012       3.46894
 214    C  7  f(c2)  Ryd( 4f)     0.00002       3.48575
 215    C  7  f(s2)  Ryd( 4f)     0.00005       3.51642
 216    C  7  f(c3)  Ryd( 4f)     0.00003       3.56405
 217    C  7  f(s3)  Ryd( 4f)     0.00032       3.58500

 218    C  8  s      Cor( 1s)     1.99999     -10.50674
 219    C  8  s      Val( 2s)     1.11512      -0.21713
 220    C  8  s      Ryd( 3s)     0.00028       1.40270
 221    C  8  s      Ryd( 4s)     0.00002       2.17767
 222    C  8  s      Ryd( 5s)     0.00000      22.29772
 223    C  8  px     Val( 2p)     1.15604      -0.07788
 224    C  8  px     Ryd( 3p)     0.00076       0.86372
 225    C  8  px     Ryd( 4p)     0.00007       1.84333
 226    C  8  py     Val( 2p)     1.18899      -0.08294
 227    C  8  py     Ryd( 3p)     0.00137       0.87937
 228    C  8  py     Ryd( 4p)     0.00003       1.83054
 229    C  8  pz     Val( 2p)     1.12660      -0.07107
 230    C  8  pz     Ryd( 3p)     0.00019       0.75493
 231    C  8  pz     Ryd( 4p)     0.00004       1.98954
 232    C  8  dxy    Ryd( 3d)     0.00105       1.87508
 233    C  8  dxy    Ryd( 4d)     0.00004       3.47880
 234    C  8  dxz    Ryd( 3d)     0.00149       2.13811
 235    C  8  dxz    Ryd( 4d)     0.00002       3.48952
 236    C  8  dyz    Ryd( 3d)     0.00053       1.88982
 237    C  8  dyz    Ryd( 4d)     0.00003       3.35643
 238    C  8  dx2y2  Ryd( 3d)     0.00177       1.88156
 239    C  8  dx2y2  Ryd( 4d)     0.00004       3.63392
 240    C  8  dz2    Ryd( 3d)     0.00155       1.93944
 241    C  8  dz2    Ryd( 4d)     0.00005       3.56655
 242    C  8  f(0)   Ryd( 4f)     0.00008       3.53259
 243    C  8  f(c1)  Ryd( 4f)     0.00036       3.60875
 244    C  8  f(s1)  Ryd( 4f)     0.00011       3.51570
 245    C  8  f(c2)  Ryd( 4f)     0.00002       3.43610
 246    C  8  f(s2)  Ryd( 4f)     0.00005       3.36701
 247    C  8  f(c3)  Ryd( 4f)     0.00003       3.40035
 248    C  8  f(s3)  Ryd( 4f)     0.00031       3.63549

 249    O  9  s      Cor( 1s)     2.00000     -19.60215
 250    O  9  s      Val( 2s)     1.62012      -0.75400
 251    O  9  s      Ryd( 3s)     0.00085       2.29062
 252    O  9  s      Ryd( 4s)     0.00006       6.50837
 253    O  9  s      Ryd( 5s)     0.00000      40.06870
 254    O  9  px     Val( 2p)     1.33255      -0.24697
 255    O  9  px     Ryd( 3p)     0.00148       1.08667
 256    O  9  px     Ryd( 4p)     0.00009       4.15595
 257    O  9  py     Val( 2p)     1.72338      -0.33128
 258    O  9  py     Ryd( 3p)     0.00231       0.72697
 259    O  9  py     Ryd( 4p)     0.00019       3.58122
 260    O  9  pz     Val( 2p)     1.86244      -0.34310
 261    O  9  pz     Ryd( 3p)     0.00358       0.72918
 262    O  9  pz     Ryd( 4p)     0.00005       3.03487
 263    O  9  dxy    Ryd( 3d)     0.00482       2.46069
 264    O  9  dxy    Ryd( 4d)     0.00003       6.69934
 265    O  9  dxz    Ryd( 3d)     0.00018       2.09543
 266    O  9  dxz    Ryd( 4d)     0.00005       6.62776
 267    O  9  dyz    Ryd( 3d)     0.00236       1.91773
 268    O  9  dyz    Ryd( 4d)     0.00002       6.53488
 269    O  9  dx2y2  Ryd( 3d)     0.00158       2.41697
 270    O  9  dx2y2  Ryd( 4d)     0.00005       6.76715
 271    O  9  dz2    Ryd( 3d)     0.00264       2.09226
 272    O  9  dz2    Ryd( 4d)     0.00001       6.64081
 273    O  9  f(0)   Ryd( 4f)     0.00010       5.60340
 274    O  9  f(c1)  Ryd( 4f)     0.00010       5.63858
 275    O  9  f(s1)  Ryd( 4f)     0.00006       5.45139
 276    O  9  f(c2)  Ryd( 4f)     0.00003       5.53913
 277    O  9  f(s2)  Ryd( 4f)     0.00001       5.79864
 278    O  9  f(c3)  Ryd( 4f)     0.00003       6.21200
 279    O  9  f(s3)  Ryd( 4f)     0.00012       6.04004

 280    C 10  s      Cor( 1s)     1.99999     -10.55374
 281    C 10  s      Val( 2s)     1.02258      -0.19174
 282    C 10  s      Ryd( 3s)     0.00342       1.40477
 283    C 10  s      Ryd( 4s)     0.00004       2.31638
 284    C 10  s      Ryd( 5s)     0.00000      21.50763
 285    C 10  px     Val( 2p)     0.84893      -0.03035
 286    C 10  px     Ryd( 3p)     0.00362       1.07760
 287    C 10  px     Ryd( 4p)     0.00022       1.33870
 288    C 10  py     Val( 2p)     1.09513      -0.06676
 289    C 10  py     Ryd( 3p)     0.00418       1.11021
 290    C 10  py     Ryd( 4p)     0.00026       1.38931
 291    C 10  pz     Val( 2p)     1.08357      -0.06546
 292    C 10  pz     Ryd( 3p)     0.00078       0.93784
 293    C 10  pz     Ryd( 4p)     0.00016       1.30609
 294    C 10  dxy    Ryd( 3d)     0.00135       2.48454
 295    C 10  dxy    Ryd( 4d)     0.00025       3.55281
 296    C 10  dxz    Ryd( 3d)     0.00120       2.07736
 297    C 10  dxz    Ryd( 4d)     0.00020       3.11257
 298    C 10  dyz    Ryd( 3d)     0.00145       2.15924
 299    C 10  dyz    Ryd( 4d)     0.00016       3.39629
 300    C 10  dx2y2  Ryd( 3d)     0.00086       2.20645
 301    C 10  dx2y2  Ryd( 4d)     0.00017       3.31163
 302    C 10  dz2    Ryd( 3d)     0.00069       2.41070
 303    C 10  dz2    Ryd( 4d)     0.00017       3.40976
 304    C 10  f(0)   Ryd( 4f)     0.00012       3.68971
 305    C 10  f(c1)  Ryd( 4f)     0.00005       3.63865
 306    C 10  f(s1)  Ryd( 4f)     0.00013       3.65620
 307    C 10  f(c2)  Ryd( 4f)     0.00006       3.65510
 308    C 10  f(s2)  Ryd( 4f)     0.00009       3.64119
 309    C 10  f(c3)  Ryd( 4f)     0.00004       3.70771
 310    C 10  f(s3)  Ryd( 4f)     0.00012       3.69896

 311    C 11  s      Cor( 1s)     1.99999     -10.50152
 312    C 11  s      Val( 2s)     1.12826      -0.22368
 313    C 11  s      Ryd( 3s)     0.00081       1.16241
 314    C 11  s      Ryd( 4s)     0.00002       1.80058
 315    C 11  s      Ryd( 5s)     0.00000      22.47206
 316    C 11  px     Val( 2p)     1.20203      -0.08565
 317    C 11  px     Ryd( 3p)     0.00100       0.88004
 318    C 11  px     Ryd( 4p)     0.00005       1.75976
 319    C 11  py     Val( 2p)     1.19921      -0.08605
 320    C 11  py     Ryd( 3p)     0.00041       0.83783
 321    C 11  py     Ryd( 4p)     0.00002       1.75897
 322    C 11  pz     Val( 2p)     1.09481      -0.06581
 323    C 11  pz     Ryd( 3p)     0.00042       0.76005
 324    C 11  pz     Ryd( 4p)     0.00006       2.10216
 325    C 11  dxy    Ryd( 3d)     0.00178       1.79462
 326    C 11  dxy    Ryd( 4d)     0.00001       3.73543
 327    C 11  dxz    Ryd( 3d)     0.00044       1.79205
 328    C 11  dxz    Ryd( 4d)     0.00005       3.40286
 329    C 11  dyz    Ryd( 3d)     0.00170       1.91439
 330    C 11  dyz    Ryd( 4d)     0.00004       3.63020
 331    C 11  dx2y2  Ryd( 3d)     0.00124       1.73137
 332    C 11  dx2y2  Ryd( 4d)     0.00002       3.58658
 333    C 11  dz2    Ryd( 3d)     0.00164       1.99007
 334    C 11  dz2    Ryd( 4d)     0.00003       3.51474
 335    C 11  f(0)   Ryd( 4f)     0.00018       3.52048
 336    C 11  f(c1)  Ryd( 4f)     0.00009       3.52313
 337    C 11  f(s1)  Ryd( 4f)     0.00025       3.50585
 338    C 11  f(c2)  Ryd( 4f)     0.00008       3.52072
 339    C 11  f(s2)  Ryd( 4f)     0.00008       3.44768
 340    C 11  f(c3)  Ryd( 4f)     0.00008       3.34431
 341    C 11  f(s3)  Ryd( 4f)     0.00026       3.50965

 342    H 12  s      Val( 1s)     0.84559       0.07190
 343    H 12  s      Ryd( 2s)     0.00263       0.55493
 344    H 12  s      Ryd( 3s)     0.00013       2.28571
 345    H 12  px     Ryd( 2p)     0.00010       2.27339
 346    H 12  px     Ryd( 3p)     0.00013       3.61519
 347    H 12  py     Ryd( 2p)     0.00018       2.79321
 348    H 12  py     Ryd( 3p)     0.00008       4.33440
 349    H 12  pz     Ryd( 2p)     0.00025       2.00107
 350    H 12  pz     Ryd( 3p)     0.00001       3.22458
 351    H 12  dxy    Ryd( 3d)     0.00003       4.46538
 352    H 12  dxz    Ryd( 3d)     0.00000       3.52530
 353    H 12  dyz    Ryd( 3d)     0.00002       4.17115
 354    H 12  dx2y2  Ryd( 3d)     0.00006       4.41687
 355    H 12  dz2    Ryd( 3d)     0.00001       3.97640

 356    H 13  s      Val( 1s)     0.87114       0.04562
 357    H 13  s      Ryd( 2s)     0.00386       0.51586
 358    H 13  s      Ryd( 3s)     0.00011       2.33902
 359    H 13  px     Ryd( 2p)     0.00009       2.60453
 360    H 13  px     Ryd( 3p)     0.00007       3.18205
 361    H 13  py     Ryd( 2p)     0.00024       2.84729
 362    H 13  py     Ryd( 3p)     0.00004       4.12260
 363    H 13  pz     Ryd( 2p)     0.00016       2.42186
 364    H 13  pz     Ryd( 3p)     0.00002       2.78469
 365    H 13  dxy    Ryd( 3d)     0.00003       4.42250
 366    H 13  dxz    Ryd( 3d)     0.00001       3.50381
 367    H 13  dyz    Ryd( 3d)     0.00001       4.17094
 368    H 13  dx2y2  Ryd( 3d)     0.00006       4.37684
 369    H 13  dz2    Ryd( 3d)     0.00001       3.94861

 370    H 14  s      Val( 1s)     0.81088       0.04903
 371    H 14  s      Ryd( 2s)     0.00152       0.83340
 372    H 14  s      Ryd( 3s)     0.00002       2.18627
 373    H 14  px     Ryd( 3p)     0.00013       4.03239
 374    H 14  px     Ryd( 2p)     0.00004       1.92062
 375    H 14  py     Ryd( 3p)     0.00008       4.03601
 376    H 14  py     Ryd( 2p)     0.00007       1.68166
 377    H 14  pz     Ryd( 3p)     0.00030       3.94115
 378    H 14  pz     Ryd( 2p)     0.00001       2.57448
 379    H 14  dxy    Ryd( 3d)     0.00002       3.78146
 380    H 14  dxz    Ryd( 3d)     0.00009       4.30817
 381    H 14  dyz    Ryd( 3d)     0.00003       4.11808
 382    H 14  dx2y2  Ryd( 3d)     0.00002       3.81884
 383    H 14  dz2    Ryd( 3d)     0.00007       4.38289

 384    H 15  s      Val( 1s)     0.79513       0.07781
 385    H 15  s      Ryd( 2s)     0.00114       0.80732
 386    H 15  s      Ryd( 3s)     0.00003       2.03168
 387    H 15  px     Ryd( 3p)     0.00013       3.71791
 388    H 15  px     Ryd( 2p)     0.00007       2.06912
 389    H 15  py     Ryd( 3p)     0.00012       3.62593
 390    H 15  py     Ryd( 2p)     0.00008       1.97935
 391    H 15  pz     Ryd( 3p)     0.00026       4.09261
 392    H 15  pz     Ryd( 2p)     0.00002       2.39594
 393    H 15  dxy    Ryd( 3d)     0.00001       3.82892
 394    H 15  dxz    Ryd( 3d)     0.00005       4.38951
 395    H 15  dyz    Ryd( 3d)     0.00003       4.19990
 396    H 15  dx2y2  Ryd( 3d)     0.00001       3.83463
 397    H 15  dz2    Ryd( 3d)     0.00005       4.48446

 398    H 16  s      Val( 1s)     0.78185       0.08993
 399    H 16  s      Ryd( 2s)     0.00062       0.78983
 400    H 16  s      Ryd( 3s)     0.00004       2.04073
 401    H 16  px     Ryd( 3p)     0.00016       3.77530
 402    H 16  px     Ryd( 2p)     0.00006       2.20105
 403    H 16  py     Ryd( 3p)     0.00015       3.62957
 404    H 16  py     Ryd( 2p)     0.00008       2.10503
 405    H 16  pz     Ryd( 3p)     0.00023       3.87047
 406    H 16  pz     Ryd( 2p)     0.00001       2.33680
 407    H 16  dxy    Ryd( 3d)     0.00003       4.00092
 408    H 16  dxz    Ryd( 3d)     0.00006       4.32056
 409    H 16  dyz    Ryd( 3d)     0.00003       4.09330
 410    H 16  dx2y2  Ryd( 3d)     0.00002       4.00374
 411    H 16  dz2    Ryd( 3d)     0.00003       4.30014

 412    H 17  s      Val( 1s)     0.80432       0.07119
 413    H 17  s      Ryd( 2s)     0.00041       0.82986
 414    H 17  s      Ryd( 3s)     0.00003       1.95439
 415    H 17  px     Ryd( 3p)     0.00027       4.24423
 416    H 17  px     Ryd( 2p)     0.00003       2.31781
 417    H 17  py     Ryd( 3p)     0.00013       3.98383
 418    H 17  py     Ryd( 2p)     0.00009       1.89035
 419    H 17  pz     Ryd( 3p)     0.00007       3.78754
 420    H 17  pz     Ryd( 2p)     0.00001       1.66453
 421    H 17  dxy    Ryd( 3d)     0.00006       4.38225
 422    H 17  dxz    Ryd( 3d)     0.00002       4.22227
 423    H 17  dyz    Ryd( 3d)     0.00001       3.75811
 424    H 17  dx2y2  Ryd( 3d)     0.00004       4.42046
 425    H 17  dz2    Ryd( 3d)     0.00002       3.86698

 426    H 18  s      Val( 1s)     0.79853       0.06557
 427    H 18  s      Ryd( 2s)     0.00060       0.75747
 428    H 18  s      Ryd( 3s)     0.00002       1.99546
 429    H 18  px     Ryd( 3p)     0.00029       4.28456
 430    H 18  px     Ryd( 2p)     0.00004       2.34503
 431    H 18  py     Ryd( 3p)     0.00011       3.86314
 432    H 18  py     Ryd( 2p)     0.00004       1.78157
 433    H 18  pz     Ryd( 3p)     0.00007       3.76923
 434    H 18  pz     Ryd( 2p)     0.00004       1.66322
 435    H 18  dxy    Ryd( 3d)     0.00006       4.35191
 436    H 18  dxz    Ryd( 3d)     0.00002       4.26495
 437    H 18  dyz    Ryd( 3d)     0.00001       3.65280
 438    H 18  dx2y2  Ryd( 3d)     0.00004       4.40159
 439    H 18  dz2    Ryd( 3d)     0.00003       3.88751

 440    H 19  s      Val( 1s)     0.79617       0.06862
 441    H 19  s      Ryd( 2s)     0.00043       0.81806
 442    H 19  s      Ryd( 3s)     0.00003       1.95536
 443    H 19  px     Ryd( 3p)     0.00008       3.88519
 444    H 19  px     Ryd( 2p)     0.00003       1.61037
 445    H 19  py     Ryd( 3p)     0.00033       4.38425
 446    H 19  py     Ryd( 2p)     0.00001       2.36527
 447    H 19  pz     Ryd( 3p)     0.00006       3.86951
 448    H 19  pz     Ryd( 2p)     0.00004       1.57477
 449    H 19  dxy    Ryd( 3d)     0.00003       4.36654
 450    H 19  dxz    Ryd( 3d)     0.00000       3.60545
 451    H 19  dyz    Ryd( 3d)     0.00003       4.31533
 452    H 19  dx2y2  Ryd( 3d)     0.00007       4.38716
 453    H 19  dz2    Ryd( 3d)     0.00003       3.89489

 454    H 20  s      Val( 1s)     0.79946       0.06692
 455    H 20  s      Ryd( 2s)     0.00110       0.79445
 456    H 20  s      Ryd( 3s)     0.00002       2.00194
 457    H 20  px     Ryd( 3p)     0.00013       3.79523
 458    H 20  px     Ryd( 2p)     0.00007       1.85920
 459    H 20  py     Ryd( 3p)     0.00010       3.69483
 460    H 20  py     Ryd( 2p)     0.00003       1.80184
 461    H 20  pz     Ryd( 3p)     0.00026       4.22361
 462    H 20  pz     Ryd( 2p)     0.00004       2.31999
 463    H 20  dxy    Ryd( 3d)     0.00001       3.72129
 464    H 20  dxz    Ryd( 3d)     0.00005       4.37807
 465    H 20  dyz    Ryd( 3d)     0.00003       4.23297
 466    H 20  dx2y2  Ryd( 3d)     0.00001       3.77737
 467    H 20  dz2    Ryd( 3d)     0.00005       4.51494

 468    H 21  s      Val( 1s)     0.82003       0.05366
 469    H 21  s      Ryd( 2s)     0.00185       0.68289
 470    H 21  s      Ryd( 3s)     0.00007       2.19777
 471    H 21  px     Ryd( 3p)     0.00006       3.59329
 472    H 21  px     Ryd( 2p)     0.00022       1.97463
 473    H 21  py     Ryd( 3p)     0.00023       3.59448
 474    H 21  py     Ryd( 2p)     0.00004       2.69817
 475    H 21  pz     Ryd( 3p)     0.00016       3.60251
 476    H 21  pz     Ryd( 2p)     0.00009       2.45591
 477    H 21  dxy    Ryd( 3d)     0.00003       4.05622
 478    H 21  dxz    Ryd( 3d)     0.00002       3.84124
 479    H 21  dyz    Ryd( 3d)     0.00008       4.37060
 480    H 21  dx2y2  Ryd( 3d)     0.00004       4.00870
 481    H 21  dz2    Ryd( 3d)     0.00003       4.12944

 482    H 22  s      Val( 1s)     0.82950       0.04428
 483    H 22  s      Ryd( 2s)     0.00094       0.73980
 484    H 22  s      Ryd( 3s)     0.00003       2.09342
 485    H 22  px     Ryd( 3p)     0.00019       4.22033
 486    H 22  px     Ryd( 2p)     0.00004       1.86909
 487    H 22  py     Ryd( 3p)     0.00016       4.20970
 488    H 22  py     Ryd( 2p)     0.00003       1.84610
 489    H 22  pz     Ryd( 3p)     0.00008       4.13128
 490    H 22  pz     Ryd( 2p)     0.00009       1.51904
 491    H 22  dxy    Ryd( 3d)     0.00008       4.25361
 492    H 22  dxz    Ryd( 3d)     0.00003       3.93042
 493    H 22  dyz    Ryd( 3d)     0.00003       4.00482
 494    H 22  dx2y2  Ryd( 3d)     0.00002       4.19934
 495    H 22  dz2    Ryd( 3d)     0.00003       3.95190

 496    H 23  s      Val( 1s)     0.79533       0.06155
 497    H 23  s      Ryd( 2s)     0.00036       0.73688
 498    H 23  s      Ryd( 3s)     0.00002       2.01825
 499    H 23  px     Ryd( 3p)     0.00032       4.23040
 500    H 23  px     Ryd( 2p)     0.00001       2.24059
 501    H 23  py     Ryd( 3p)     0.00010       3.89986
 502    H 23  py     Ryd( 2p)     0.00001       1.72605
 503    H 23  pz     Ryd( 3p)     0.00006       3.82205
 504    H 23  pz     Ryd( 2p)     0.00002       1.57580
 505    H 23  dxy    Ryd( 3d)     0.00006       4.36361
 506    H 23  dxz    Ryd( 3d)     0.00002       4.18867
 507    H 23  dyz    Ryd( 3d)     0.00001       3.74552
 508    H 23  dx2y2  Ryd( 3d)     0.00005       4.33102
 509    H 23  dz2    Ryd( 3d)     0.00003       3.84830

 510    H 24  s      Val( 1s)     0.77961       0.08205
 511    H 24  s      Ryd( 2s)     0.00096       0.91507
 512    H 24  s      Ryd( 3s)     0.00003       1.93228
 513    H 24  px     Ryd( 3p)     0.00016       3.78107
 514    H 24  px     Ryd( 2p)     0.00004       2.14167
 515    H 24  py     Ryd( 3p)     0.00021       3.81836
 516    H 24  py     Ryd( 2p)     0.00002       2.20627
 517    H 24  pz     Ryd( 3p)     0.00015       3.59259
 518    H 24  pz     Ryd( 2p)     0.00007       2.05762
 519    H 24  dxy    Ryd( 3d)     0.00006       4.30732
 520    H 24  dxz    Ryd( 3d)     0.00003       3.95070
 521    H 24  dyz    Ryd( 3d)     0.00002       4.09219
 522    H 24  dx2y2  Ryd( 3d)     0.00003       4.29073
 523    H 24  dz2    Ryd( 3d)     0.00002       3.97050

 524    H 25  s      Val( 1s)     0.79933       0.06450
 525    H 25  s      Ryd( 2s)     0.00075       0.75433
 526    H 25  s      Ryd( 3s)     0.00002       1.99882
 527    H 25  px     Ryd( 3p)     0.00007       3.78809
 528    H 25  px     Ryd( 2p)     0.00001       1.67732
 529    H 25  py     Ryd( 3p)     0.00023       4.05039
 530    H 25  py     Ryd( 2p)     0.00001       2.01865
 531    H 25  pz     Ryd( 3p)     0.00018       4.03330
 532    H 25  pz     Ryd( 2p)     0.00003       1.92832
 533    H 25  dxy    Ryd( 3d)     0.00002       4.06058
 534    H 25  dxz    Ryd( 3d)     0.00001       3.87820
 535    H 25  dyz    Ryd( 3d)     0.00007       4.37142
 536    H 25  dx2y2  Ryd( 3d)     0.00003       4.00130
 537    H 25  dz2    Ryd( 3d)     0.00002       4.18611


 Summary of Natural Population Analysis:

                                     Natural Population
             Natural    ---------------------------------------------
  Atom No    Charge        Core      Valence    Rydberg      Total
 --------------------------------------------------------------------
    O  1   -0.76416      2.00000     6.73938    0.02479     8.76416
    C  2    0.67315      1.99999     3.28592    0.04094     5.32685
    C  3   -0.38042      1.99999     4.34677    0.03365     6.38042
    N  4   -0.42862      1.99999     5.39376    0.03487     7.42862
    C  5   -0.02540      1.99999     3.99576    0.02965     6.02540
    C  6   -0.25956      1.99999     4.24665    0.01292     6.25956
    C  7   -0.59781      1.99999     4.58582    0.01201     6.59781
    C  8   -0.59703      1.99999     4.58676    0.01028     6.59703
    O  9   -0.55927      2.00000     6.53850    0.02078     8.55927
    C 10   -0.07001      1.99999     4.05021    0.01981     6.07001
    C 11   -0.63505      1.99999     4.62430    0.01076     6.63505
    H 12    0.15076      0.00000     0.84559    0.00365     0.84924
    H 13    0.12414      0.00000     0.87114    0.00472     0.87586
    H 14    0.18672      0.00000     0.81088    0.00240     0.81328
    H 15    0.20287      0.00000     0.79513    0.00200     0.79713
    H 16    0.21663      0.00000     0.78185    0.00152     0.78337
    H 17    0.19447      0.00000     0.80432    0.00120     0.80553
    H 18    0.20010      0.00000     0.79853    0.00137     0.79990
    H 19    0.20267      0.00000     0.79617    0.00117     0.79733
    H 20    0.19864      0.00000     0.79946    0.00191     0.80136
    H 21    0.17705      0.00000     0.82003    0.00292     0.82295
    H 22    0.16874      0.00000     0.82950    0.00176     0.83126
    H 23    0.20361      0.00000     0.79533    0.00106     0.79639
    H 24    0.21860      0.00000     0.77961    0.00180     0.78140
    H 25    0.19921      0.00000     0.79933    0.00146     0.80079
 ====================================================================
 * Total * -1.00000     21.99991    63.72070    0.27939    86.00000

                                 Natural Population
 ---------------------------------------------------------
   Core                      21.99991 ( 99.9996% of   22)
   Valence                   63.72070 ( 99.5636% of   64)
   Natural Minimal Basis     85.72061 ( 99.6751% of   86)
   Natural Rydberg Basis      0.27939 (  0.3249% of   86)
 ---------------------------------------------------------

    Atom No         Natural Electron Configuration
 ----------------------------------------------------------------------------
      O  1      [core]2s( 1.70)2p( 5.04)3p( 0.01)3d( 0.02)
      C  2      [core]2s( 0.82)2p( 2.46)3p( 0.03)4d( 0.01)
      C  3      [core]2s( 0.95)2p( 3.40)3p( 0.02)
      N  4      [core]2s( 1.33)2p( 4.07)3p( 0.01)3d( 0.02)
      C  5      [core]2s( 0.94)2p( 3.06)3s( 0.01)3p( 0.01)
      C  6      [core]2s( 1.01)2p( 3.24)3p( 0.01)
      C  7      [core]2s( 1.11)2p( 3.48)3d( 0.01)
      C  8      [core]2s( 1.12)2p( 3.47)3d( 0.01)
      O  9      [core]2s( 1.62)2p( 4.92)3p( 0.01)3d( 0.01)
      C 10      [core]2s( 1.02)2p( 3.03)3p( 0.01)3d( 0.01)
      C 11      [core]2s( 1.13)2p( 3.50)3d( 0.01)
      H 12            1s( 0.85)
      H 13            1s( 0.87)
      H 14            1s( 0.81)
      H 15            1s( 0.80)
      H 16            1s( 0.78)
      H 17            1s( 0.80)
      H 18            1s( 0.80)
      H 19            1s( 0.80)
      H 20            1s( 0.80)
      H 21            1s( 0.82)
      H 22            1s( 0.83)
      H 23            1s( 0.80)
      H 24            1s( 0.78)
      H 25            1s( 0.80)


 NATURAL BOND ORBITAL ANALYSIS:

                            Occupancies       Lewis Structure    Low   High
         Max    Occ     -------------------  -----------------   occ   occ
  Cycle  Ctr   Thresh    Lewis   non-Lewis     CR  BD  nC  LP    (L)   (NL)
 ============================================================================
    1     2     1.90    83.48592   2.51408     11  26   0   6     4      5
    2     2     1.88    83.60142   2.39858     11  26   0   6     3      5
    3     2     1.86    83.60514   2.39486     11  26   0   6     2      5
    4     2     1.85    84.54546   1.45454     11  26   0   6     1      3
    5     2     1.77    84.54546   1.45454     11  26   0   6     1      3
    6     2     1.75    84.54546   1.45454     11  26   0   6     1      3
    7     2     1.63    84.59234   1.40766     11  26   0   6     0      3
 ----------------------------------------------------------------------------

 Structure accepted: No low occupancy Lewis orbitals

 -------------------------------------------------------
   Core                     21.99991 (100.000% of  22)
   Valence Lewis            62.59242 ( 97.801% of  64)
  ==================      =============================
   Total Lewis              84.59234 ( 98.363% of  86)
  -----------------------------------------------------
   Valence non-Lewis         1.26139 (  1.467% of  86)
   Rydberg non-Lewis         0.14627 (  0.170% of  86)
  ==================      =============================
   Total non-Lewis           1.40766 (  1.637% of  86)
 -------------------------------------------------------


     (Occupancy)   Bond orbital / Coefficients / Hybrids
 ------------------ Lewis ------------------------------------------------------
   1. (2.00000) CR ( 1) O  1            s(100.00%)
                                         1.0000  0.0000  0.0000  0.0000  0.0000
                                         0.0000  0.0000  0.0000  0.0000  0.0000
                                         0.0000  0.0000  0.0000  0.0000  0.0000
                                         0.0000  0.0000  0.0000  0.0000  0.0000
                                         0.0000  0.0000  0.0000  0.0000  0.0000
                                         0.0000  0.0000  0.0000  0.0000  0.0000
                                         0.0000
   2. (1.99999) CR ( 1) C  2            s(100.00%)
                                         1.0000  0.0000  0.0000  0.0000  0.0000
                                         0.0000  0.0000  0.0000  0.0000  0.0000
                                         0.0000  0.0000  0.0000  0.0000  0.0000
                                         0.0000  0.0000  0.0000  0.0000  0.0000
                                         0.0000  0.0000  0.0000  0.0000  0.0000
                                         0.0000  0.0000  0.0000  0.0000  0.0000
                                         0.0000
   3. (1.99999) CR ( 1) C  3            s(100.00%)
                                         1.0000  0.0000  0.0000  0.0000  0.0000
                                         0.0000  0.0000  0.0000  0.0000  0.0000
                                         0.0000  0.0000  0.0000  0.0000  0.0000
                                         0.0000  0.0000  0.0000  0.0000  0.0000
                                         0.0000  0.0000  0.0000  0.0000  0.0000
                                         0.0000  0.0000  0.0000  0.0000  0.0000
                                         0.0000
   4. (1.99999) CR ( 1) N  4            s(100.00%)
                                         1.0000  0.0000  0.0000  0.0000  0.0000
                                         0.0000  0.0000  0.0000  0.0000  0.0000
                                         0.0000  0.0000  0.0000  0.0000  0.0000
                                         0.0000  0.0000  0.0000  0.0000  0.0000
                                         0.0000  0.0000  0.0000  0.0000  0.0000
                                         0.0000  0.0000  0.0000  0.0000  0.0000
                                         0.0000
   5. (1.99999) CR ( 1) C  5            s(100.00%)
                                         1.0000  0.0000  0.0000  0.0000  0.0000
                                         0.0000  0.0000  0.0000  0.0000  0.0000
                                         0.0000  0.0000  0.0000  0.0000  0.0000
                                         0.0000  0.0000  0.0000  0.0000  0.0000
                                         0.0000  0.0000  0.0000  0.0000  0.0000
                                         0.0000  0.0000  0.0000  0.0000  0.0000
                                         0.0000
   6. (1.99999) CR ( 1) C  6            s(100.00%)
                                         1.0000  0.0000  0.0000  0.0000  0.0000
                                         0.0000  0.0000  0.0000  0.0000  0.0000
                                         0.0000  0.0000  0.0000  0.0000  0.0000
                                         0.0000  0.0000  0.0000  0.0000  0.0000
                                         0.0000  0.0000  0.0000  0.0000  0.0000
                                         0.0000  0.0000  0.0000  0.0000  0.0000
                                         0.0000
   7. (1.99999) CR ( 1) C  7            s(100.00%)
                                         1.0000  0.0000  0.0000  0.0000  0.0000
                                         0.0000  0.0000  0.0000  0.0000  0.0000
                                         0.0000  0.0000  0.0000  0.0000  0.0000
                                         0.0000  0.0000  0.0000  0.0000  0.0000
                                         0.0000  0.0000  0.0000  0.0000  0.0000
                                         0.0000  0.0000  0.0000  0.0000  0.0000
                                         0.0000
   8. (1.99999) CR ( 1) C  8            s(100.00%)
                                         1.0000  0.0000  0.0000  0.0000  0.0000
                                         0.0000  0.0000  0.0000  0.0000  0.0000
                                         0.0000  0.0000  0.0000  0.0000  0.0000
                                         0.0000  0.0000  0.0000  0.0000  0.0000
                                         0.0000  0.0000  0.0000  0.0000  0.0000
                                         0.0000  0.0000  0.0000  0.0000  0.0000
                                         0.0000
   9. (2.00000) CR ( 1) O  9            s(100.00%)
                                         1.0000  0.0000  0.0000  0.0000  0.0000
                                         0.0000  0.0000  0.0000  0.0000  0.0000
                                         0.0000  0.0000  0.0000  0.0000  0.0000
                                         0.0000  0.0000  0.0000  0.0000  0.0000
                                         0.0000  0.0000  0.0000  0.0000  0.0000
                                         0.0000  0.0000  0.0000  0.0000  0.0000
                                         0.0000
  10. (1.99999) CR ( 1) C 10            s(100.00%)
                                         1.0000  0.0000  0.0000  0.0000  0.0000
                                         0.0000  0.0000  0.0000  0.0000  0.0000
                                         0.0000  0.0000  0.0000  0.0000  0.0000
                                         0.0000  0.0000  0.0000  0.0000  0.0000
                                         0.0000  0.0000  0.0000  0.0000  0.0000
                                         0.0000  0.0000  0.0000  0.0000  0.0000
                                         0.0000
  11. (1.99999) CR ( 1) C 11            s(100.00%)
                                         1.0000  0.0000  0.0000  0.0000  0.0000
                                         0.0000  0.0000  0.0000  0.0000  0.0000
                                         0.0000  0.0000  0.0000  0.0000  0.0000
                                         0.0000  0.0000  0.0000  0.0000  0.0000
                                         0.0000  0.0000  0.0000  0.0000  0.0000
                                         0.0000  0.0000  0.0000  0.0000  0.0000
                                         0.0000
  12. (1.97687) LP ( 1) O  1            s( 59.65%)p 0.68( 40.27%)d 0.00(  0.08%)
                                                  f 0.00(  0.00%)
                                         0.0000  0.7723 -0.0012  0.0002 -0.0002
                                        -0.0933 -0.0002  0.0000  0.6277 -0.0025
                                        -0.0046  0.0003 -0.0001  0.0001  0.0063
                                         0.0001  0.0000  0.0000  0.0000  0.0000
                                         0.0227  0.0003  0.0150  0.0000  0.0000
                                         0.0003 -0.0017  0.0000  0.0000  0.0011
                                        -0.0026
  13. (1.85209) LP ( 2) O  1            s(  0.01%)p99.99( 99.78%)d17.31(  0.20%)
                                                  f 0.89(  0.01%)
                                         0.0000  0.0099 -0.0040  0.0008  0.0001
                                        -0.9861 -0.0086  0.0007 -0.1588 -0.0033
                                         0.0005  0.0096  0.0002  0.0000  0.0431
                                        -0.0004  0.0002  0.0000 -0.0006  0.0000
                                        -0.0114 -0.0002 -0.0012  0.0002 -0.0001
                                         0.0016  0.0003 -0.0001  0.0000  0.0090
                                         0.0043
  14. (1.63588) LP ( 3) O  1            s(  0.00%)p 1.00( 99.69%)d 0.00(  0.30%)
                                                  f 0.00(  0.01%)
                                         0.0000  0.0006  0.0003 -0.0005  0.0000
                                        -0.0095  0.0001  0.0002 -0.0017  0.0001
                                         0.0000 -0.9984 -0.0070  0.0004  0.0000
                                         0.0001 -0.0033 -0.0006  0.0544 -0.0002
                                        -0.0004  0.0001  0.0002 -0.0001  0.0058
                                        -0.0001  0.0000  0.0087  0.0025  0.0000
                                         0.0000
  15. (1.88246) LP ( 1) N  4            s( 24.58%)p 3.06( 75.23%)d 0.01(  0.19%)
                                                  f 0.00(  0.00%)
                                         0.0000  0.4949 -0.0294 -0.0019  0.0000
                                        -0.0038  0.0020 -0.0005  0.8668  0.0283
                                         0.0050  0.0092  0.0005  0.0000  0.0034
                                        -0.0002 -0.0002  0.0000 -0.0008  0.0001
                                         0.0354 -0.0028  0.0241 -0.0009 -0.0001
                                         0.0000 -0.0045  0.0000  0.0001  0.0015
                                         0.0051
  16. (1.96364) LP ( 1) O  9            s( 41.05%)p 1.43( 58.87%)d 0.00(  0.08%)
                                                  f 0.00(  0.00%)
                                         0.0000  0.6407 -0.0007 -0.0031  0.0001
                                         0.0730 -0.0021 -0.0002 -0.7637 -0.0076
                                         0.0051  0.0097  0.0007 -0.0001  0.0043
                                         0.0002 -0.0004  0.0001 -0.0006  0.0001
                                         0.0251 -0.0015  0.0125  0.0001 -0.0001
                                        -0.0003  0.0026  0.0001  0.0000  0.0000
                                        -0.0010
  17. (1.86515) LP ( 2) O  9            s(  0.00%)p 1.00( 99.87%)d 0.00(  0.12%)
                                                  f 0.00(  0.01%)
                                         0.0000  0.0025  0.0026  0.0002  0.0001
                                         0.0088  0.0017  0.0007 -0.0097  0.0010
                                        -0.0004 -0.9992 -0.0101  0.0046  0.0009
                                        -0.0002  0.0006  0.0001 -0.0350  0.0015
                                         0.0002  0.0000  0.0004  0.0001  0.0073
                                        -0.0002  0.0000 -0.0037 -0.0006  0.0000
                                         0.0000
  18. (1.99642) BD ( 1) O  1- C  2
               ( 64.45%)   0.8028* O  1 s( 40.24%)p 1.47( 59.17%)d 0.01(  0.58%)
                                                  f 0.00(  0.01%)
                                         0.0000  0.6343  0.0028 -0.0007  0.0003
                                         0.1283 -0.0038  0.0012 -0.7579  0.0254
                                        -0.0074  0.0005  0.0001  0.0000 -0.0191
                                        -0.0001  0.0001  0.0000 -0.0001  0.0000
                                        -0.0634 -0.0005 -0.0381  0.0002  0.0000
                                        -0.0009  0.0063  0.0000  0.0000 -0.0039
                                         0.0080
               ( 35.55%)   0.5962* C  2 s( 34.58%)p 1.89( 65.32%)d 0.00(  0.07%)
                                                  f 0.00(  0.03%)
                                         0.0000  0.5868 -0.0371  0.0063 -0.0006
                                        -0.1068 -0.0026  0.0016  0.7990 -0.0589
                                        -0.0028  0.0013  0.0007  0.0002 -0.0056
                                        -0.0050  0.0000  0.0000  0.0000 -0.0002
                                        -0.0132 -0.0188 -0.0082 -0.0094  0.0000
                                         0.0026 -0.0099  0.0000  0.0000  0.0058
                                        -0.0113
  19. (1.98278) BD ( 1) C  2- C  3
               ( 50.21%)   0.7086* C  2 s( 40.96%)p 1.44( 58.92%)d 0.00(  0.08%)
                                                  f 0.00(  0.04%)
                                         0.0000  0.6394  0.0273 -0.0064 -0.0001
                                         0.6675  0.0025  0.0025 -0.3789  0.0058
                                        -0.0060  0.0064 -0.0018  0.0014 -0.0246
                                         0.0031  0.0004 -0.0003 -0.0002  0.0001
                                         0.0089  0.0001 -0.0048 -0.0082 -0.0002
                                        -0.0114  0.0083  0.0001 -0.0002 -0.0017
                                        -0.0140
               ( 49.79%)   0.7056* C  3 s( 34.61%)p 1.88( 65.22%)d 0.00(  0.14%)
                                                  f 0.00(  0.04%)
                                         0.0000  0.5881 -0.0102 -0.0091 -0.0002
                                        -0.6765  0.0229  0.0030  0.4404 -0.0063
                                         0.0003 -0.0037  0.0006  0.0000 -0.0314
                                         0.0041  0.0001  0.0003 -0.0001 -0.0001
                                         0.0087 -0.0003 -0.0179 -0.0008  0.0002
                                         0.0115 -0.0077 -0.0003  0.0002 -0.0035
                                         0.0124
  20. (1.77361) BD ( 2) C  2- C  3
               ( 30.26%)   0.5500* C  2 s(  0.00%)p 1.00( 99.83%)d 0.00(  0.15%)
                                                  f 0.00(  0.03%)
                                         0.0000  0.0006  0.0000  0.0007  0.0003
                                         0.0103  0.0031 -0.0025  0.0026 -0.0008
                                         0.0008 -0.9973 -0.0554  0.0197 -0.0003
                                         0.0003 -0.0301  0.0099  0.0209 -0.0070
                                         0.0007 -0.0004 -0.0010  0.0008  0.0150
                                        -0.0002  0.0000  0.0045  0.0030 -0.0001
                                        -0.0001
               ( 69.74%)   0.8351* C  3 s(  0.00%)p 1.00( 99.92%)d 0.00(  0.04%)
                                                  f 0.00(  0.04%)
                                         0.0000  0.0006 -0.0001  0.0003 -0.0005
                                         0.0111  0.0021 -0.0004  0.0078  0.0000
                                        -0.0002 -0.9979 -0.0551  0.0103  0.0005
                                        -0.0002  0.0123 -0.0051 -0.0132  0.0001
                                        -0.0003  0.0001  0.0003 -0.0002  0.0204
                                        -0.0007 -0.0003 -0.0027 -0.0005  0.0001
                                         0.0000
  21. (1.98835) BD ( 1) C  2- O  9
               ( 31.56%)   0.5618* C  2 s( 24.57%)p 3.07( 75.35%)d 0.00(  0.07%)
                                                  f 0.00(  0.01%)
                                         0.0000  0.4956 -0.0015  0.0068  0.0005
                                        -0.7354  0.0057 -0.0054 -0.4602  0.0271
                                        -0.0075 -0.0086  0.0026 -0.0007  0.0210
                                         0.0109 -0.0006  0.0013  0.0002  0.0001
                                         0.0063  0.0027 -0.0116 -0.0017  0.0000
                                         0.0064  0.0023  0.0002 -0.0002  0.0014
                                        -0.0016
               ( 68.44%)   0.8273* O  9 s( 28.64%)p 2.48( 71.09%)d 0.01(  0.25%)
                                                  f 0.00(  0.01%)
                                         0.0000  0.5352 -0.0020  0.0017 -0.0002
                                         0.6692 -0.0174  0.0031  0.5126 -0.0026
                                         0.0064  0.0022 -0.0001  0.0003  0.0411
                                         0.0017  0.0006  0.0001  0.0012 -0.0002
                                        -0.0076  0.0000 -0.0278  0.0010 -0.0001
                                        -0.0053 -0.0042 -0.0001  0.0000  0.0010
                                         0.0059
  22. (1.98292) BD ( 1) C  3- N  4
               ( 40.32%)   0.6350* C  3 s( 34.08%)p 1.93( 65.84%)d 0.00(  0.05%)
                                                  f 0.00(  0.03%)
                                         0.0000  0.5820  0.0461  0.0014 -0.0002
                                         0.7302 -0.0547 -0.0069  0.3479 -0.0310
                                        -0.0049  0.0111 -0.0010 -0.0001  0.0087
                                         0.0124  0.0004  0.0002  0.0002  0.0002
                                         0.0045  0.0074 -0.0147 -0.0043 -0.0004
                                        -0.0111 -0.0049  0.0003  0.0003  0.0056
                                         0.0107
               ( 59.68%)   0.7725* N  4 s( 35.48%)p 1.81( 64.11%)d 0.01(  0.38%)
                                                  f 0.00(  0.03%)
                                         0.0000  0.5951  0.0255  0.0025 -0.0002
                                        -0.7239  0.0179  0.0039 -0.3414 -0.0061
                                         0.0067 -0.0091 -0.0004  0.0001  0.0477
                                         0.0019  0.0013  0.0000  0.0008  0.0000
                                         0.0126  0.0011 -0.0363  0.0024  0.0003
                                         0.0100  0.0051 -0.0003 -0.0002 -0.0101
                                        -0.0109
  23. (1.98438) BD ( 1) C  3- H 12
               ( 58.45%)   0.7645* C  3 s( 31.39%)p 2.18( 68.49%)d 0.00(  0.08%)
                                                  f 0.00(  0.04%)
                                         0.0000  0.5599 -0.0213  0.0071  0.0002
                                        -0.0503  0.0094 -0.0034 -0.8255  0.0205
                                        -0.0194 -0.0066  0.0001 -0.0002  0.0052
                                        -0.0007  0.0002 -0.0001  0.0005  0.0000
                                        -0.0208 -0.0037 -0.0178  0.0014  0.0004
                                         0.0019  0.0162  0.0003 -0.0002  0.0024
                                         0.0097
               ( 41.55%)   0.6446* H 12 s( 99.96%)p 0.00(  0.03%)d 0.00(  0.01%)
                                         0.9998 -0.0081  0.0007  0.0025  0.0005
                                         0.0141  0.0093  0.0001  0.0001  0.0009
                                         0.0000  0.0001 -0.0069 -0.0033
  24. (1.99101) BD ( 1) N  4- C  5
               ( 59.72%)   0.7728* N  4 s( 39.82%)p 1.50( 59.70%)d 0.01(  0.45%)
                                                  f 0.00(  0.03%)
                                         0.0000  0.6309  0.0150 -0.0002  0.0002
                                         0.6854 -0.0163 -0.0023 -0.3561  0.0046
                                         0.0050  0.0096  0.0003 -0.0001 -0.0523
                                        -0.0017  0.0003  0.0000 -0.0002 -0.0001
                                         0.0149  0.0006 -0.0390  0.0024 -0.0002
                                        -0.0098  0.0054  0.0002 -0.0002  0.0069
                                        -0.0128
               ( 40.28%)   0.6347* C  5 s( 36.32%)p 1.75( 63.58%)d 0.00(  0.06%)
                                                  f 0.00(  0.03%)
                                         0.0000  0.6005  0.0516 -0.0038 -0.0006
                                        -0.6980  0.0490  0.0094  0.3811 -0.0299
                                        -0.0037  0.0051  0.0001 -0.0005 -0.0131
                                        -0.0140  0.0001 -0.0003  0.0002 -0.0002
                                         0.0080  0.0045 -0.0126 -0.0047  0.0000
                                         0.0114 -0.0051 -0.0001  0.0000 -0.0026
                                         0.0131
  25. (1.95211) BD ( 2) N  4- C  5
               ( 52.47%)   0.7244* N  4 s(  0.00%)p 1.00( 99.68%)d 0.00(  0.29%)
                                                  f 0.00(  0.03%)
                                         0.0000  0.0052  0.0019  0.0007  0.0001
                                         0.0132 -0.0012  0.0000  0.0078  0.0005
                                        -0.0001 -0.9982  0.0110 -0.0031  0.0000
                                        -0.0002 -0.0181 -0.0066  0.0501  0.0007
                                         0.0014 -0.0001  0.0002 -0.0001  0.0132
                                        -0.0004 -0.0002 -0.0105  0.0032  0.0003
                                         0.0001
               ( 47.53%)   0.6894* C  5 s(  0.01%)p99.99( 99.89%)d 5.87(  0.07%)
                                                  f 2.22(  0.03%)
                                         0.0000 -0.0040  0.0096  0.0030 -0.0005
                                        -0.0039 -0.0018 -0.0016  0.0115 -0.0021
                                         0.0002 -0.9989 -0.0284  0.0134 -0.0016
                                         0.0017  0.0221 -0.0026 -0.0135  0.0019
                                        -0.0007  0.0006 -0.0002  0.0006  0.0160
                                        -0.0004 -0.0002 -0.0013  0.0012  0.0000
                                        -0.0004
  26. (1.97920) BD ( 1) C  5- C  6
               ( 47.93%)   0.6923* C  5 s( 33.99%)p 1.94( 65.88%)d 0.00(  0.08%)
                                                  f 0.00(  0.04%)
                                         0.0000  0.5829 -0.0076 -0.0055  0.0003
                                         0.7126 -0.0073  0.0048  0.3885  0.0038
                                         0.0033 -0.0008  0.0016  0.0042  0.0219
                                        -0.0052  0.0010 -0.0011  0.0003 -0.0004
                                         0.0099 -0.0011 -0.0142  0.0037 -0.0005
                                        -0.0121 -0.0072  0.0006  0.0005  0.0069
                                         0.0132
               ( 52.07%)   0.7216* C  6 s( 26.90%)p 2.71( 73.02%)d 0.00(  0.06%)
                                                  f 0.00(  0.02%)
                                         0.0000  0.5187  0.0044  0.0004 -0.0002
                                        -0.7510 -0.0010  0.0020 -0.4071  0.0095
                                        -0.0003 -0.0162  0.0071 -0.0032  0.0156
                                         0.0027 -0.0012  0.0012 -0.0027  0.0022
                                         0.0130 -0.0004 -0.0137  0.0001 -0.0012
                                         0.0088 -0.0014 -0.0015 -0.0013  0.0003
                                        -0.0088
  27. (1.98701) BD ( 1) C  5- H 13
               ( 57.58%)   0.7588* C  5 s( 29.83%)p 2.35( 70.04%)d 0.00(  0.09%)
                                                  f 0.00(  0.03%)
                                         0.0000  0.5453 -0.0304  0.0076  0.0000
                                         0.0098 -0.0080  0.0022 -0.8365 -0.0018
                                        -0.0191 -0.0121  0.0012 -0.0005 -0.0026
                                         0.0024  0.0001 -0.0001  0.0010 -0.0005
                                        -0.0236  0.0010 -0.0167  0.0077  0.0005
                                        -0.0005  0.0144  0.0004  0.0000 -0.0053
                                         0.0097
               ( 42.42%)   0.6513* H 13 s( 99.96%)p 0.00(  0.03%)d 0.00(  0.01%)
                                         0.9998 -0.0116  0.0005  0.0000 -0.0017
                                         0.0163  0.0063  0.0004 -0.0002 -0.0009
                                         0.0000  0.0002 -0.0067 -0.0020
  28. (1.98613) BD ( 1) C  6- C  7
               ( 50.85%)   0.7131* C  6 s( 27.19%)p 2.68( 72.76%)d 0.00(  0.04%)
                                                  f 0.00(  0.01%)
                                         0.0000  0.5214  0.0112 -0.0002 -0.0003
                                        -0.0990 -0.0037  0.0027  0.8441 -0.0072
                                         0.0010  0.0712  0.0069 -0.0028 -0.0044
                                        -0.0001  0.0011 -0.0013  0.0059 -0.0015
                                        -0.0136 -0.0045 -0.0098 -0.0019 -0.0021
                                         0.0060 -0.0059 -0.0011 -0.0004  0.0014
                                        -0.0081
               ( 49.15%)   0.7010* C  7 s( 29.05%)p 2.44( 70.79%)d 0.00(  0.13%)
                                                  f 0.00(  0.03%)
                                         0.0000  0.5389  0.0080  0.0016  0.0002
                                         0.1078 -0.0043  0.0024 -0.8303  0.0059
                                         0.0054 -0.0824  0.0027 -0.0032 -0.0083
                                         0.0005  0.0003 -0.0006  0.0046  0.0005
                                        -0.0295 -0.0003 -0.0187  0.0003  0.0027
                                        -0.0061  0.0080  0.0014  0.0007 -0.0030
                                         0.0117
  29. (1.98284) BD ( 1) C  6- C  8
               ( 50.35%)   0.7096* C  6 s( 26.24%)p 2.81( 73.71%)d 0.00(  0.04%)
                                                  f 0.00(  0.01%)
                                         0.0000  0.5120  0.0136 -0.0002 -0.0001
                                         0.5079 -0.0085  0.0024 -0.3091  0.0038
                                         0.0000  0.6192 -0.0012 -0.0009 -0.0054
                                        -0.0027  0.0153  0.0021 -0.0098 -0.0012
                                         0.0006  0.0029  0.0068 -0.0001 -0.0034
                                         0.0076 -0.0037  0.0005 -0.0029  0.0008
                                        -0.0052
               ( 49.65%)   0.7046* C  8 s( 29.41%)p 2.40( 70.44%)d 0.00(  0.12%)
                                                  f 0.00(  0.03%)
                                         0.0000  0.5423  0.0078  0.0014  0.0003
                                        -0.4860  0.0016  0.0061  0.2989 -0.0010
                                        -0.0025 -0.6155  0.0051  0.0009 -0.0121
                                        -0.0002  0.0266 -0.0006 -0.0150 -0.0002
                                         0.0062  0.0003  0.0088  0.0006  0.0039
                                        -0.0103  0.0057 -0.0028  0.0060  0.0002
                                         0.0075
  30. (1.96166) BD ( 1) C  6- H 14
               ( 59.60%)   0.7720* C  6 s( 19.73%)p 4.06( 80.16%)d 0.01(  0.10%)
                                                  f 0.00(  0.02%)
                                         0.0000  0.4432 -0.0297  0.0001  0.0002
                                         0.4087  0.0127  0.0015 -0.1594 -0.0064
                                         0.0005 -0.7802 -0.0152 -0.0009 -0.0053
                                         0.0006 -0.0223 -0.0003  0.0090  0.0000
                                         0.0047  0.0005  0.0193  0.0006 -0.0020
                                         0.0093 -0.0038 -0.0017 -0.0011  0.0012
                                        -0.0066
               ( 40.40%)   0.6356* H 14 s( 99.94%)p 0.00(  0.04%)d 0.00(  0.02%)
                                         0.9997 -0.0058 -0.0001  0.0097 -0.0026
                                        -0.0036 -0.0003 -0.0177  0.0013 -0.0019
                                        -0.0089  0.0031  0.0019  0.0074
  31. (1.98971) BD ( 1) C  7- H 15
               ( 60.33%)   0.7767* C  7 s( 23.41%)p 3.26( 76.44%)d 0.01(  0.13%)
                                                  f 0.00(  0.02%)
                                         0.0000  0.4838 -0.0056  0.0001 -0.0003
                                        -0.3827  0.0032  0.0019  0.1882 -0.0097
                                         0.0029  0.7631  0.0023 -0.0017 -0.0042
                                        -0.0010 -0.0252  0.0001  0.0074  0.0023
                                         0.0024  0.0019  0.0249 -0.0008  0.0024
                                        -0.0102  0.0048  0.0002 -0.0021  0.0002
                                         0.0056
               ( 39.67%)   0.6299* H 15 s( 99.95%)p 0.00(  0.04%)d 0.00(  0.01%)
                                         0.9997 -0.0028 -0.0002 -0.0068  0.0059
                                         0.0037 -0.0009  0.0169 -0.0036 -0.0021
                                        -0.0067  0.0032  0.0010  0.0065
  32. (1.98913) BD ( 1) C  7- H 16
               ( 60.87%)   0.7802* C  7 s( 23.70%)p 3.21( 76.15%)d 0.01(  0.13%)
                                                  f 0.00(  0.02%)
                                         0.0000  0.4868 -0.0007 -0.0005  0.0001
                                        -0.5049 -0.0003  0.0013  0.3135 -0.0030
                                         0.0047 -0.6389 -0.0062 -0.0009 -0.0111
                                        -0.0011  0.0284 -0.0006 -0.0135 -0.0014
                                         0.0071  0.0006  0.0131 -0.0014  0.0037
                                        -0.0091  0.0037 -0.0008  0.0049  0.0008
                                         0.0064
               ( 39.13%)   0.6255* H 16 s( 99.94%)p 0.00(  0.04%)d 0.00(  0.01%)
                                         0.9997 -0.0014 -0.0001 -0.0101  0.0063
                                         0.0081  0.0005 -0.0154  0.0016 -0.0047
                                         0.0077 -0.0047  0.0015  0.0033
  33. (1.99016) BD ( 1) C  7- H 17
               ( 59.78%)   0.7732* C  7 s( 23.76%)p 3.20( 76.08%)d 0.01(  0.14%)
                                                  f 0.00(  0.02%)
                                         0.0000  0.4874 -0.0003 -0.0010  0.0000
                                         0.7649  0.0077  0.0018  0.4181 -0.0046
                                         0.0052 -0.0282  0.0010  0.0001  0.0228
                                         0.0026 -0.0025  0.0005 -0.0001 -0.0005
                                         0.0216 -0.0019 -0.0203  0.0011  0.0020
                                        -0.0096 -0.0003 -0.0001  0.0006 -0.0020
                                         0.0088
               ( 40.22%)   0.6342* H 17 s( 99.95%)p 0.00(  0.04%)d 0.00(  0.01%)
                                         0.9997 -0.0011 -0.0001  0.0181 -0.0013
                                         0.0095 -0.0012 -0.0004  0.0002  0.0080
                                        -0.0004 -0.0002  0.0048 -0.0052
  34. (1.99072) BD ( 1) C  8- H 18
               ( 60.11%)   0.7753* C  8 s( 23.66%)p 3.22( 76.18%)d 0.01(  0.14%)
                                                  f 0.00(  0.02%)
                                         0.0000  0.4864 -0.0011 -0.0005 -0.0001
                                         0.7958  0.0011  0.0033  0.3573  0.0063
                                        -0.0005 -0.0267 -0.0043  0.0023  0.0248
                                        -0.0009 -0.0041  0.0014 -0.0032  0.0017
                                         0.0195  0.0010 -0.0180 -0.0002  0.0014
                                        -0.0087  0.0017  0.0017  0.0003  0.0026
                                         0.0094
               ( 39.89%)   0.6316* H 18 s( 99.95%)p 0.00(  0.04%)d 0.00(  0.01%)
                                         0.9997 -0.0017 -0.0001  0.0183 -0.0017
                                         0.0081 -0.0007 -0.0006 -0.0001  0.0067
                                        -0.0004  0.0000  0.0062 -0.0052
  35. (1.98994) BD ( 1) C  8- H 19
               ( 60.17%)   0.7757* C  8 s( 23.35%)p 3.28( 76.50%)d 0.01(  0.14%)
                                                  f 0.00(  0.02%)
                                         0.0000  0.4832 -0.0007 -0.0006 -0.0002
                                         0.0920 -0.0035  0.0025 -0.8671 -0.0035
                                        -0.0022 -0.0683 -0.0049  0.0023 -0.0042
                                        -0.0012  0.0004 -0.0008  0.0082 -0.0020
                                        -0.0311  0.0001 -0.0172 -0.0006  0.0019
                                        -0.0061  0.0062  0.0004 -0.0007 -0.0024
                                         0.0094
               ( 39.83%)   0.6311* H 19 s( 99.95%)p 0.00(  0.04%)d 0.00(  0.01%)
                                         0.9997 -0.0012 -0.0001  0.0021  0.0001
                                        -0.0200  0.0012 -0.0015 -0.0001 -0.0021
                                        -0.0002  0.0012 -0.0090 -0.0052
  36. (1.99106) BD ( 1) C  8- H 20
               ( 60.14%)   0.7755* C  8 s( 23.51%)p 3.25( 76.34%)d 0.01(  0.13%)
                                                  f 0.00(  0.02%)
                                         0.0000  0.4848 -0.0051  0.0002  0.0000
                                        -0.3467 -0.0061  0.0029  0.1713  0.0045
                                        -0.0016  0.7835 -0.0051  0.0009 -0.0082
                                         0.0022 -0.0236  0.0003  0.0110 -0.0001
                                         0.0055 -0.0010  0.0234  0.0013  0.0063
                                        -0.0084  0.0041  0.0015 -0.0009 -0.0001
                                         0.0061
               ( 39.86%)   0.6314* H 20 s( 99.95%)p 0.00(  0.04%)d 0.00(  0.01%)
                                         0.9998 -0.0027 -0.0001 -0.0073  0.0028
                                         0.0038 -0.0006  0.0168 -0.0041 -0.0013
                                        -0.0063  0.0030  0.0009  0.0072
  37. (1.99262) BD ( 1) O  9- C 10
               ( 66.12%)   0.8132* O  9 s( 30.22%)p 2.30( 69.49%)d 0.01(  0.28%)
                                                  f 0.00(  0.01%)
                                         0.0000  0.5496  0.0076  0.0032  0.0001
                                        -0.7363  0.0193 -0.0042  0.3900  0.0093
                                         0.0074 -0.0089  0.0026  0.0007 -0.0429
                                        -0.0016 -0.0003  0.0000  0.0001 -0.0001
                                         0.0087  0.0008 -0.0301  0.0009  0.0000
                                         0.0065 -0.0035  0.0000 -0.0001 -0.0034
                                         0.0057
               ( 33.88%)   0.5820* C 10 s( 23.30%)p 3.29( 76.63%)d 0.00(  0.07%)
                                                  f 0.00(  0.00%)
                                         0.0000  0.4812  0.0384  0.0021 -0.0004
                                         0.7872 -0.0285  0.0037 -0.3793  0.0410
                                         0.0034  0.0049  0.0123  0.0034 -0.0082
                                        -0.0157  0.0012 -0.0007 -0.0003  0.0004
                                         0.0153  0.0028 -0.0080 -0.0090  0.0031
                                        -0.0021  0.0032  0.0015 -0.0011  0.0010
                                        -0.0028
  38. (1.99488) BD ( 1) C 10- C 11
               ( 49.52%)   0.7037* C 10 s( 29.49%)p 2.39( 70.43%)d 0.00(  0.07%)
                                                  f 0.00(  0.01%)
                                         0.0000  0.5427  0.0188 -0.0011  0.0000
                                        -0.2151  0.0156 -0.0009  0.2519 -0.0040
                                         0.0027  0.7709 -0.0031 -0.0022 -0.0008
                                        -0.0015 -0.0118  0.0019  0.0123 -0.0004
                                        -0.0014  0.0007  0.0205  0.0004  0.0058
                                        -0.0046  0.0071  0.0020 -0.0045  0.0019
                                        -0.0032
               ( 50.48%)   0.7105* C 11 s( 28.12%)p 2.55( 71.71%)d 0.00(  0.14%)
                                                  f 0.00(  0.02%)
                                         0.0000  0.5299  0.0199  0.0011 -0.0002
                                         0.2011 -0.0034  0.0040 -0.2657  0.0043
                                        -0.0016 -0.7784  0.0100 -0.0016 -0.0047
                                        -0.0004 -0.0153 -0.0002  0.0186  0.0003
                                        -0.0009  0.0000  0.0281  0.0000 -0.0076
                                         0.0071 -0.0094 -0.0018  0.0049 -0.0026
                                         0.0040
  39. (1.98743) BD ( 1) C 10- H 21
               ( 59.60%)   0.7720* C 10 s( 24.20%)p 3.13( 75.66%)d 0.00(  0.12%)
                                                  f 0.00(  0.01%)
                                         0.0000  0.4913 -0.0251  0.0008  0.0003
                                         0.0265  0.0038  0.0016  0.6682  0.0081
                                         0.0055 -0.5562 -0.0068  0.0003 -0.0011
                                         0.0027 -0.0007 -0.0005 -0.0287  0.0005
                                        -0.0187  0.0020  0.0028 -0.0003  0.0051
                                        -0.0020  0.0060  0.0052 -0.0022  0.0033
                                        -0.0062
               ( 40.40%)   0.6356* H 21 s( 99.95%)p 0.00(  0.04%)d 0.00(  0.01%)
                                         0.9997 -0.0060 -0.0001  0.0020  0.0047
                                         0.0157 -0.0035 -0.0111  0.0038 -0.0012
                                        -0.0001 -0.0090 -0.0055  0.0014
  40. (1.98355) BD ( 1) C 10- H 22
               ( 58.78%)   0.7667* C 10 s( 23.17%)p 3.31( 76.68%)d 0.01(  0.14%)
                                                  f 0.00(  0.01%)
                                         0.0000  0.4811 -0.0151 -0.0011 -0.0002
                                        -0.5736 -0.0181  0.0029 -0.5860 -0.0151
                                         0.0035 -0.3064 -0.0017  0.0042  0.0294
                                        -0.0031  0.0130  0.0004  0.0134  0.0003
                                        -0.0015 -0.0008 -0.0123  0.0006  0.0055
                                        -0.0013  0.0045  0.0022 -0.0054  0.0025
                                        -0.0065
               ( 41.22%)   0.6420* H 22 s( 99.95%)p 0.00(  0.04%)d 0.00(  0.01%)
                                         0.9997 -0.0031 -0.0001 -0.0136 -0.0004
                                        -0.0126  0.0000 -0.0065  0.0014  0.0084
                                         0.0048  0.0041  0.0008 -0.0034
  41. (1.98746) BD ( 1) C 11- H 23
               ( 60.10%)   0.7753* C 11 s( 23.71%)p 3.21( 76.13%)d 0.01(  0.14%)
                                                  f 0.00(  0.02%)
                                         0.0000  0.4869 -0.0034 -0.0011 -0.0003
                                        -0.7984 -0.0051  0.0020  0.3518  0.0008
                                        -0.0015  0.0046 -0.0064 -0.0020 -0.0234
                                        -0.0001  0.0053 -0.0020 -0.0023  0.0006
                                         0.0233 -0.0004 -0.0178 -0.0008 -0.0037
                                         0.0049 -0.0054 -0.0015  0.0013 -0.0041
                                         0.0099
               ( 39.90%)   0.6316* H 23 s( 99.94%)p 0.00(  0.04%)d 0.00(  0.01%)
                                         0.9997 -0.0008 -0.0001 -0.0194 -0.0010
                                         0.0082 -0.0003 -0.0006 -0.0016 -0.0070
                                        -0.0003  0.0002  0.0064 -0.0053
  42. (1.99026) BD ( 1) C 11- H 24
               ( 61.08%)   0.7815* C 11 s( 24.24%)p 3.12( 75.61%)d 0.01(  0.13%)
                                                  f 0.00(  0.02%)
                                         0.0000  0.4923 -0.0080  0.0003  0.0003
                                         0.5658  0.0052  0.0030  0.5998  0.0003
                                        -0.0005  0.2760 -0.0026 -0.0036  0.0292
                                         0.0001  0.0099  0.0013  0.0122  0.0004
                                         0.0007 -0.0008 -0.0142 -0.0001 -0.0057
                                         0.0013 -0.0046 -0.0034  0.0058 -0.0056
                                         0.0074
               ( 38.92%)   0.6239* H 24 s( 99.94%)p 0.00(  0.04%)d 0.00(  0.01%)
                                         0.9997 -0.0022 -0.0001  0.0114 -0.0053
                                         0.0139 -0.0021  0.0084  0.0029  0.0079
                                         0.0044  0.0044 -0.0009 -0.0036
  43. (1.99096) BD ( 1) C 11- H 25
               ( 60.08%)   0.7751* C 11 s( 23.90%)p 3.18( 75.94%)d 0.01(  0.14%)
                                                  f 0.00(  0.02%)
                                         0.0000  0.4889 -0.0069 -0.0001  0.0000
                                         0.0075  0.0022  0.0008 -0.6663 -0.0061
                                        -0.0012  0.5615 -0.0038 -0.0023 -0.0018
                                         0.0004 -0.0015  0.0008 -0.0300 -0.0013
                                        -0.0213  0.0010  0.0023  0.0005 -0.0041
                                         0.0016 -0.0082 -0.0065  0.0024 -0.0028
                                         0.0068
               ( 39.92%)   0.6318* H 25 s( 99.95%)p 0.00(  0.04%)d 0.00(  0.01%)
                                         0.9997 -0.0019 -0.0001 -0.0001 -0.0010
                                        -0.0158  0.0002  0.0131 -0.0005  0.0000
                                         0.0000 -0.0091 -0.0054  0.0016
 ---------------- non-Lewis ----------------------------------------------------
  44. (0.02031) BD*( 1) O  1- C  2
               ( 35.55%)   0.5962* O  1 s( 40.24%)p 1.47( 59.17%)d 0.01(  0.58%)
                                                  f 0.00(  0.01%)
                                         0.0000 -0.6343 -0.0028  0.0007 -0.0003
                                        -0.1283  0.0038 -0.0012  0.7579 -0.0254
                                         0.0074 -0.0005 -0.0001  0.0000  0.0191
                                         0.0001 -0.0001  0.0000  0.0001  0.0000
                                         0.0634  0.0005  0.0381 -0.0002  0.0000
                                         0.0009 -0.0063  0.0000  0.0000  0.0039
                                        -0.0080
               ( 64.45%)  -0.8028* C  2 s( 34.58%)p 1.89( 65.32%)d 0.00(  0.07%)
                                                  f 0.00(  0.03%)
                                         0.0000 -0.5868  0.0371 -0.0063  0.0006
                                         0.1068  0.0026 -0.0016 -0.7990  0.0589
                                         0.0028 -0.0013 -0.0007 -0.0002  0.0056
                                         0.0050  0.0000  0.0000  0.0000  0.0002
                                         0.0132  0.0188  0.0082  0.0094  0.0000
                                        -0.0026  0.0099  0.0000  0.0000 -0.0058
                                         0.0113
  45. (0.05323) BD*( 1) C  2- C  3
               ( 49.79%)   0.7056* C  2 s( 40.96%)p 1.44( 58.92%)d 0.00(  0.08%)
                                                  f 0.00(  0.04%)
                                         0.0000  0.6394  0.0273 -0.0064 -0.0001
                                         0.6675  0.0025  0.0025 -0.3789  0.0058
                                        -0.0060  0.0064 -0.0018  0.0014 -0.0246
                                         0.0031  0.0004 -0.0003 -0.0002  0.0001
                                         0.0089  0.0001 -0.0048 -0.0082 -0.0002
                                        -0.0114  0.0083  0.0001 -0.0002 -0.0017
                                        -0.0140
               ( 50.21%)  -0.7086* C  3 s( 34.61%)p 1.88( 65.22%)d 0.00(  0.14%)
                                                  f 0.00(  0.04%)
                                         0.0000  0.5881 -0.0102 -0.0091 -0.0002
                                        -0.6765  0.0229  0.0030  0.4404 -0.0063
                                         0.0003 -0.0037  0.0006  0.0000 -0.0314
                                         0.0041  0.0001  0.0003 -0.0001 -0.0001
                                         0.0087 -0.0003 -0.0179 -0.0008  0.0002
                                         0.0115 -0.0077 -0.0003  0.0002 -0.0035
                                         0.0124
  46. (0.43472) BD*( 2) C  2- C  3
               ( 69.74%)   0.8351* C  2 s(  0.00%)p 1.00( 99.83%)d 0.00(  0.15%)
                                                  f 0.00(  0.03%)
                                         0.0000  0.0006  0.0000  0.0007  0.0003
                                         0.0103  0.0031 -0.0025  0.0026 -0.0008
                                         0.0008 -0.9973 -0.0554  0.0197 -0.0003
                                         0.0003 -0.0301  0.0099  0.0209 -0.0070
                                         0.0007 -0.0004 -0.0010  0.0008  0.0150
                                        -0.0002  0.0000  0.0045  0.0030 -0.0001
                                        -0.0001
               ( 30.26%)  -0.5500* C  3 s(  0.00%)p 1.00( 99.92%)d 0.00(  0.04%)
                                                  f 0.00(  0.04%)
                                         0.0000  0.0006 -0.0001  0.0003 -0.0005
                                         0.0111  0.0021 -0.0004  0.0078  0.0000
                                        -0.0002 -0.9979 -0.0551  0.0103  0.0005
                                        -0.0002  0.0123 -0.0051 -0.0132  0.0001
                                        -0.0003  0.0001  0.0003 -0.0002  0.0204
                                        -0.0007 -0.0003 -0.0027 -0.0005  0.0001
                                         0.0000
  47. (0.11612) BD*( 1) C  2- O  9
               ( 68.44%)   0.8273* C  2 s( 24.57%)p 3.07( 75.35%)d 0.00(  0.07%)
                                                  f 0.00(  0.01%)
                                         0.0000  0.4956 -0.0015  0.0068  0.0005
                                        -0.7354  0.0057 -0.0054 -0.4602  0.0271
                                        -0.0075 -0.0086  0.0026 -0.0007  0.0210
                                         0.0109 -0.0006  0.0013  0.0002  0.0001
                                         0.0063  0.0027 -0.0116 -0.0017  0.0000
                                         0.0064  0.0023  0.0002 -0.0002  0.0014
                                        -0.0016
               ( 31.56%)  -0.5618* O  9 s( 28.64%)p 2.48( 71.09%)d 0.01(  0.25%)
                                                  f 0.00(  0.01%)
                                         0.0000  0.5352 -0.0020  0.0017 -0.0002
                                         0.6692 -0.0174  0.0031  0.5126 -0.0026
                                         0.0064  0.0022 -0.0001  0.0003  0.0411
                                         0.0017  0.0006  0.0001  0.0012 -0.0002
                                        -0.0076  0.0000 -0.0278  0.0010 -0.0001
                                        -0.0053 -0.0042 -0.0001  0.0000  0.0010
                                         0.0059
  48. (0.01222) BD*( 1) C  3- N  4
               ( 59.68%)   0.7725* C  3 s( 34.08%)p 1.93( 65.84%)d 0.00(  0.05%)
                                                  f 0.00(  0.03%)
                                         0.0000  0.5820  0.0461  0.0014 -0.0002
                                         0.7302 -0.0547 -0.0069  0.3479 -0.0310
                                        -0.0049  0.0111 -0.0010 -0.0001  0.0087
                                         0.0124  0.0004  0.0002  0.0002  0.0002
                                         0.0045  0.0074 -0.0147 -0.0043 -0.0004
                                        -0.0111 -0.0049  0.0003  0.0003  0.0056
                                         0.0107
               ( 40.32%)  -0.6350* N  4 s( 35.48%)p 1.81( 64.11%)d 0.01(  0.38%)
                                                  f 0.00(  0.03%)
                                         0.0000  0.5951  0.0255  0.0025 -0.0002
                                        -0.7239  0.0179  0.0039 -0.3414 -0.0061
                                         0.0067 -0.0091 -0.0004  0.0001  0.0477
                                         0.0019  0.0013  0.0000  0.0008  0.0000
                                         0.0126  0.0011 -0.0363  0.0024  0.0003
                                         0.0100  0.0051 -0.0003 -0.0002 -0.0101
                                        -0.0109
  49. (0.03653) BD*( 1) C  3- H 12
               ( 41.55%)   0.6446* C  3 s( 31.39%)p 2.18( 68.49%)d 0.00(  0.08%)
                                                  f 0.00(  0.04%)
                                         0.0000 -0.5599  0.0213 -0.0071 -0.0002
                                         0.0503 -0.0094  0.0034  0.8255 -0.0205
                                         0.0194  0.0066 -0.0001  0.0002 -0.0052
                                         0.0007 -0.0002  0.0001 -0.0005  0.0000
                                         0.0208  0.0037  0.0178 -0.0014 -0.0004
                                        -0.0019 -0.0162 -0.0003  0.0002 -0.0024
                                        -0.0097
               ( 58.45%)  -0.7645* H 12 s( 99.96%)p 0.00(  0.03%)d 0.00(  0.01%)
                                        -0.9998  0.0081 -0.0007 -0.0025 -0.0005
                                        -0.0141 -0.0093 -0.0001 -0.0001 -0.0009
                                         0.0000 -0.0001  0.0069  0.0033
  50. (0.00922) BD*( 1) N  4- C  5
               ( 40.28%)   0.6347* N  4 s( 39.82%)p 1.50( 59.70%)d 0.01(  0.45%)
                                                  f 0.00(  0.03%)
                                         0.0000 -0.6309 -0.0150  0.0002 -0.0002
                                        -0.6854  0.0163  0.0023  0.3561 -0.0046
                                        -0.0050 -0.0096 -0.0003  0.0001  0.0523
                                         0.0017 -0.0003  0.0000  0.0002  0.0001
                                        -0.0149 -0.0006  0.0390 -0.0024  0.0002
                                         0.0098 -0.0054 -0.0002  0.0002 -0.0069
                                         0.0128
               ( 59.72%)  -0.7728* C  5 s( 36.32%)p 1.75( 63.58%)d 0.00(  0.06%)
                                                  f 0.00(  0.03%)
                                         0.0000 -0.6005 -0.0516  0.0038  0.0006
                                         0.6980 -0.0490 -0.0094 -0.3811  0.0299
                                         0.0037 -0.0051 -0.0001  0.0005  0.0131
                                         0.0140 -0.0001  0.0003 -0.0002  0.0002
                                        -0.0080 -0.0045  0.0126  0.0047  0.0000
                                        -0.0114  0.0051  0.0001  0.0000  0.0026
                                        -0.0131
  51. (0.27044) BD*( 2) N  4- C  5
               ( 47.53%)   0.6894* N  4 s(  0.00%)p 1.00( 99.68%)d 0.00(  0.29%)
                                                  f 0.00(  0.03%)
                                         0.0000 -0.0052 -0.0019 -0.0007 -0.0001
                                        -0.0132  0.0012  0.0000 -0.0078 -0.0005
                                         0.0001  0.9982 -0.0110  0.0031  0.0000
                                         0.0002  0.0181  0.0066 -0.0501 -0.0007
                                        -0.0014  0.0001 -0.0002  0.0001 -0.0132
                                         0.0004  0.0002  0.0105 -0.0032 -0.0003
                                        -0.0001
               ( 52.47%)  -0.7244* C  5 s(  0.01%)p99.99( 99.89%)d 5.87(  0.07%)
                                                  f 2.22(  0.03%)
                                         0.0000  0.0040 -0.0096 -0.0030  0.0005
                                         0.0039  0.0018  0.0016 -0.0115  0.0021
                                        -0.0002  0.9989  0.0284 -0.0134  0.0016
                                        -0.0017 -0.0221  0.0026  0.0135 -0.0019
                                         0.0007 -0.0006  0.0002 -0.0006 -0.0160
                                         0.0004  0.0002  0.0013 -0.0012  0.0000
                                         0.0004
  52. (0.03271) BD*( 1) C  5- C  6
               ( 52.07%)   0.7216* C  5 s( 33.99%)p 1.94( 65.88%)d 0.00(  0.08%)
                                                  f 0.00(  0.04%)
                                         0.0000  0.5829 -0.0076 -0.0055  0.0003
                                         0.7126 -0.0073  0.0048  0.3885  0.0038
                                         0.0033 -0.0008  0.0016  0.0042  0.0219
                                        -0.0052  0.0010 -0.0011  0.0003 -0.0004
                                         0.0099 -0.0011 -0.0142  0.0037 -0.0005
                                        -0.0121 -0.0072  0.0006  0.0005  0.0069
                                         0.0132
               ( 47.93%)  -0.6923* C  6 s( 26.90%)p 2.71( 73.02%)d 0.00(  0.06%)
                                                  f 0.00(  0.02%)
                                         0.0000  0.5187  0.0044  0.0004 -0.0002
                                        -0.7510 -0.0010  0.0020 -0.4071  0.0095
                                        -0.0003 -0.0162  0.0071 -0.0032  0.0156
                                         0.0027 -0.0012  0.0012 -0.0027  0.0022
                                         0.0130 -0.0004 -0.0137  0.0001 -0.0012
                                         0.0088 -0.0014 -0.0015 -0.0013  0.0003
                                        -0.0088
  53. (0.04942) BD*( 1) C  5- H 13
               ( 42.42%)   0.6513* C  5 s( 29.83%)p 2.35( 70.04%)d 0.00(  0.09%)
                                                  f 0.00(  0.03%)
                                         0.0000 -0.5453  0.0304 -0.0076  0.0000
                                        -0.0098  0.0080 -0.0022  0.8365  0.0018
                                         0.0191  0.0121 -0.0012  0.0005  0.0026
                                        -0.0024 -0.0001  0.0001 -0.0010  0.0005
                                         0.0236 -0.0010  0.0167 -0.0077 -0.0005
                                         0.0005 -0.0144 -0.0004  0.0000  0.0053
                                        -0.0097
               ( 57.58%)  -0.7588* H 13 s( 99.96%)p 0.00(  0.03%)d 0.00(  0.01%)
                                        -0.9998  0.0116 -0.0005  0.0000  0.0017
                                        -0.0163 -0.0063 -0.0004  0.0002  0.0009
                                         0.0000 -0.0002  0.0067  0.0020
  54. (0.01369) BD*( 1) C  6- C  7
               ( 49.15%)   0.7010* C  6 s( 27.19%)p 2.68( 72.76%)d 0.00(  0.04%)
                                                  f 0.00(  0.01%)
                                         0.0000 -0.5214 -0.0112  0.0002  0.0003
                                         0.0990  0.0037 -0.0027 -0.8441  0.0072
                                        -0.0010 -0.0712 -0.0069  0.0028  0.0044
                                         0.0001 -0.0011  0.0013 -0.0059  0.0015
                                         0.0136  0.0045  0.0098  0.0019  0.0021
                                        -0.0060  0.0059  0.0011  0.0004 -0.0014
                                         0.0081
               ( 50.85%)  -0.7131* C  7 s( 29.05%)p 2.44( 70.79%)d 0.00(  0.13%)
                                                  f 0.00(  0.03%)
                                         0.0000 -0.5389 -0.0080 -0.0016 -0.0002
                                        -0.1078  0.0043 -0.0024  0.8303 -0.0059
                                        -0.0054  0.0824 -0.0027  0.0032  0.0083
                                        -0.0005 -0.0003  0.0006 -0.0046 -0.0005
                                         0.0295  0.0003  0.0187 -0.0003 -0.0027
                                         0.0061 -0.0080 -0.0014 -0.0007  0.0030
                                        -0.0117
  55. (0.01667) BD*( 1) C  6- C  8
               ( 49.65%)   0.7046* C  6 s( 26.24%)p 2.81( 73.71%)d 0.00(  0.04%)
                                                  f 0.00(  0.01%)
                                         0.0000 -0.5120 -0.0136  0.0002  0.0001
                                        -0.5079  0.0085 -0.0024  0.3091 -0.0038
                                         0.0000 -0.6192  0.0012  0.0009  0.0054
                                         0.0027 -0.0153 -0.0021  0.0098  0.0012
                                        -0.0006 -0.0029 -0.0068  0.0001  0.0034
                                        -0.0076  0.0037 -0.0005  0.0029 -0.0008
                                         0.0052
               ( 50.35%)  -0.7096* C  8 s( 29.41%)p 2.40( 70.44%)d 0.00(  0.12%)
                                                  f 0.00(  0.03%)
                                         0.0000 -0.5423 -0.0078 -0.0014 -0.0003
                                         0.4860 -0.0016 -0.0061 -0.2989  0.0010
                                         0.0025  0.6155 -0.0051 -0.0009  0.0121
                                         0.0002 -0.0266  0.0006  0.0150  0.0002
                                        -0.0062 -0.0003 -0.0088 -0.0006 -0.0039
                                         0.0103 -0.0057  0.0028 -0.0060 -0.0002
                                        -0.0075
  56. (0.03176) BD*( 1) C  6- H 14
               ( 40.40%)   0.6356* C  6 s( 19.73%)p 4.06( 80.16%)d 0.01(  0.10%)
                                                  f 0.00(  0.02%)
                                         0.0000 -0.4432  0.0297 -0.0001 -0.0002
                                        -0.4087 -0.0127 -0.0015  0.1594  0.0064
                                        -0.0005  0.7802  0.0152  0.0009  0.0053
                                        -0.0006  0.0223  0.0003 -0.0090  0.0000
                                        -0.0047 -0.0005 -0.0193 -0.0006  0.0020
                                        -0.0093  0.0038  0.0017  0.0011 -0.0012
                                         0.0066
               ( 59.60%)  -0.7720* H 14 s( 99.94%)p 0.00(  0.04%)d 0.00(  0.02%)
                                        -0.9997  0.0058  0.0001 -0.0097  0.0026
                                         0.0036  0.0003  0.0177 -0.0013  0.0019
                                         0.0089 -0.0031 -0.0019 -0.0074
  57. (0.01013) BD*( 1) C  7- H 15
               ( 39.67%)   0.6299* C  7 s( 23.41%)p 3.26( 76.44%)d 0.01(  0.13%)
                                                  f 0.00(  0.02%)
                                         0.0000 -0.4838  0.0056 -0.0001  0.0003
                                         0.3827 -0.0032 -0.0019 -0.1882  0.0097
                                        -0.0029 -0.7631 -0.0023  0.0017  0.0042
                                         0.0010  0.0252 -0.0001 -0.0074 -0.0023
                                        -0.0024 -0.0019 -0.0249  0.0008 -0.0024
                                         0.0102 -0.0048 -0.0002  0.0021 -0.0002
                                        -0.0056
               ( 60.33%)  -0.7767* H 15 s( 99.95%)p 0.00(  0.04%)d 0.00(  0.01%)
                                        -0.9997  0.0028  0.0002  0.0068 -0.0059
                                        -0.0037  0.0009 -0.0169  0.0036  0.0021
                                         0.0067 -0.0032 -0.0010 -0.0065
  58. (0.00655) BD*( 1) C  7- H 16
               ( 39.13%)   0.6255* C  7 s( 23.70%)p 3.21( 76.15%)d 0.01(  0.13%)
                                                  f 0.00(  0.02%)
                                         0.0000 -0.4868  0.0007  0.0005 -0.0001
                                         0.5049  0.0003 -0.0013 -0.3135  0.0030
                                        -0.0047  0.6389  0.0062  0.0009  0.0111
                                         0.0011 -0.0284  0.0006  0.0135  0.0014
                                        -0.0071 -0.0006 -0.0131  0.0014 -0.0037
                                         0.0091 -0.0037  0.0008 -0.0049 -0.0008
                                        -0.0064
               ( 60.87%)  -0.7802* H 16 s( 99.94%)p 0.00(  0.04%)d 0.00(  0.01%)
                                        -0.9997  0.0014  0.0001  0.0101 -0.0063
                                        -0.0081 -0.0005  0.0154 -0.0016  0.0047
                                        -0.0077  0.0047 -0.0015 -0.0033
  59. (0.00715) BD*( 1) C  7- H 17
               ( 40.22%)   0.6342* C  7 s( 23.76%)p 3.20( 76.08%)d 0.01(  0.14%)
                                                  f 0.00(  0.02%)
                                         0.0000 -0.4874  0.0003  0.0010  0.0000
                                        -0.7649 -0.0077 -0.0018 -0.4181  0.0046
                                        -0.0052  0.0282 -0.0010 -0.0001 -0.0228
                                        -0.0026  0.0025 -0.0005  0.0001  0.0005
                                        -0.0216  0.0019  0.0203 -0.0011 -0.0020
                                         0.0096  0.0003  0.0001 -0.0006  0.0020
                                        -0.0088
               ( 59.78%)  -0.7732* H 17 s( 99.95%)p 0.00(  0.04%)d 0.00(  0.01%)
                                        -0.9997  0.0011  0.0001 -0.0181  0.0013
                                        -0.0095  0.0012  0.0004 -0.0002 -0.0080
                                         0.0004  0.0002 -0.0048  0.0052
  60. (0.00794) BD*( 1) C  8- H 18
               ( 39.89%)   0.6316* C  8 s( 23.66%)p 3.22( 76.18%)d 0.01(  0.14%)
                                                  f 0.00(  0.02%)
                                         0.0000 -0.4864  0.0011  0.0005  0.0001
                                        -0.7958 -0.0011 -0.0033 -0.3573 -0.0063
                                         0.0005  0.0267  0.0043 -0.0023 -0.0248
                                         0.0009  0.0041 -0.0014  0.0032 -0.0017
                                        -0.0195 -0.0010  0.0180  0.0002 -0.0014
                                         0.0087 -0.0017 -0.0017 -0.0003 -0.0026
                                        -0.0094
               ( 60.11%)  -0.7753* H 18 s( 99.95%)p 0.00(  0.04%)d 0.00(  0.01%)
                                        -0.9997  0.0017  0.0001 -0.0183  0.0017
                                        -0.0081  0.0007  0.0006  0.0001 -0.0067
                                         0.0004  0.0000 -0.0062  0.0052
  61. (0.00657) BD*( 1) C  8- H 19
               ( 39.83%)   0.6311* C  8 s( 23.35%)p 3.28( 76.50%)d 0.01(  0.14%)
                                                  f 0.00(  0.02%)
                                         0.0000 -0.4832  0.0007  0.0006  0.0002
                                        -0.0920  0.0035 -0.0025  0.8671  0.0035
                                         0.0022  0.0683  0.0049 -0.0023  0.0042
                                         0.0012 -0.0004  0.0008 -0.0082  0.0020
                                         0.0311 -0.0001  0.0172  0.0006 -0.0019
                                         0.0061 -0.0062 -0.0004  0.0007  0.0024
                                        -0.0094
               ( 60.17%)  -0.7757* H 19 s( 99.95%)p 0.00(  0.04%)d 0.00(  0.01%)
                                        -0.9997  0.0012  0.0001 -0.0021 -0.0001
                                         0.0200 -0.0012  0.0015  0.0001  0.0021
                                         0.0002 -0.0012  0.0090  0.0052
  62. (0.01023) BD*( 1) C  8- H 20
               ( 39.86%)   0.6314* C  8 s( 23.51%)p 3.25( 76.34%)d 0.01(  0.13%)
                                                  f 0.00(  0.02%)
                                         0.0000 -0.4848  0.0051 -0.0002  0.0000
                                         0.3467  0.0061 -0.0029 -0.1713 -0.0045
                                         0.0016 -0.7835  0.0051 -0.0009  0.0082
                                        -0.0022  0.0236 -0.0003 -0.0110  0.0001
                                        -0.0055  0.0010 -0.0234 -0.0013 -0.0063
                                         0.0084 -0.0041 -0.0015  0.0009  0.0001
                                        -0.0061
               ( 60.14%)  -0.7755* H 20 s( 99.95%)p 0.00(  0.04%)d 0.00(  0.01%)
                                        -0.9998  0.0027  0.0001  0.0073 -0.0028
                                        -0.0038  0.0006 -0.0168  0.0041  0.0013
                                         0.0063 -0.0030 -0.0009 -0.0072
  63. (0.02257) BD*( 1) O  9- C 10
               ( 33.88%)   0.5820* O  9 s( 30.22%)p 2.30( 69.49%)d 0.01(  0.28%)
                                                  f 0.00(  0.01%)
                                         0.0000 -0.5496 -0.0076 -0.0032 -0.0001
                                         0.7363 -0.0193  0.0042 -0.3900 -0.0093
                                        -0.0074  0.0089 -0.0026 -0.0007  0.0429
                                         0.0016  0.0003  0.0000 -0.0001  0.0001
                                        -0.0087 -0.0008  0.0301 -0.0009  0.0000
                                        -0.0065  0.0035  0.0000  0.0001  0.0034
                                        -0.0057
               ( 66.12%)  -0.8132* C 10 s( 23.30%)p 3.29( 76.63%)d 0.00(  0.07%)
                                                  f 0.00(  0.00%)
                                         0.0000 -0.4812 -0.0384 -0.0021  0.0004
                                        -0.7872  0.0285 -0.0037  0.3793 -0.0410
                                        -0.0034 -0.0049 -0.0123 -0.0034  0.0082
                                         0.0157 -0.0012  0.0007  0.0003 -0.0004
                                        -0.0153 -0.0028  0.0080  0.0090 -0.0031
                                         0.0021 -0.0032 -0.0015  0.0011 -0.0010
                                         0.0028
  64. (0.02081) BD*( 1) C 10- C 11
               ( 50.48%)   0.7105* C 10 s( 29.49%)p 2.39( 70.43%)d 0.00(  0.07%)
                                                  f 0.00(  0.01%)
                                         0.0000  0.5427  0.0188 -0.0011  0.0000
                                        -0.2151  0.0156 -0.0009  0.2519 -0.0040
                                         0.0027  0.7709 -0.0031 -0.0022 -0.0008
                                        -0.0015 -0.0118  0.0019  0.0123 -0.0004
                                        -0.0014  0.0007  0.0205  0.0004  0.0058
                                        -0.0046  0.0071  0.0020 -0.0045  0.0019
                                        -0.0032
               ( 49.52%)  -0.7037* C 11 s( 28.12%)p 2.55( 71.71%)d 0.00(  0.14%)
                                                  f 0.00(  0.02%)
                                         0.0000  0.5299  0.0199  0.0011 -0.0002
                                         0.2011 -0.0034  0.0040 -0.2657  0.0043
                                        -0.0016 -0.7784  0.0100 -0.0016 -0.0047
                                        -0.0004 -0.0153 -0.0002  0.0186  0.0003
                                        -0.0009  0.0000  0.0281  0.0000 -0.0076
                                         0.0071 -0.0094 -0.0018  0.0049 -0.0026
                                         0.0040
  65. (0.02939) BD*( 1) C 10- H 21
               ( 40.40%)   0.6356* C 10 s( 24.20%)p 3.13( 75.66%)d 0.00(  0.12%)
                                                  f 0.00(  0.01%)
                                         0.0000 -0.4913  0.0251 -0.0008 -0.0003
                                        -0.0265 -0.0038 -0.0016 -0.6682 -0.0081
                                        -0.0055  0.5562  0.0068 -0.0003  0.0011
                                        -0.0027  0.0007  0.0005  0.0287 -0.0005
                                         0.0187 -0.0020 -0.0028  0.0003 -0.0051
                                         0.0020 -0.0060 -0.0052  0.0022 -0.0033
                                         0.0062
               ( 59.60%)  -0.7720* H 21 s( 99.95%)p 0.00(  0.04%)d 0.00(  0.01%)
                                        -0.9997  0.0060  0.0001 -0.0020 -0.0047
                                        -0.0157  0.0035  0.0111 -0.0038  0.0012
                                         0.0001  0.0090  0.0055 -0.0014
  66. (0.02102) BD*( 1) C 10- H 22
               ( 41.22%)   0.6420* C 10 s( 23.17%)p 3.31( 76.68%)d 0.01(  0.14%)
                                                  f 0.00(  0.01%)
                                         0.0000 -0.4811  0.0151  0.0011  0.0002
                                         0.5736  0.0181 -0.0029  0.5860  0.0151
                                        -0.0035  0.3064  0.0017 -0.0042 -0.0294
                                         0.0031 -0.0130 -0.0004 -0.0134 -0.0003
                                         0.0015  0.0008  0.0123 -0.0006 -0.0055
                                         0.0013 -0.0045 -0.0022  0.0054 -0.0025
                                         0.0065
               ( 58.78%)  -0.7667* H 22 s( 99.95%)p 0.00(  0.04%)d 0.00(  0.01%)
                                        -0.9997  0.0031  0.0001  0.0136  0.0004
                                         0.0126  0.0000  0.0065 -0.0014 -0.0084
                                        -0.0048 -0.0041 -0.0008  0.0034
  67. (0.00478) BD*( 1) C 11- H 23
               ( 39.90%)   0.6316* C 11 s( 23.71%)p 3.21( 76.13%)d 0.01(  0.14%)
                                                  f 0.00(  0.02%)
                                         0.0000 -0.4869  0.0034  0.0011  0.0003
                                         0.7984  0.0051 -0.0020 -0.3518 -0.0008
                                         0.0015 -0.0046  0.0064  0.0020  0.0234
                                         0.0001 -0.0053  0.0020  0.0023 -0.0006
                                        -0.0233  0.0004  0.0178  0.0008  0.0037
                                        -0.0049  0.0054  0.0015 -0.0013  0.0041
                                        -0.0099
               ( 60.10%)  -0.7753* H 23 s( 99.94%)p 0.00(  0.04%)d 0.00(  0.01%)
                                        -0.9997  0.0008  0.0001  0.0194  0.0010
                                        -0.0082  0.0003  0.0006  0.0016  0.0070
                                         0.0003 -0.0002 -0.0064  0.0053
  68. (0.00886) BD*( 1) C 11- H 24
               ( 38.92%)   0.6239* C 11 s( 24.24%)p 3.12( 75.61%)d 0.01(  0.13%)
                                                  f 0.00(  0.02%)
                                         0.0000 -0.4923  0.0080 -0.0003 -0.0003
                                        -0.5658 -0.0052 -0.0030 -0.5998 -0.0003
                                         0.0005 -0.2760  0.0026  0.0036 -0.0292
                                        -0.0001 -0.0099 -0.0013 -0.0122 -0.0004
                                        -0.0007  0.0008  0.0142  0.0001  0.0057
                                        -0.0013  0.0046  0.0034 -0.0058  0.0056
                                        -0.0074
               ( 61.08%)  -0.7815* H 24 s( 99.94%)p 0.00(  0.04%)d 0.00(  0.01%)
                                        -0.9997  0.0022  0.0001 -0.0114  0.0053
                                        -0.0139  0.0021 -0.0084 -0.0029 -0.0079
                                        -0.0044 -0.0044  0.0009  0.0036
  69. (0.00834) BD*( 1) C 11- H 25
               ( 39.92%)   0.6318* C 11 s( 23.90%)p 3.18( 75.94%)d 0.01(  0.14%)
                                                  f 0.00(  0.02%)
                                         0.0000 -0.4889  0.0069  0.0001  0.0000
                                        -0.0075 -0.0022 -0.0008  0.6663  0.0061
                                         0.0012 -0.5615  0.0038  0.0023  0.0018
                                        -0.0004  0.0015 -0.0008  0.0300  0.0013
                                         0.0213 -0.0010 -0.0023 -0.0005  0.0041
                                        -0.0016  0.0082  0.0065 -0.0024  0.0028
                                        -0.0068
               ( 60.08%)  -0.7751* H 25 s( 99.95%)p 0.00(  0.04%)d 0.00(  0.01%)
                                        -0.9997  0.0019  0.0001  0.0001  0.0010
                                         0.0158 -0.0002 -0.0131  0.0005  0.0000
                                         0.0000  0.0091  0.0054 -0.0016
  70. (0.00264) RY ( 1) O  1            s(  0.03%)p99.99( 97.38%)d88.04(  2.58%)
                                                  f 0.48(  0.01%)
                                         0.0000 -0.0001  0.0169 -0.0027  0.0004
                                         0.0004  0.0743  0.0056  0.0007  0.0275
                                         0.0074 -0.0055  0.9821  0.0531  0.0260
                                         0.0063 -0.1176 -0.0001  0.0193  0.1030
                                        -0.0012 -0.0058 -0.0137  0.0026  0.0014
                                         0.0008  0.0012 -0.0028  0.0107  0.0038
                                         0.0006
  71. (0.00208) RY ( 2) O  1            s(  8.06%)p10.95( 88.21%)d 0.46(  3.70%)
                                                  f 0.00(  0.03%)
                                         0.0000 -0.0001  0.2808 -0.0419 -0.0005
                                        -0.0038  0.9225  0.0410  0.0034  0.1353
                                         0.0634  0.0010 -0.0831 -0.0088  0.1335
                                         0.0879  0.0017  0.0019  0.0020 -0.0118
                                        -0.0271 -0.0342 -0.0965  0.0106  0.0000
                                         0.0022  0.0093  0.0013 -0.0014  0.0142
                                         0.0017
  72. (0.00028) RY ( 3) O  1            s( 65.01%)p 0.09(  5.61%)d 0.42( 27.59%)
                                                  f 0.03(  1.79%)
                                         0.0000 -0.0009  0.7826  0.1937  0.0033
                                        -0.0248 -0.1587  0.0037  0.0033 -0.1252
                                         0.1181 -0.0019  0.0252  0.0057 -0.4851
                                         0.0436  0.1132 -0.0156 -0.0275  0.0166
                                         0.1055 -0.0363 -0.1102 -0.0024 -0.0010
                                        -0.0224 -0.0168 -0.0083 -0.0086 -0.1180
                                         0.0554
  73. (0.00014) RY ( 4) O  1            s( 21.50%)p 0.79( 16.97%)d 2.77( 59.60%)
                                                  f 0.09(  1.94%)
                                         0.0000 -0.0083  0.4380 -0.1515 -0.0116
                                         0.0283 -0.2678 -0.1682  0.0239  0.2548
                                         0.0562 -0.0014  0.0161  0.0029  0.6298
                                        -0.1400  0.2353 -0.0352 -0.0087  0.0076
                                        -0.3363  0.0598 -0.0743 -0.0283 -0.0017
                                         0.0521  0.0096  0.0016 -0.0324  0.1240
                                        -0.0128
  74. (0.00012) RY ( 5) O  1            s(  7.28%)p 2.95( 21.45%)d 9.59( 69.80%)
                                                  f 0.20(  1.47%)
                                         0.0000  0.0079 -0.1436  0.2282 -0.0042
                                         0.0068  0.1344 -0.0267 -0.0159 -0.4100
                                        -0.1302 -0.0086  0.1014 -0.0065  0.0897
                                        -0.0387  0.8132 -0.1011 -0.0830  0.0371
                                         0.0436  0.0246  0.0785 -0.0047 -0.0095
                                         0.0095 -0.0201 -0.0201 -0.1135 -0.0275
                                         0.0078
  75. (0.00007) RY ( 6) O  1            s( 14.43%)p 2.87( 41.41%)d 2.97( 42.81%)
                                                  f 0.09(  1.34%)
  76. (0.00005) RY ( 7) O  1            s(  4.28%)p 6.46( 27.67%)d14.82( 63.45%)
                                                  f 1.07(  4.60%)
  77. (0.00001) RY ( 8) O  1            s(  2.92%)p22.08( 64.58%)d10.67( 31.20%)
                                                  f 0.45(  1.30%)
  78. (0.00001) RY ( 9) O  1            s( 43.72%)p 0.56( 24.37%)d 0.68( 29.91%)
                                                  f 0.05(  2.00%)
  79. (0.00000) RY (10) O  1            s(  3.69%)p19.91( 73.55%)d 5.03( 18.56%)
                                                  f 1.14(  4.20%)
  80. (0.00000) RY (11) O  1            s( 16.92%)p 0.25(  4.17%)d 3.98( 67.42%)
                                                  f 0.68( 11.49%)
  81. (0.00000) RY (12) O  1            s(  5.70%)p 0.92(  5.25%)d 7.64( 43.55%)
                                                  f 7.98( 45.49%)
  82. (0.00000) RY (13) O  1            s( 16.96%)p 0.10(  1.64%)d 1.17( 19.84%)
                                                  f 3.63( 61.56%)
  83. (0.00000) RY (14) O  1            s(  5.15%)p 1.33(  6.86%)d 4.91( 25.30%)
                                                  f12.16( 62.69%)
  84. (0.00000) RY (15) O  1            s(  1.94%)p 9.42( 18.26%)d20.08( 38.92%)
                                                  f21.09( 40.88%)
  85. (0.00000) RY (16) O  1            s(  0.39%)p99.99( 61.34%)d62.19( 24.12%)
                                                  f36.49( 14.15%)
  86. (0.00000) RY (17) O  1            s(  1.53%)p 7.82( 11.97%)d48.18( 73.72%)
                                                  f 8.35( 12.78%)
  87. (0.00000) RY (18) O  1            s(  1.25%)p 8.27( 10.34%)d14.37( 17.95%)
                                                  f56.41( 70.47%)
  88. (0.00000) RY (19) O  1            s( 36.80%)p 0.01(  0.47%)d 0.87( 31.91%)
                                                  f 0.84( 30.82%)
  89. (0.00000) RY (20) O  1            s(  0.58%)p 7.45(  4.35%)d99.99( 74.19%)
                                                  f35.74( 20.88%)
  90. (0.00000) RY (21) O  1            s(  2.62%)p 1.34(  3.51%)d12.82( 33.63%)
                                                  f22.96( 60.24%)
  91. (0.00000) RY (22) O  1            s(  3.24%)p 1.39(  4.50%)d13.65( 44.23%)
                                                  f14.82( 48.02%)
  92. (0.00000) RY (23) O  1            s(  4.94%)p 0.67(  3.28%)d 7.07( 34.87%)
                                                  f11.53( 56.91%)
  93. (0.00000) RY (24) O  1            s(  2.09%)p 0.29(  0.60%)d23.33( 48.72%)
                                                  f23.27( 48.59%)
  94. (0.00000) RY (25) O  1            s(  3.46%)p 0.53(  1.84%)d10.25( 35.41%)
                                                  f17.16( 59.30%)
  95. (0.00000) RY (26) O  1            s( 25.60%)p 0.06(  1.51%)d 1.40( 35.86%)
                                                  f 1.45( 37.02%)
  96. (0.01723) RY ( 1) C  2            s(  9.04%)p10.02( 90.50%)d 0.03(  0.32%)
                                                  f 0.02(  0.14%)
                                         0.0000  0.0191  0.2995  0.0167 -0.0006
                                         0.0021  0.0206 -0.0388  0.0714  0.9459
                                         0.0552 -0.0010  0.0125 -0.0021 -0.0206
                                         0.0131 -0.0056  0.0055 -0.0069  0.0031
                                        -0.0210  0.0413 -0.0114  0.0131 -0.0005
                                        -0.0021  0.0264  0.0003 -0.0001 -0.0187
                                         0.0194
  97. (0.00620) RY ( 2) C  2            s(  6.08%)p14.09( 85.70%)d 1.31(  7.96%)
                                                  f 0.04(  0.26%)
                                         0.0000  0.0020  0.2418  0.0482  0.0050
                                        -0.0157 -0.9190 -0.0384 -0.0019 -0.0695
                                         0.0590 -0.0088  0.0479 -0.0049 -0.2324
                                        -0.1027  0.0317 -0.0159 -0.0932  0.0165
                                        -0.0283  0.0509  0.0337 -0.0184  0.0017
                                         0.0117  0.0378 -0.0079  0.0062  0.0276
                                        -0.0125
  98. (0.00542) RY ( 3) C  2            s(  0.16%)p99.99( 35.77%)d99.99( 63.79%)
                                                  f 1.78(  0.28%)
                                         0.0000  0.0001  0.0330  0.0212  0.0065
                                        -0.0043 -0.0796 -0.0586  0.0002 -0.0071
                                         0.0421  0.0642 -0.5501  0.1984 -0.0587
                                        -0.0113 -0.5339  0.1626  0.5628 -0.0748
                                         0.0125 -0.0017 -0.0134  0.0105 -0.0257
                                         0.0044  0.0058  0.0416 -0.0192  0.0020
                                        -0.0009
  99. (0.00228) RY ( 4) C  2            s(  8.10%)p 1.01(  8.17%)d10.26( 83.03%)
                                                  f 0.09(  0.70%)
                                         0.0000  0.0038  0.2375  0.1566  0.0061
                                         0.0219 -0.1730  0.1816  0.0069 -0.0568
                                        -0.1210  0.0028 -0.0183  0.0082  0.7969
                                         0.2607 -0.1356  0.0459 -0.0882  0.0239
                                        -0.2503 -0.0395 -0.1570  0.0985 -0.0123
                                        -0.0512  0.0075  0.0001  0.0082 -0.0639
                                         0.0029
 100. (0.00197) RY ( 5) C  2            s(  0.88%)p 7.65(  6.71%)d99.99( 91.76%)
                                                  f 0.75(  0.66%)
                                         0.0000  0.0009  0.0593  0.0723  0.0061
                                         0.0031 -0.0586  0.0185  0.0009 -0.0117
                                        -0.0007 -0.0135  0.1769 -0.1780  0.1035
                                         0.0399  0.5219 -0.1689  0.7643 -0.1224
                                        -0.0676  0.0091 -0.0196  0.0121  0.0489
                                        -0.0139  0.0068  0.0054 -0.0620 -0.0080
                                         0.0009
 101. (0.00078) RY ( 6) C  2            s( 54.43%)p 0.32( 17.64%)d 0.46( 24.82%)
                                                  f 0.06(  3.11%)
                                         0.0000 -0.0051  0.7174  0.1677 -0.0398
                                        -0.0231  0.2985 -0.1244  0.0030 -0.2394
                                        -0.0408  0.0036 -0.0998  0.0477 -0.2467
                                        -0.1158  0.0830 -0.0338 -0.0687 -0.0129
                                        -0.3393 -0.2096 -0.0425 -0.0124  0.0068
                                        -0.0325 -0.0015  0.0060  0.0092  0.1430
                                         0.0968
 102. (0.00056) RY ( 7) C  2            s(  4.16%)p13.50( 56.09%)d 9.36( 38.88%)
                                                  f 0.21(  0.87%)
                                         0.0000 -0.0020  0.1788 -0.0971 -0.0124
                                        -0.0035  0.0512 -0.0473  0.0046 -0.0619
                                        -0.0901 -0.0228  0.7034 -0.2208 -0.0530
                                        -0.0147 -0.5358  0.1598  0.2221  0.1252
                                         0.0839 -0.0255  0.0165 -0.0142 -0.0529
                                         0.0077 -0.0264 -0.0243 -0.0562  0.0371
                                         0.0014
 103. (0.00038) RY ( 8) C  2            s( 13.70%)p 0.36(  4.94%)d 5.73( 78.54%)
                                                  f 0.21(  2.82%)
                                         0.0000  0.0038  0.3470  0.1283 -0.0125
                                        -0.0082  0.0952 -0.1130  0.0288 -0.1445
                                         0.0217  0.0021 -0.0402  0.0609  0.0121
                                         0.2264  0.0675 -0.0034 -0.0323 -0.0125
                                         0.5837  0.6100 -0.0957  0.0794  0.0052
                                        -0.0909  0.0129  0.0046  0.0073 -0.1297
                                         0.0533
 104. (0.00011) RY ( 9) C  2            s( 32.87%)p 0.96( 31.64%)d 0.59( 19.36%)
                                                  f 0.49( 16.13%)
                                         0.0000  0.0053 -0.2258  0.5267 -0.0167
                                         0.0214 -0.0251 -0.4548 -0.0110  0.0298
                                         0.3141 -0.0032  0.0926 -0.0164  0.1041
                                        -0.1245 -0.0848 -0.1399 -0.0233  0.0203
                                         0.0803 -0.1314 -0.2452  0.2360 -0.0192
                                         0.0425 -0.0778 -0.0372 -0.0175  0.1973
                                         0.3353
 105. (0.00008) RY (10) C  2            s(  0.59%)p99.99( 78.80%)d22.05( 13.05%)
                                                  f12.78(  7.56%)
 106. (0.00005) RY (11) C  2            s(  2.20%)p 8.25( 18.13%)d30.77( 67.66%)
                                                  f 5.46( 12.01%)
 107. (0.00003) RY (12) C  2            s( 27.04%)p 0.31(  8.49%)d 1.27( 34.32%)
                                                  f 1.11( 30.15%)
 108. (0.00002) RY (13) C  2            s(  6.74%)p 6.68( 45.00%)d 2.31( 15.59%)
                                                  f 4.85( 32.66%)
 109. (0.00001) RY (14) C  2            s(  3.94%)p 4.75( 18.73%)d13.04( 51.43%)
                                                  f 6.57( 25.90%)
 110. (0.00001) RY (15) C  2            s( 20.83%)p 1.47( 30.68%)d 1.49( 30.96%)
                                                  f 0.84( 17.53%)
 111. (0.00000) RY (16) C  2            s( 15.17%)p 1.49( 22.56%)d 2.16( 32.78%)
                                                  f 1.94( 29.49%)
 112. (0.00000) RY (17) C  2            s( 15.43%)p 0.03(  0.48%)d 2.15( 33.09%)
                                                  f 3.31( 51.00%)
 113. (0.00000) RY (18) C  2            s( 28.15%)p 0.03(  0.96%)d 0.22(  6.30%)
                                                  f 2.29( 64.59%)
 114. (0.00000) RY (19) C  2            s( 21.05%)p 0.16(  3.31%)d 1.41( 29.67%)
                                                  f 2.18( 45.97%)
 115. (0.00000) RY (20) C  2            s(  1.61%)p 3.11(  5.00%)d39.94( 64.30%)
                                                  f18.07( 29.09%)
 116. (0.00000) RY (21) C  2            s(  0.73%)p 9.28(  6.82%)d91.36( 67.14%)
                                                  f34.43( 25.30%)
 117. (0.00000) RY (22) C  2            s(  1.87%)p 0.84(  1.58%)d19.62( 36.69%)
                                                  f32.02( 59.87%)
 118. (0.00000) RY (23) C  2            s(  8.93%)p 0.67(  5.95%)d 5.35( 47.79%)
                                                  f 4.18( 37.33%)
 119. (0.00000) RY (24) C  2            s(  7.44%)p 2.04( 15.18%)d 5.07( 37.69%)
                                                  f 5.33( 39.69%)
 120. (0.00000) RY (25) C  2            s(  1.06%)p 0.41(  0.44%)d 3.37(  3.57%)
                                                  f89.49( 94.93%)
 121. (0.00000) RY (26) C  2            s(  7.71%)p 0.17(  1.31%)d 2.48( 19.13%)
                                                  f 9.32( 71.85%)
 122. (0.00602) RY ( 1) C  3            s(  0.86%)p99.99( 92.60%)d 7.30(  6.27%)
                                                  f 0.31(  0.27%)
                                         0.0000 -0.0032  0.0921 -0.0052  0.0081
                                        -0.0086 -0.1263 -0.0164 -0.0046  0.0048
                                        -0.0250 -0.0570  0.9507 -0.0446 -0.0275
                                        -0.0040 -0.2351  0.0385 -0.0322 -0.0547
                                         0.0176  0.0262 -0.0115  0.0052 -0.0417
                                         0.0012  0.0014  0.0295  0.0067 -0.0027
                                         0.0006
 123. (0.00512) RY ( 2) C  3            s( 37.63%)p 1.41( 53.17%)d 0.24(  9.16%)
                                                  f 0.00(  0.04%)
                                         0.0000 -0.0174  0.6132  0.0046  0.0020
                                        -0.0568 -0.6516 -0.1573 -0.0269  0.1630
                                        -0.1633  0.0070 -0.1583  0.0063 -0.1778
                                        -0.0577  0.0326 -0.0029  0.0047  0.0044
                                         0.1038  0.2065 -0.0276  0.0366  0.0069
                                        -0.0070  0.0083 -0.0049 -0.0005 -0.0142
                                        -0.0011
 124. (0.00296) RY ( 3) C  3            s(  1.73%)p54.60( 94.45%)d 1.54(  2.67%)
                                                  f 0.67(  1.16%)
                                         0.0000 -0.0177  0.1296  0.0081  0.0107
                                        -0.0307 -0.0704 -0.0861 -0.0264 -0.9212
                                        -0.2853  0.0004 -0.0197 -0.0023  0.0455
                                         0.0319  0.0057 -0.0014  0.0102 -0.0047
                                        -0.0580 -0.1286 -0.0557  0.0206 -0.0005
                                        -0.0354 -0.0151 -0.0013 -0.0018  0.0985
                                         0.0196
 125. (0.00097) RY ( 4) C  3            s( 43.94%)p 1.19( 52.27%)d 0.03(  1.31%)
                                                  f 0.06(  2.48%)
                                         0.0000  0.0012  0.6473 -0.1430 -0.0029
                                         0.0118  0.6539  0.2043 -0.0049  0.0893
                                        -0.2107  0.0001  0.0270  0.0099 -0.0271
                                         0.0652  0.0331 -0.0053  0.0135 -0.0121
                                         0.0164  0.0660 -0.0452 -0.0003 -0.0027
                                        -0.0509  0.0071 -0.0062 -0.0113  0.1014
                                        -0.1082
 126. (0.00029) RY ( 5) C  3            s( 12.55%)p 1.47( 18.43%)d 4.86( 61.01%)
                                                  f 0.64(  8.01%)
                                         0.0000  0.0131  0.2493  0.2482 -0.0398
                                        -0.0286 -0.0668  0.0797  0.0070 -0.0545
                                         0.4118 -0.0004 -0.0070  0.0030  0.5198
                                        -0.3074 -0.0496 -0.0630  0.0720 -0.0516
                                        -0.4695  0.0431 -0.0415  0.0840  0.0144
                                        -0.0026 -0.0048 -0.0349  0.0123 -0.0003
                                        -0.2802
 127. (0.00023) RY ( 6) C  3            s(  7.43%)p 8.18( 60.82%)d 3.92( 29.16%)
                                                  f 0.35(  2.59%)
                                         0.0000  0.0024  0.0989  0.2541 -0.0044
                                        -0.0055  0.1865 -0.7308 -0.0022  0.0188
                                         0.1825 -0.0021  0.0744  0.0130  0.1856
                                         0.2891  0.2816  0.0964  0.0727 -0.0706
                                         0.2568 -0.0387 -0.0451  0.0724 -0.0384
                                        -0.0117  0.0220 -0.0107 -0.0958 -0.0660
                                        -0.1005
 128. (0.00021) RY ( 7) C  3            s(  0.85%)p10.09(  8.59%)d93.77( 79.80%)
                                                  f12.64( 10.76%)
                                         0.0000 -0.0006  0.0309  0.0862 -0.0109
                                        -0.0003  0.0773 -0.2113 -0.0014  0.0176
                                         0.0191  0.0039 -0.1490 -0.1112  0.0308
                                         0.1650 -0.7210 -0.4767  0.0172  0.0370
                                         0.1368 -0.0260 -0.0405  0.0088  0.1477
                                        -0.0152  0.0126 -0.1211  0.2644  0.0056
                                        -0.0278
 129. (0.00015) RY ( 8) C  3            s(  0.33%)p17.06(  5.60%)d99.99( 79.01%)
                                                  f45.85( 15.06%)
                                         0.0000  0.0003 -0.0288  0.0496 -0.0007
                                         0.0009 -0.0389  0.1558  0.0006  0.0102
                                        -0.0999 -0.0060  0.0785 -0.1181  0.0288
                                        -0.0669  0.2526 -0.3817  0.5886 -0.4483
                                         0.1332 -0.0486  0.0605 -0.0640  0.0685
                                         0.0313  0.0271 -0.3503 -0.0599 -0.0806
                                         0.1067
 130. (0.00013) RY ( 9) C  3            s(  1.30%)p16.26( 21.14%)d53.67( 69.76%)
                                                  f 6.00(  7.80%)
                                         0.0000  0.0047  0.0165  0.1054  0.0400
                                        -0.0168 -0.1107  0.2496  0.0095  0.1098
                                        -0.3489  0.0012 -0.0200  0.0471  0.6229
                                        -0.0088 -0.0457  0.1028 -0.1156  0.0909
                                         0.4385 -0.2867 -0.0254 -0.0117 -0.0159
                                         0.0849  0.1196  0.0796  0.0006 -0.2226
                                        -0.0192
 131. (0.00004) RY (10) C  3            s(  6.18%)p 7.95( 49.15%)d 4.01( 24.82%)
                                                  f 3.21( 19.85%)
 132. (0.00004) RY (11) C  3            s(  1.09%)p 8.70(  9.47%)d56.71( 61.73%)
                                                  f25.46( 27.72%)
 133. (0.00001) RY (12) C  3            s( 21.63%)p 0.28(  5.98%)d 2.98( 64.51%)
                                                  f 0.36(  7.88%)
 134. (0.00001) RY (13) C  3            s(  2.86%)p 5.59( 15.99%)d20.49( 58.56%)
                                                  f 7.91( 22.60%)
 135. (0.00001) RY (14) C  3            s(  0.86%)p17.12( 14.73%)d81.02( 69.70%)
                                                  f17.11( 14.72%)
 136. (0.00001) RY (15) C  3            s( 41.90%)p 0.24( 10.01%)d 0.98( 41.24%)
                                                  f 0.16(  6.85%)
 137. (0.00000) RY (16) C  3            s( 12.55%)p 2.13( 26.79%)d 1.93( 24.27%)
                                                  f 2.90( 36.40%)
 138. (0.00000) RY (17) C  3            s(  1.31%)p 1.60(  2.11%)d58.72( 77.10%)
                                                  f14.84( 19.48%)
 139. (0.00000) RY (18) C  3            s(  3.11%)p 0.48(  1.48%)d 4.24( 13.21%)
                                                  f26.39( 82.19%)
 140. (0.00000) RY (19) C  3            s(  5.17%)p 0.03(  0.15%)d 1.77(  9.14%)
                                                  f16.56( 85.54%)
 141. (0.00000) RY (20) C  3            s( 30.48%)p 0.01(  0.30%)d 1.39( 42.39%)
                                                  f 0.88( 26.83%)
 142. (0.00000) RY (21) C  3            s(  2.40%)p 1.31(  3.15%)d 9.89( 23.72%)
                                                  f29.47( 70.72%)
 143. (0.00000) RY (22) C  3            s( 21.49%)p 0.03(  0.70%)d 0.98( 21.03%)
                                                  f 2.64( 56.77%)
 144. (0.00000) RY (23) C  3            s( 21.15%)p 0.82( 17.27%)d 1.17( 24.71%)
                                                  f 1.74( 36.87%)
 145. (0.00000) RY (24) C  3            s( 13.49%)p 0.56(  7.50%)d 5.13( 69.18%)
                                                  f 0.73(  9.83%)
 146. (0.00000) RY (25) C  3            s(  6.39%)p 4.42( 28.24%)d 2.72( 17.36%)
                                                  f 7.52( 48.01%)
 147. (0.00000) RY (26) C  3            s(  1.23%)p 0.34(  0.42%)d15.32( 18.91%)
                                                  f64.39( 79.44%)
 148. (0.00731) RY ( 1) N  4            s(  7.62%)p11.68( 88.98%)d 0.43(  3.31%)
                                                  f 0.01(  0.09%)
                                         0.0000  0.0088  0.2677 -0.0667 -0.0023
                                         0.0112  0.0289 -0.0095  0.0403 -0.9413
                                         0.0274  0.0002 -0.0169  0.0022  0.0176
                                        -0.0012 -0.0011  0.0014  0.0018 -0.0011
                                        -0.0693  0.1442 -0.0844  0.0076  0.0004
                                        -0.0003  0.0197  0.0001 -0.0001 -0.0056
                                        -0.0227
 149. (0.00226) RY ( 2) N  4            s(  6.41%)p14.23( 91.21%)d 0.36(  2.28%)
                                                  f 0.02(  0.10%)
                                         0.0000 -0.0049  0.2529 -0.0104 -0.0006
                                        -0.0225 -0.9368  0.1111  0.0128  0.0456
                                        -0.0144  0.0016 -0.1378 -0.0166 -0.0361
                                         0.1199 -0.0475 -0.0278  0.0108 -0.0049
                                         0.0273 -0.0131 -0.0554 -0.0015  0.0063
                                         0.0035  0.0016 -0.0011  0.0065 -0.0281
                                        -0.0103
 150. (0.00123) RY ( 3) N  4            s(  2.00%)p21.11( 42.20%)d27.67( 55.32%)
                                                  f 0.24(  0.48%)
                                         0.0000 -0.0029  0.1397  0.0212  0.0027
                                         0.0072  0.1687 -0.0339  0.0034  0.0508
                                        -0.0170  0.0153 -0.6112 -0.1251  0.0427
                                        -0.0359 -0.6163 -0.3806  0.1405 -0.0614
                                         0.0340 -0.0192 -0.0134 -0.0093  0.0294
                                         0.0007 -0.0075 -0.0051  0.0607  0.0118
                                         0.0058
 151. (0.00070) RY ( 4) N  4            s( 79.64%)p 0.18( 14.36%)d 0.07(  5.73%)
                                                  f 0.00(  0.27%)
                                         0.0000 -0.0142  0.8880 -0.0869  0.0126
                                         0.0044  0.2376 -0.0397  0.0323  0.2554
                                        -0.1273 -0.0032  0.0546  0.0105 -0.0921
                                        -0.0221  0.1586  0.1005 -0.0374  0.0122
                                        -0.0086 -0.0830 -0.0663 -0.0112 -0.0025
                                         0.0067 -0.0229  0.0003 -0.0163 -0.0252
                                        -0.0343
 152. (0.00032) RY ( 5) N  4            s(  0.73%)p79.28( 57.88%)d56.43( 41.19%)
                                                  f 0.27(  0.20%)
                                         0.0000 -0.0017  0.0850  0.0078  0.0027
                                        -0.0074 -0.0372  0.0069  0.0033  0.0091
                                        -0.0244  0.0240  0.7590  0.0024 -0.0916
                                         0.0576 -0.5526 -0.2970  0.0778  0.0128
                                         0.0120  0.0139 -0.0093 -0.0076 -0.0351
                                         0.0128 -0.0024 -0.0060  0.0091 -0.0107
                                        -0.0185
 153. (0.00018) RY ( 6) N  4            s(  2.20%)p 1.75(  3.86%)d39.78( 87.62%)
                                                  f 2.87(  6.32%)
                                         0.0000 -0.0070  0.0797  0.1217 -0.0284
                                         0.0370 -0.0206 -0.1192 -0.0263 -0.1151
                                        -0.0618  0.0012  0.0681  0.0139  0.5202
                                         0.0450  0.0057  0.0221 -0.0107  0.0149
                                         0.6221 -0.3918  0.2472 -0.0322 -0.0108
                                         0.0318 -0.0682  0.0031 -0.0065  0.0481
                                         0.2346
 154. (0.00014) RY ( 7) N  4            s(  0.45%)p13.30(  5.92%)d99.99( 84.35%)
                                                  f20.86(  9.28%)
                                         0.0000 -0.0129 -0.0233  0.0608 -0.0066
                                        -0.0274  0.1143 -0.0482 -0.0070 -0.0392
                                         0.1837 -0.0018 -0.0803  0.0358 -0.5064
                                         0.6735  0.0291  0.0120  0.0026 -0.0041
                                         0.3617  0.0158  0.0385  0.0004  0.0040
                                         0.0239  0.0024 -0.0009  0.0131 -0.2894
                                         0.0910
 155. (0.00006) RY ( 8) N  4            s(  1.26%)p16.38( 20.64%)d49.48( 62.38%)
                                                  f12.47( 15.72%)
 156. (0.00003) RY ( 9) N  4            s( 14.47%)p 0.22(  3.22%)d 5.60( 81.08%)
                                                  f 0.08(  1.23%)
 157. (0.00002) RY (10) N  4            s(  3.62%)p 1.59(  5.73%)d24.20( 87.54%)
                                                  f 0.86(  3.11%)
 158. (0.00001) RY (11) N  4            s( 62.54%)p 0.22( 13.83%)d 0.24( 14.99%)
                                                  f 0.14(  8.65%)
 159. (0.00001) RY (12) N  4            s(  3.58%)p17.17( 61.49%)d 8.42( 30.15%)
                                                  f 1.33(  4.78%)
 160. (0.00001) RY (13) N  4            s(  2.38%)p13.95( 33.20%)d25.67( 61.09%)
                                                  f 1.40(  3.33%)
 161. (0.00000) RY (14) N  4            s(  3.45%)p17.13( 59.10%)d 9.05( 31.25%)
                                                  f 1.80(  6.21%)
 162. (0.00000) RY (15) N  4            s( 52.10%)p 0.01(  0.72%)d 0.48( 24.87%)
                                                  f 0.43( 22.31%)
 163. (0.00000) RY (16) N  4            s(  0.81%)p 0.87(  0.71%)d47.62( 38.62%)
                                                  f73.81( 59.86%)
 164. (0.00000) RY (17) N  4            s(  0.67%)p 4.12(  2.78%)d56.83( 38.35%)
                                                  f86.24( 58.19%)
 165. (0.00000) RY (18) N  4            s( 11.59%)p 0.07(  0.77%)d 0.66(  7.66%)
                                                  f 6.90( 79.98%)
 166. (0.00000) RY (19) N  4            s(  8.98%)p 0.24(  2.19%)d 1.49( 13.34%)
                                                  f 8.41( 75.49%)
 167. (0.00000) RY (20) N  4            s(  1.83%)p 1.00(  1.83%)d27.59( 50.49%)
                                                  f25.06( 45.86%)
 168. (0.00000) RY (21) N  4            s( 16.88%)p 0.22(  3.78%)d 1.60( 26.95%)
                                                  f 3.10( 52.39%)
 169. (0.00000) RY (22) N  4            s(  8.62%)p 0.53(  4.60%)d 6.27( 54.00%)
                                                  f 3.80( 32.78%)
 170. (0.00000) RY (23) N  4            s(  0.10%)p12.13(  1.24%)d99.99( 19.66%)
                                                  f99.99( 78.99%)
 171. (0.00000) RY (24) N  4            s(  1.58%)p 3.59(  5.68%)d20.01( 31.66%)
                                                  f38.61( 61.08%)
 172. (0.00000) RY (25) N  4            s(  3.14%)p 3.43( 10.76%)d 6.23( 19.56%)
                                                  f21.20( 66.54%)
 173. (0.00000) RY (26) N  4            s(  3.47%)p18.63( 64.60%)d 7.29( 25.26%)
                                                  f 1.92(  6.67%)
 174. (0.00847) RY ( 1) C  5            s( 60.92%)p 0.51( 31.32%)d 0.13(  7.69%)
                                                  f 0.00(  0.06%)
                                         0.0000 -0.0195  0.7793  0.0394  0.0055
                                         0.0495  0.5226  0.0590 -0.0476  0.0772
                                        -0.0994  0.0097 -0.1250  0.0197  0.1430
                                         0.0065  0.0126  0.0055 -0.0007  0.0095
                                         0.1554  0.1776  0.0016  0.0220  0.0031
                                         0.0134  0.0027  0.0049 -0.0033  0.0191
                                        -0.0007
 175. (0.00388) RY ( 2) C  5            s(  0.84%)p99.99( 96.17%)d 3.33(  2.81%)
                                                  f 0.21(  0.18%)
                                         0.0000  0.0030  0.0882  0.0251 -0.0034
                                        -0.0009 -0.2741 -0.0152  0.0027 -0.1793
                                        -0.0028  0.0288 -0.9165  0.1157 -0.0699
                                         0.0075 -0.0456  0.0532  0.0275  0.0883
                                        -0.0470 -0.0714 -0.0359  0.0328  0.0346
                                        -0.0054  0.0038  0.0174  0.0034 -0.0141
                                        -0.0045
 176. (0.00329) RY ( 3) C  5            s(  3.18%)p28.58( 90.95%)d 1.64(  5.21%)
                                                  f 0.20(  0.65%)
                                         0.0000 -0.0232  0.1404 -0.1068  0.0128
                                         0.0286 -0.0009  0.1743 -0.0098 -0.8904
                                        -0.2106 -0.0028  0.1986 -0.0399 -0.0040
                                        -0.0286  0.0363 -0.0102 -0.0203  0.0148
                                        -0.0534 -0.1992 -0.0753  0.0321 -0.0005
                                         0.0404 -0.0089 -0.0072 -0.0121 -0.0606
                                         0.0304
 177. (0.00083) RY ( 4) C  5            s( 17.86%)p 2.41( 43.13%)d 2.05( 36.65%)
                                                  f 0.13(  2.36%)
                                         0.0000  0.0089  0.4023  0.1288  0.0079
                                        -0.0092 -0.5922  0.0066 -0.0020  0.1172
                                         0.0438  0.0115  0.1683 -0.1905 -0.0558
                                        -0.0227  0.5482  0.1156 -0.1231  0.1133
                                         0.0424  0.0065 -0.0804  0.1127  0.0129
                                        -0.0425  0.0007  0.0225 -0.1441  0.0140
                                        -0.0139
 178. (0.00033) RY ( 5) C  5            s( 22.13%)p 0.67( 14.76%)d 2.34( 51.88%)
                                                  f 0.51( 11.22%)
                                         0.0000 -0.0054 -0.1603  0.4419  0.0180
                                        -0.0086  0.2934 -0.1064  0.0076 -0.0923
                                         0.1991  0.0073 -0.0276 -0.0333  0.2260
                                         0.4048  0.1497  0.0808 -0.1464  0.3187
                                        -0.1637 -0.1998 -0.2218  0.1897  0.0658
                                        -0.2071 -0.0533 -0.0116 -0.1079  0.2208
                                         0.0405
 179. (0.00017) RY ( 6) C  5            s(  3.22%)p 5.21( 16.77%)d20.22( 65.15%)
                                                  f 4.61( 14.86%)
                                         0.0000  0.0134  0.1447 -0.0490 -0.0933
                                         0.0259  0.2041 -0.2295  0.0037  0.0075
                                         0.2233  0.0037 -0.0291 -0.1481 -0.4072
                                         0.1889  0.2186 -0.0521  0.0530 -0.1754
                                        -0.4222 -0.3213  0.1899 -0.2198 -0.0742
                                         0.1436  0.1685  0.0356  0.0311 -0.1232
                                        -0.2769
 180. (0.00011) RY ( 7) C  5            s( 25.47%)p 1.07( 27.16%)d 1.52( 38.69%)
                                                  f 0.34(  8.68%)
                                         0.0000  0.0020  0.1818  0.4703 -0.0230
                                         0.0114 -0.1571 -0.2249 -0.0001 -0.1631
                                         0.2458 -0.0049  0.1702  0.2831 -0.3010
                                        -0.0872 -0.3755 -0.1232 -0.0662  0.0241
                                        -0.1098  0.3191 -0.0836  0.0818 -0.1081
                                        -0.0834 -0.0867  0.0810  0.1173 -0.1788
                                        -0.0914
 181. (0.00009) RY ( 8) C  5            s(  3.73%)p 6.27( 23.39%)d17.89( 66.72%)
                                                  f 1.65(  6.15%)
 182. (0.00006) RY ( 9) C  5            s(  7.06%)p 2.65( 18.70%)d 9.93( 70.11%)
                                                  f 0.58(  4.13%)
 183. (0.00005) RY (10) C  5            s(  3.55%)p 3.97( 14.11%)d15.47( 54.96%)
                                                  f 7.71( 27.38%)
 184. (0.00004) RY (11) C  5            s(  7.93%)p 1.58( 12.51%)d 6.83( 54.13%)
                                                  f 3.21( 25.42%)
 185. (0.00002) RY (12) C  5            s(  4.10%)p 2.81( 11.53%)d17.38( 71.20%)
                                                  f 3.21( 13.17%)
 186. (0.00001) RY (13) C  5            s(  3.78%)p 2.77( 10.47%)d18.49( 69.90%)
                                                  f 4.19( 15.85%)
 187. (0.00001) RY (14) C  5            s(  5.03%)p 6.57( 33.05%)d 9.93( 49.98%)
                                                  f 2.37( 11.93%)
 188. (0.00000) RY (15) C  5            s(  2.69%)p20.63( 55.49%)d 7.64( 20.53%)
                                                  f 7.91( 21.29%)
 189. (0.00000) RY (16) C  5            s(  0.92%)p 0.48(  0.44%)d22.21( 20.51%)
                                                  f84.60( 78.13%)
 190. (0.00000) RY (17) C  5            s(  3.99%)p 0.47(  1.87%)d 5.34( 21.32%)
                                                  f18.23( 72.81%)
 191. (0.00000) RY (18) C  5            s( 38.31%)p 0.08(  3.21%)d 0.64( 24.35%)
                                                  f 0.89( 34.14%)
 192. (0.00000) RY (19) C  5            s(  3.95%)p 2.35(  9.27%)d 6.72( 26.51%)
                                                  f15.27( 60.27%)
 193. (0.00000) RY (20) C  5            s( 50.33%)p 0.05(  2.69%)d 0.23( 11.74%)
                                                  f 0.70( 35.24%)
 194. (0.00000) RY (21) C  5            s(  1.74%)p 4.24(  7.36%)d 8.28( 14.38%)
                                                  f44.07( 76.52%)
 195. (0.00000) RY (22) C  5            s(  5.16%)p 2.96( 15.29%)d 5.70( 29.40%)
                                                  f 9.71( 50.14%)
 196. (0.00000) RY (23) C  5            s(  7.75%)p 0.34(  2.62%)d 4.85( 37.56%)
                                                  f 6.72( 52.08%)
 197. (0.00000) RY (24) C  5            s(  9.44%)p 4.10( 38.65%)d 4.06( 38.30%)
                                                  f 1.44( 13.61%)
 198. (0.00000) RY (25) C  5            s(  6.55%)p 2.88( 18.90%)d 6.71( 43.99%)
                                                  f 4.66( 30.56%)
 199. (0.00000) RY (26) C  5            s(  0.20%)p 3.95(  0.77%)d99.99( 66.00%)
                                                  f99.99( 33.04%)
 200. (0.00288) RY ( 1) C  6            s(  5.30%)p16.33( 86.54%)d 1.43(  7.59%)
                                                  f 0.11(  0.57%)
                                         0.0000  0.0000  0.2261  0.0418 -0.0111
                                         0.0152 -0.7092 -0.0325 -0.0037  0.3503
                                         0.0052 -0.0323  0.4756  0.1051  0.0109
                                         0.0789  0.1683  0.0522 -0.0278 -0.0517
                                        -0.0051 -0.0753 -0.1153 -0.1269 -0.0038
                                         0.0095 -0.0136 -0.0304  0.0264 -0.0141
                                         0.0601
 201. (0.00183) RY ( 2) C  6            s(  4.22%)p18.01( 75.92%)d 4.61( 19.43%)
                                                  f 0.10(  0.43%)
                                         0.0000  0.0001  0.2031 -0.0296  0.0050
                                         0.0089  0.5366 -0.0098 -0.0050  0.0324
                                         0.0673 -0.0079  0.6822  0.0072  0.0804
                                        -0.2604  0.0213 -0.1092 -0.0115 -0.2652
                                        -0.0637  0.1151  0.0199 -0.1398 -0.0002
                                         0.0108  0.0287 -0.0321  0.0154  0.0356
                                        -0.0280
 202. (0.00127) RY ( 3) C  6            s( 14.45%)p 4.56( 65.91%)d 1.31( 18.99%)
                                                  f 0.05(  0.66%)
                                         0.0000  0.0008  0.3770  0.0467  0.0115
                                         0.0015 -0.1564 -0.0770 -0.0107 -0.7825
                                         0.0678 -0.0180  0.0683  0.0822  0.0576
                                        -0.0462  0.2012  0.2101 -0.0589  0.1731
                                        -0.0424  0.2375 -0.0902  0.0036 -0.0008
                                        -0.0082 -0.0332 -0.0573  0.0340  0.0075
                                         0.0300
 203. (0.00070) RY ( 4) C  6            s( 11.01%)p 3.36( 36.95%)d 4.59( 50.55%)
                                                  f 0.14(  1.49%)
                                         0.0000  0.0006  0.3283 -0.0295  0.0379
                                        -0.0027  0.0586 -0.2513  0.0042  0.3745
                                        -0.2158 -0.0145 -0.3349  0.0607  0.1107
                                        -0.4225  0.2238  0.0995 -0.0238  0.2541
                                        -0.1673  0.2796  0.1725 -0.2317  0.0550
                                         0.0218  0.0289 -0.0012  0.0507  0.0010
                                        -0.0892
 204. (0.00048) RY ( 5) C  6            s( 12.66%)p 0.87( 11.04%)d 5.90( 74.69%)
                                                  f 0.13(  1.61%)
                                         0.0000  0.0013  0.3547  0.0232  0.0162
                                        -0.0022  0.0334 -0.1389 -0.0078 -0.0400
                                        -0.0077 -0.0137 -0.2952  0.0306 -0.1017
                                         0.0017  0.3424 -0.0713  0.2663 -0.6261
                                        -0.0445 -0.3489 -0.0327  0.1629 -0.0593
                                        -0.0007  0.0978 -0.0090  0.0510  0.0025
                                         0.0181
 205. (0.00030) RY ( 6) C  6            s( 12.37%)p 2.14( 26.53%)d 4.74( 58.58%)
                                                  f 0.20(  2.51%)
                                         0.0000  0.0008  0.3232 -0.1384  0.0090
                                         0.0074  0.2706 -0.2965  0.0025  0.1739
                                        -0.2380 -0.0080  0.1013 -0.0830 -0.0637
                                         0.6340 -0.0243  0.2390 -0.1229  0.1814
                                         0.0726  0.0163 -0.0197  0.2611 -0.0391
                                        -0.0637  0.0350 -0.0426 -0.0062  0.1230
                                        -0.0358
 206. (0.00014) RY ( 7) C  6            s(  4.55%)p11.29( 51.38%)d 4.04( 18.39%)
                                                  f 5.64( 25.68%)
                                         0.0000 -0.0072 -0.1440  0.0391  0.1523
                                         0.0047  0.0026 -0.4205  0.0000  0.0255
                                         0.5774  0.0036  0.0079  0.0529  0.3129
                                         0.0814  0.0897 -0.0338  0.0287  0.1216
                                        -0.1384 -0.1856 -0.0078  0.0289 -0.0079
                                         0.1310 -0.0515  0.0022 -0.0155  0.1678
                                        -0.4567
 207. (0.00010) RY ( 8) C  6            s( 15.58%)p 1.46( 22.74%)d 2.55( 39.65%)
                                                  f 1.41( 22.03%)
 208. (0.00008) RY ( 9) C  6            s(  6.93%)p 1.17(  8.08%)d10.59( 73.42%)
                                                  f 1.67( 11.58%)
 209. (0.00006) RY (10) C  6            s( 18.34%)p 1.71( 31.27%)d 1.76( 32.35%)
                                                  f 0.98( 18.03%)
 210. (0.00004) RY (11) C  6            s( 10.83%)p 4.51( 48.84%)d 2.90( 31.41%)
                                                  f 0.82(  8.93%)
 211. (0.00001) RY (12) C  6            s(  6.67%)p 3.17( 21.15%)d10.37( 69.10%)
                                                  f 0.46(  3.08%)
 212. (0.00000) RY (13) C  6            s( 41.40%)p 0.85( 35.08%)d 0.40( 16.73%)
                                                  f 0.16(  6.80%)
 213. (0.00000) RY (14) C  6            s(  8.97%)p 0.46(  4.08%)d 5.20( 46.68%)
                                                  f 4.49( 40.26%)
 214. (0.00000) RY (15) C  6            s( 16.35%)p 1.48( 24.15%)d 3.03( 49.55%)
                                                  f 0.61(  9.95%)
 215. (0.00000) RY (16) C  6            s(  0.50%)p 0.70(  0.35%)d44.59( 22.46%)
                                                  f99.99( 76.68%)
 216. (0.00000) RY (17) C  6            s(  0.34%)p 3.17(  1.07%)d86.13( 29.15%)
                                                  f99.99( 69.44%)
 217. (0.00000) RY (18) C  6            s(  5.39%)p 0.12(  0.66%)d 7.79( 42.00%)
                                                  f 9.64( 51.95%)
 218. (0.00000) RY (19) C  6            s(  3.24%)p 0.57(  1.83%)d11.12( 36.05%)
                                                  f18.16( 58.87%)
 219. (0.00000) RY (20) C  6            s( 12.89%)p 0.45(  5.82%)d 2.44( 31.46%)
                                                  f 3.86( 49.83%)
 220. (0.00000) RY (21) C  6            s( 15.89%)p 0.08(  1.20%)d 3.91( 62.22%)
                                                  f 1.30( 20.69%)
 221. (0.00000) RY (22) C  6            s(  5.25%)p 0.87(  4.57%)d12.96( 68.04%)
                                                  f 4.22( 22.14%)
 222. (0.00000) RY (23) C  6            s( 16.70%)p 0.27(  4.48%)d 0.41(  6.90%)
                                                  f 4.31( 71.91%)
 223. (0.00000) RY (24) C  6            s( 33.23%)p 0.22(  7.15%)d 0.65( 21.66%)
                                                  f 1.14( 37.96%)
 224. (0.00000) RY (25) C  6            s(  8.91%)p 1.80( 16.07%)d 3.68( 32.81%)
                                                  f 4.74( 42.21%)
 225. (0.00000) RY (26) C  6            s(  7.98%)p 0.94(  7.48%)d 5.00( 39.90%)
                                                  f 5.60( 44.64%)
 226. (0.00224) RY ( 1) C  7            s(  6.43%)p14.09( 90.59%)d 0.45(  2.89%)
                                                  f 0.01(  0.09%)
                                         0.0000 -0.0007  0.2531 -0.0144  0.0017
                                        -0.0067  0.8607  0.0165 -0.0002  0.4002
                                        -0.0014  0.0014  0.0684  0.0010  0.0816
                                         0.1283  0.0380 -0.0107  0.0087 -0.0014
                                        -0.0435 -0.0140  0.0192 -0.0414  0.0034
                                        -0.0192 -0.0067  0.0050  0.0028 -0.0069
                                        -0.0199
 227. (0.00138) RY ( 2) C  7            s( 16.88%)p 4.29( 72.48%)d 0.61( 10.28%)
                                                  f 0.02(  0.36%)
                                         0.0000  0.0024  0.4107 -0.0082 -0.0020
                                         0.0025 -0.2599 -0.0243  0.0073  0.4351
                                        -0.0155  0.0184 -0.6826 -0.0266 -0.0896
                                        -0.0358  0.1533  0.0407 -0.1578 -0.1953
                                         0.0068 -0.0167 -0.0698 -0.0114  0.0274
                                        -0.0227 -0.0139  0.0387 -0.0198  0.0023
                                        -0.0171
 228. (0.00028) RY ( 3) C  7            s(  9.02%)p 6.91( 62.37%)d 2.69( 24.26%)
                                                  f 0.48(  4.34%)
                                         0.0000  0.0019  0.2977  0.0399  0.0002
                                         0.0064 -0.2988 -0.0888  0.0139  0.3784
                                        -0.0821  0.0129  0.6134 -0.0002 -0.1988
                                        -0.0928  0.3815 -0.1746  0.1204 -0.0043
                                        -0.0463 -0.0017  0.0413  0.0102 -0.0205
                                        -0.0381  0.0664 -0.0659 -0.1764 -0.0111
                                         0.0401
 229. (0.00022) RY ( 4) C  7            s(  0.51%)p13.68(  6.94%)d99.99( 85.57%)
                                                  f13.79(  6.99%)
                                         0.0000 -0.0060  0.0251  0.0652 -0.0122
                                        -0.0250  0.0317  0.1047  0.0025 -0.2258
                                         0.0677  0.0175  0.0281  0.0107  0.0938
                                         0.3775  0.3361 -0.0467  0.1648 -0.3236
                                         0.1434 -0.1693 -0.6328  0.0878  0.0964
                                        -0.0612  0.1289  0.1227 -0.0436 -0.1526
                                        -0.0051
 230. (0.00015) RY ( 5) C  7            s( 34.35%)p 0.75( 25.75%)d 0.85( 29.04%)
                                                  f 0.32( 10.86%)
                                         0.0000  0.0041  0.5851 -0.0222 -0.0248
                                        -0.0018  0.0589 -0.2696 -0.0150 -0.4154
                                         0.0123 -0.0020  0.0491  0.0778 -0.1575
                                         0.0640 -0.1020  0.0865 -0.1392  0.1735
                                         0.4278  0.0391 -0.0072  0.0978 -0.1374
                                         0.0402 -0.0858 -0.1686 -0.0899  0.0090
                                        -0.2101
 231. (0.00007) RY ( 6) C  7            s(  7.16%)p 2.26( 16.15%)d 8.69( 62.24%)
                                                  f 2.02( 14.46%)
 232. (0.00005) RY ( 7) C  7            s(  9.94%)p 3.23( 32.11%)d 4.14( 41.15%)
                                                  f 1.69( 16.79%)
 233. (0.00004) RY ( 8) C  7            s(  8.87%)p 2.55( 22.63%)d 5.73( 50.79%)
                                                  f 2.00( 17.71%)
 234. (0.00002) RY ( 9) C  7            s(  7.83%)p 1.90( 14.85%)d 8.53( 66.81%)
                                                  f 1.34( 10.51%)
 235. (0.00001) RY (10) C  7            s(  8.74%)p 5.44( 47.56%)d 4.46( 38.99%)
                                                  f 0.54(  4.72%)
 236. (0.00000) RY (11) C  7            s( 28.90%)p 0.63( 18.11%)d 1.00( 28.91%)
                                                  f 0.83( 24.09%)
 237. (0.00000) RY (12) C  7            s(  8.47%)p 4.26( 36.05%)d 4.42( 37.40%)
                                                  f 2.13( 18.08%)
 238. (0.00000) RY (13) C  7            s( 35.02%)p 0.34( 11.78%)d 1.11( 38.78%)
                                                  f 0.41( 14.41%)
 239. (0.00000) RY (14) C  7            s( 13.55%)p 1.30( 17.61%)d 2.02( 27.38%)
                                                  f 3.06( 41.46%)
 240. (0.00000) RY (15) C  7            s(  8.68%)p 3.40( 29.56%)d 5.47( 47.52%)
                                                  f 1.64( 14.24%)
 241. (0.00000) RY (16) C  7            s(  2.76%)p10.72( 29.59%)d10.96( 30.25%)
                                                  f13.54( 37.39%)
 242. (0.00000) RY (17) C  7            s(  0.90%)p 1.93(  1.73%)d26.50( 23.83%)
                                                  f81.78( 73.54%)
 243. (0.00000) RY (18) C  7            s( 20.01%)p 0.02(  0.41%)d 1.48( 29.65%)
                                                  f 2.50( 49.93%)
 244. (0.00000) RY (19) C  7            s(  0.79%)p 4.77(  3.75%)d84.39( 66.34%)
                                                  f37.05( 29.12%)
 245. (0.00000) RY (20) C  7            s(  0.70%)p 1.09(  0.76%)d30.46( 21.29%)
                                                  f99.99( 77.25%)
 246. (0.00000) RY (21) C  7            s(  5.62%)p 1.10(  6.17%)d10.59( 59.48%)
                                                  f 5.12( 28.74%)
 247. (0.00000) RY (22) C  7            s(  3.66%)p 3.14( 11.49%)d11.24( 41.14%)
                                                  f11.95( 43.72%)
 248. (0.00000) RY (23) C  7            s( 10.07%)p 0.04(  0.37%)d 3.37( 33.90%)
                                                  f 5.53( 55.66%)
 249. (0.00000) RY (24) C  7            s( 21.45%)p 1.14( 24.50%)d 2.05( 43.96%)
                                                  f 0.47( 10.09%)
 250. (0.00000) RY (25) C  7            s(  2.03%)p 5.09( 10.32%)d23.97( 48.62%)
                                                  f19.24( 39.03%)
 251. (0.00000) RY (26) C  7            s( 27.76%)p 0.25(  6.92%)d 0.32(  8.98%)
                                                  f 2.03( 56.34%)
 252. (0.00154) RY ( 1) C  8            s(  0.97%)p95.37( 92.52%)d 6.36(  6.17%)
                                                  f 0.35(  0.34%)
                                         0.0000  0.0018  0.0953  0.0232 -0.0084
                                         0.0041 -0.3247 -0.0081  0.0117 -0.9033
                                        -0.0316  0.0026 -0.0514  0.0029 -0.0506
                                        -0.0861 -0.0640 -0.0420 -0.0619 -0.0913
                                        -0.1150 -0.1228 -0.0682 -0.0263 -0.0009
                                         0.0021 -0.0357 -0.0254 -0.0359 -0.0135
                                        -0.0021
 253. (0.00090) RY ( 2) C  8            s( 16.47%)p 3.97( 65.31%)d 1.03( 16.99%)
                                                  f 0.07(  1.23%)
                                         0.0000  0.0011  0.4038 -0.0403  0.0011
                                        -0.0063  0.7680  0.0234  0.0019 -0.2157
                                        -0.0202  0.0197 -0.1077 -0.0615 -0.0090
                                        -0.0861  0.1565  0.0309 -0.1126  0.0523
                                        -0.0149  0.0821 -0.2713 -0.2025 -0.0228
                                        -0.0673  0.0539  0.0517 -0.0083  0.0107
                                        -0.0381
 254. (0.00021) RY ( 3) C  8            s(  2.53%)p 4.77( 12.06%)d30.02( 75.92%)
                                                  f 3.75(  9.49%)
                                         0.0000 -0.0060  0.1286 -0.0848  0.0392
                                         0.0178 -0.1712 -0.1837  0.0169  0.1717
                                        -0.1484  0.0166 -0.0629 -0.0343 -0.2116
                                        -0.1292  0.3088 -0.1806 -0.3800  0.0648
                                        -0.6310  0.0180  0.1346 -0.0676  0.0928
                                        -0.2052  0.0624  0.0174  0.1450  0.1354
                                         0.0246
 255. (0.00016) RY ( 4) C  8            s(  8.83%)p 0.66(  5.83%)d 8.37( 73.96%)
                                                  f 1.29( 11.38%)
                                         0.0000  0.0054  0.2965  0.0001 -0.0193
                                         0.0151  0.1315 -0.0471  0.0097  0.0409
                                        -0.1215 -0.0165  0.1471 -0.0114 -0.5082
                                         0.2604 -0.5084  0.1329  0.0582  0.0137
                                        -0.2070 -0.1548  0.0893  0.2430 -0.0182
                                         0.2415 -0.1175  0.1430  0.0123  0.1334
                                         0.0539
 256. (0.00011) RY ( 5) C  8            s(  6.12%)p10.86( 66.42%)d 2.71( 16.57%)
                                                  f 1.78( 10.89%)
                                         0.0000  0.0005  0.1952 -0.1419 -0.0541
                                        -0.0168 -0.2082  0.0212  0.0091  0.1599
                                         0.0132 -0.0102 -0.6873  0.3490  0.1617
                                         0.0261 -0.2048  0.0262  0.0295  0.0984
                                        -0.1024  0.0285 -0.2503 -0.1085  0.0635
                                         0.1542 -0.1079  0.1404 -0.1729  0.0496
                                        -0.1320
 257. (0.00006) RY ( 6) C  8            s( 17.13%)p 1.06( 18.10%)d 2.91( 49.86%)
                                                  f 0.87( 14.91%)
 258. (0.00002) RY ( 7) C  8            s( 40.40%)p 0.48( 19.32%)d 0.81( 32.56%)
                                                  f 0.19(  7.72%)
 259. (0.00001) RY ( 8) C  8            s( 19.48%)p 2.09( 40.77%)d 1.56( 30.36%)
                                                  f 0.48(  9.39%)
 260. (0.00001) RY ( 9) C  8            s(  0.13%)p99.99( 14.82%)d99.99( 64.95%)
                                                  f99.99( 20.10%)
 261. (0.00000) RY (10) C  8            s(  4.09%)p11.27( 46.06%)d 9.08( 37.08%)
                                                  f 3.13( 12.77%)
 262. (0.00000) RY (11) C  8            s( 31.85%)p 0.81( 25.77%)d 0.76( 24.35%)
                                                  f 0.57( 18.03%)
 263. (0.00000) RY (12) C  8            s(  8.98%)p 5.29( 47.53%)d 2.61( 23.40%)
                                                  f 2.24( 20.09%)
 264. (0.00000) RY (13) C  8            s( 16.02%)p 1.44( 23.06%)d 1.94( 31.04%)
                                                  f 1.86( 29.88%)
 265. (0.00000) RY (14) C  8            s( 34.81%)p 0.38( 13.31%)d 0.67( 23.38%)
                                                  f 0.82( 28.51%)
 266. (0.00000) RY (15) C  8            s(  8.81%)p 1.21( 10.65%)d 4.16( 36.70%)
                                                  f 4.97( 43.84%)
 267. (0.00000) RY (16) C  8            s( 17.26%)p 2.61( 45.11%)d 0.99( 17.07%)
                                                  f 1.19( 20.56%)
 268. (0.00000) RY (17) C  8            s( 25.08%)p 0.68( 17.14%)d 1.93( 48.40%)
                                                  f 0.37(  9.37%)
 269. (0.00000) RY (18) C  8            s(  0.59%)p 1.55(  0.92%)d28.92( 17.11%)
                                                  f99.99( 81.38%)
 270. (0.00000) RY (19) C  8            s( 11.21%)p 0.06(  0.71%)d 2.80( 31.41%)
                                                  f 5.05( 56.66%)
 271. (0.00000) RY (20) C  8            s(  2.26%)p 1.15(  2.60%)d17.39( 39.22%)
                                                  f24.79( 55.92%)
 272. (0.00000) RY (21) C  8            s(  3.15%)p 0.96(  3.03%)d24.20( 76.21%)
                                                  f 5.59( 17.61%)
 273. (0.00000) RY (22) C  8            s(  1.27%)p 3.06(  3.89%)d14.33( 18.18%)
                                                  f60.42( 76.66%)
 274. (0.00000) RY (23) C  8            s(  5.15%)p 0.87(  4.47%)d13.13( 67.58%)
                                                  f 4.43( 22.80%)
 275. (0.00000) RY (24) C  8            s(  0.40%)p13.42(  5.41%)d67.91( 27.39%)
                                                  f99.99( 66.79%)
 276. (0.00000) RY (25) C  8            s(  9.87%)p 1.00(  9.87%)d 5.99( 59.09%)
                                                  f 2.15( 21.18%)
 277. (0.00000) RY (26) C  8            s(  7.23%)p 0.81(  5.85%)d 7.54( 54.52%)
                                                  f 4.48( 32.40%)
 278. (0.00357) RY ( 1) O  9            s(  2.73%)p35.04( 95.77%)d 0.52(  1.43%)
                                                  f 0.02(  0.07%)
                                         0.0000  0.0000  0.1629  0.0280  0.0010
                                         0.0036  0.0601  0.0077 -0.0019  0.2269
                                         0.0106  0.0081 -0.9494 -0.0329 -0.0026
                                         0.0108 -0.0470 -0.0495  0.0609  0.0462
                                         0.0467  0.0296 -0.0241  0.0009 -0.0162
                                        -0.0037  0.0041 -0.0052 -0.0168  0.0014
                                         0.0066
 279. (0.00224) RY ( 2) O  9            s(  2.29%)p39.44( 90.25%)d 3.19(  7.30%)
                                                  f 0.07(  0.16%)
                                         0.0000 -0.0052  0.1493  0.0236  0.0005
                                         0.0095 -0.0310  0.0178 -0.0060  0.9141
                                         0.0113 -0.0012  0.2556  0.0105  0.0350
                                         0.0371  0.0602  0.0016  0.0038 -0.0148
                                         0.2244  0.1117 -0.0570 -0.0204  0.0069
                                         0.0103  0.0118  0.0014  0.0050  0.0093
                                         0.0348
 280. (0.00101) RY ( 3) O  9            s( 46.62%)p 1.05( 48.76%)d 0.08(  3.80%)
                                                  f 0.02(  0.83%)
                                         0.0000 -0.0014  0.6789 -0.0730 -0.0047
                                        -0.0139 -0.6665 -0.1615 -0.0057 -0.1225
                                        -0.0210  0.0006  0.0378  0.0093  0.0019
                                         0.0512 -0.0002  0.0017 -0.0216 -0.0025
                                        -0.1315  0.0867 -0.0945 -0.0337  0.0001
                                         0.0191 -0.0055  0.0022 -0.0014 -0.0108
                                        -0.0880
 281. (0.00039) RY ( 4) O  9            s( 35.88%)p 1.35( 48.28%)d 0.40( 14.38%)
                                                  f 0.04(  1.46%)
                                         0.0000 -0.0019  0.5987  0.0174  0.0002
                                         0.0020  0.6671  0.0771 -0.0044 -0.1131
                                         0.0136 -0.0019  0.1264  0.0533  0.2898
                                         0.1369 -0.1084  0.0151  0.1034 -0.0554
                                        -0.0815  0.0778 -0.0512 -0.0066  0.0024
                                        -0.0726  0.0147  0.0038 -0.0170 -0.0680
                                        -0.0650
 282. (0.00019) RY ( 5) O  9            s(  0.04%)p40.69(  1.81%)d99.99( 96.75%)
                                                  f31.22(  1.39%)
                                         0.0000  0.0000  0.0145  0.0134  0.0075
                                        -0.0033  0.0987 -0.0591 -0.0081 -0.0131
                                        -0.0374  0.0085 -0.0563 -0.0036  0.0788
                                         0.1229  0.9109  0.0905 -0.2118  0.1377
                                        -0.1645  0.0017 -0.1302  0.0228 -0.0247
                                         0.0237 -0.0273  0.0483  0.0601 -0.0753
                                        -0.0193
 283. (0.00010) RY ( 6) O  9            s(  7.69%)p 1.36( 10.46%)d 9.74( 74.93%)
                                                  f 0.90(  6.92%)
                                         0.0000 -0.0005  0.2760 -0.0275 -0.0001
                                         0.0159  0.0518  0.2808  0.0254 -0.1320
                                         0.0514  0.0141  0.0014  0.0431 -0.2096
                                        -0.3280  0.1361  0.0337 -0.3829  0.0667
                                         0.5266 -0.1030  0.3676 -0.0631 -0.0277
                                        -0.0924  0.0794  0.0926 -0.0110  0.2118
                                         0.0064
 284. (0.00008) RY ( 7) O  9            s(  4.91%)p 1.05(  5.17%)d17.51( 85.99%)
                                                  f 0.80(  3.93%)
 285. (0.00006) RY ( 8) O  9            s(  3.23%)p 2.16(  6.99%)d26.96( 87.04%)
                                                  f 0.85(  2.75%)
 286. (0.00002) RY ( 9) O  9            s(  0.22%)p99.99( 40.55%)d99.99( 53.68%)
                                                  f25.57(  5.56%)
 287. (0.00002) RY (10) O  9            s(  6.95%)p 2.21( 15.36%)d10.62( 73.88%)
                                                  f 0.55(  3.81%)
 288. (0.00001) RY (11) O  9            s( 12.36%)p 2.17( 26.88%)d 4.22( 52.15%)
                                                  f 0.70(  8.61%)
 289. (0.00000) RY (12) O  9            s( 23.80%)p 0.88( 21.04%)d 1.49( 35.47%)
                                                  f 0.83( 19.69%)
 290. (0.00000) RY (13) O  9            s(  6.01%)p 8.75( 52.60%)d 3.54( 21.26%)
                                                  f 3.35( 20.13%)
 291. (0.00000) RY (14) O  9            s(  8.19%)p 2.63( 21.54%)d 2.63( 21.55%)
                                                  f 5.95( 48.71%)
 292. (0.00000) RY (15) O  9            s(  2.34%)p21.26( 49.85%)d13.83( 32.42%)
                                                  f 6.56( 15.38%)
 293. (0.00000) RY (16) O  9            s( 17.78%)p 1.87( 33.25%)d 1.10( 19.63%)
                                                  f 1.65( 29.34%)
 294. (0.00000) RY (17) O  9            s( 49.27%)p 0.01(  0.33%)d 0.14(  7.11%)
                                                  f 0.88( 43.29%)
 295. (0.00000) RY (18) O  9            s( 31.18%)p 0.10(  3.08%)d 0.60( 18.85%)
                                                  f 1.50( 46.89%)
 296. (0.00000) RY (19) O  9            s( 10.06%)p 0.43(  4.29%)d 2.52( 25.38%)
                                                  f 5.99( 60.27%)
 297. (0.00000) RY (20) O  9            s(  2.45%)p 0.80(  1.95%)d11.48( 28.09%)
                                                  f27.59( 67.51%)
 298. (0.00000) RY (21) O  9            s(  3.56%)p 2.12(  7.56%)d10.80( 38.46%)
                                                  f14.17( 50.42%)
 299. (0.00000) RY (22) O  9            s(  0.89%)p 3.53(  3.13%)d32.55( 28.85%)
                                                  f75.74( 67.14%)
 300. (0.00000) RY (23) O  9            s(  6.36%)p 0.26(  1.63%)d11.46( 72.86%)
                                                  f 3.01( 19.15%)
 301. (0.00000) RY (24) O  9            s( 11.57%)p 0.68(  7.88%)d 2.13( 24.65%)
                                                  f 4.83( 55.90%)
 302. (0.00000) RY (25) O  9            s(  0.06%)p 5.51(  0.34%)d99.99( 22.10%)
                                                  f99.99( 77.49%)
 303. (0.00000) RY (26) O  9            s(  3.64%)p 0.53(  1.91%)d14.10( 51.26%)
                                                  f11.88( 43.20%)
 304. (0.00359) RY ( 1) C 10            s(  8.65%)p 9.08( 78.48%)d 1.46( 12.59%)
                                                  f 0.03(  0.28%)
                                         0.0000 -0.0146  0.2906 -0.0416  0.0075
                                        -0.0183 -0.8580  0.0447  0.0385 -0.0887
                                         0.1462  0.0052  0.0531  0.1130  0.1774
                                         0.0270  0.1805  0.0226  0.0046  0.0433
                                         0.2315 -0.0047  0.0136 -0.0705 -0.0074
                                        -0.0118  0.0033  0.0299 -0.0132  0.0325
                                         0.0214
 305. (0.00293) RY ( 2) C 10            s(  3.51%)p26.49( 93.00%)d 0.94(  3.29%)
                                                  f 0.06(  0.20%)
                                         0.0000 -0.0159  0.1849 -0.0214  0.0142
                                        -0.0503 -0.0089 -0.1472  0.0065  0.9389
                                         0.0666 -0.0039  0.1372 -0.0286 -0.0193
                                        -0.0678 -0.0032 -0.0795 -0.0723 -0.0489
                                         0.0910 -0.0736  0.0096 -0.0126  0.0140
                                        -0.0040  0.0301 -0.0126 -0.0055  0.0188
                                        -0.0185
 306. (0.00219) RY ( 3) C 10            s( 39.75%)p 0.27( 10.92%)d 1.21( 47.93%)
                                                  f 0.04(  1.39%)
                                         0.0000 -0.0024  0.6304  0.0091  0.0002
                                        -0.0121  0.1256 -0.1666  0.0101 -0.1463
                                         0.0866 -0.0357  0.0451 -0.1822  0.1180
                                        -0.0823 -0.5941  0.0019  0.2506  0.1664
                                         0.0609  0.0506 -0.0547  0.0769  0.0724
                                         0.0225 -0.0145 -0.0366  0.0813 -0.0037
                                         0.0012
 307. (0.00085) RY ( 4) C 10            s(  0.18%)p99.99( 68.99%)d99.99( 29.55%)
                                                  f 7.02(  1.28%)
                                         0.0000  0.0036  0.0394  0.0106 -0.0122
                                        -0.0090  0.1414  0.2249  0.0129 -0.1213
                                        -0.0774 -0.0043  0.7725 -0.0391 -0.0634
                                        -0.1347  0.1795 -0.3631  0.0707  0.1479
                                         0.1456 -0.0055 -0.0863 -0.2317  0.0382
                                         0.0563 -0.0398  0.0137  0.0362 -0.0409
                                         0.0584
 308. (0.00046) RY ( 5) C 10            s(  5.67%)p 4.24( 24.05%)d12.15( 68.92%)
                                                  f 0.24(  1.36%)
                                         0.0000  0.0049  0.2363 -0.0277  0.0094
                                        -0.0243 -0.1076 -0.0096 -0.0095 -0.0599
                                        -0.3987 -0.0145 -0.2556 -0.0058 -0.6985
                                        -0.0172 -0.0566 -0.2144 -0.1333  0.0432
                                         0.0985 -0.1813  0.1738 -0.2438  0.0511
                                         0.0636  0.0334  0.0036 -0.0007  0.0668
                                        -0.0363
 309. (0.00026) RY ( 6) C 10            s(  2.08%)p 2.09(  4.34%)d43.44( 90.22%)
                                                  f 1.62(  3.37%)
                                         0.0000  0.0009  0.1419  0.0247 -0.0045
                                        -0.0039  0.0425  0.1224 -0.0030  0.0042
                                        -0.1346 -0.0021 -0.0908 -0.0138  0.1067
                                         0.2175 -0.0149 -0.3830 -0.1749 -0.4095
                                         0.1349  0.6855  0.0518  0.0874 -0.0351
                                         0.1112  0.0525 -0.0963 -0.0134  0.0668
                                         0.0580
 310. (0.00020) RY ( 7) C 10            s(  4.93%)p 4.04( 19.89%)d14.76( 72.72%)
                                                  f 0.50(  2.46%)
                                         0.0000 -0.0008 -0.1519  0.1588  0.0309
                                         0.0018  0.2030  0.2054  0.0127  0.0591
                                         0.0186 -0.0046 -0.3215  0.0903  0.1438
                                        -0.1178  0.0058  0.0438  0.1880  0.1792
                                         0.7617  0.0182 -0.0820 -0.1897  0.0794
                                         0.0175  0.0406  0.0686  0.0082  0.0912
                                        -0.0574
 311. (0.00015) RY ( 8) C 10            s( 28.53%)p 0.52( 14.94%)d 1.74( 49.65%)
                                                  f 0.24(  6.88%)
                                         0.0000 -0.0047  0.4452  0.2951 -0.0008
                                        -0.0014  0.2314 -0.1103  0.0081 -0.0822
                                         0.0163 -0.0080 -0.2115 -0.1784  0.1828
                                        -0.1514  0.5433  0.0163 -0.0105 -0.1934
                                        -0.1419 -0.1103 -0.0887 -0.2589  0.0374
                                        -0.1093  0.0499  0.0837 -0.1452 -0.1050
                                         0.1175
 312. (0.00005) RY ( 9) C 10            s( 15.90%)p 1.56( 24.84%)d 2.53( 40.20%)
                                                  f 1.20( 19.06%)
 313. (0.00004) RY (10) C 10            s(  3.69%)p 2.02(  7.45%)d20.74( 76.50%)
                                                  f 3.35( 12.36%)
 314. (0.00002) RY (11) C 10            s(  2.26%)p30.70( 69.41%)d11.44( 25.86%)
                                                  f 1.09(  2.47%)
 315. (0.00001) RY (12) C 10            s( 34.74%)p 0.55( 18.93%)d 1.21( 42.03%)
                                                  f 0.12(  4.30%)
 316. (0.00000) RY (13) C 10            s( 22.03%)p 0.69( 15.14%)d 2.65( 58.37%)
                                                  f 0.20(  4.47%)
 317. (0.00000) RY (14) C 10            s( 14.55%)p 0.18(  2.62%)d 2.19( 31.83%)
                                                  f 3.51( 51.00%)
 318. (0.00000) RY (15) C 10            s( 16.80%)p 2.01( 33.71%)d 1.84( 30.86%)
                                                  f 1.11( 18.63%)
 319. (0.00000) RY (16) C 10            s(  0.29%)p 0.95(  0.28%)d24.17(  7.09%)
                                                  f99.99( 92.34%)
 320. (0.00000) RY (17) C 10            s(  2.05%)p 0.84(  1.73%)d 6.44( 13.22%)
                                                  f40.45( 83.00%)
 321. (0.00000) RY (18) C 10            s(  9.48%)p 0.12(  1.16%)d 0.56(  5.27%)
                                                  f 8.87( 84.09%)
 322. (0.00000) RY (19) C 10            s(  5.37%)p 0.40(  2.17%)d 1.37(  7.34%)
                                                  f15.85( 85.12%)
 323. (0.00000) RY (20) C 10            s( 16.53%)p 0.11(  1.81%)d 2.99( 49.48%)
                                                  f 1.95( 32.18%)
 324. (0.00000) RY (21) C 10            s(  3.51%)p 0.89(  3.13%)d 3.14( 11.03%)
                                                  f23.44( 82.34%)
 325. (0.00000) RY (22) C 10            s( 20.71%)p 0.47(  9.76%)d 1.73( 35.89%)
                                                  f 1.62( 33.64%)
 326. (0.00000) RY (23) C 10            s( 14.07%)p 1.59( 22.37%)d 3.05( 42.91%)
                                                  f 1.47( 20.66%)
 327. (0.00000) RY (24) C 10            s(  5.10%)p 3.94( 20.10%)d11.01( 56.20%)
                                                  f 3.64( 18.60%)
 328. (0.00000) RY (25) C 10            s( 11.91%)p 2.66( 31.66%)d 2.69( 32.03%)
                                                  f 2.05( 24.40%)
 329. (0.00000) RY (26) C 10            s(  7.55%)p 2.61( 19.72%)d 7.77( 58.64%)
                                                  f 1.87( 14.09%)
 330. (0.00132) RY ( 1) C 11            s( 19.72%)p 3.77( 74.42%)d 0.28(  5.49%)
                                                  f 0.02(  0.36%)
                                         0.0000 -0.0016  0.4419 -0.0414  0.0121
                                         0.0054 -0.8195 -0.0127 -0.0008  0.2257
                                         0.0104  0.0213  0.1205  0.0805 -0.0542
                                        -0.0612  0.0315 -0.1355  0.1350 -0.0005
                                         0.0578  0.0254 -0.0098 -0.0812 -0.0260
                                        -0.0110 -0.0512 -0.0074  0.0081  0.0105
                                         0.0013
 331. (0.00050) RY ( 2) C 11            s(  0.29%)p99.99( 74.26%)d81.60( 23.64%)
                                                  f 6.25(  1.81%)
                                         0.0000 -0.0001  0.0533  0.0071 -0.0018
                                        -0.0010 -0.1520 -0.0499  0.0192 -0.7373
                                         0.0942 -0.0015  0.3970 -0.0807 -0.0921
                                         0.0636  0.0409 -0.1222 -0.2141 -0.2384
                                        -0.1839  0.1312  0.2070  0.1037  0.0287
                                        -0.0394 -0.0799  0.0913  0.0277 -0.0119
                                         0.0099
 332. (0.00035) RY ( 3) C 11            s(  3.14%)p 9.64( 30.32%)d17.25( 54.22%)
                                                  f 3.92( 12.32%)
                                         0.0000  0.0051  0.1675  0.0124 -0.0566
                                         0.0157  0.1705  0.0027 -0.0103  0.0579
                                        -0.0407  0.0020  0.5184  0.0020 -0.2930
                                         0.0335 -0.1773  0.0480  0.0036  0.0318
                                         0.2291 -0.0436 -0.5670  0.2110  0.2677
                                        -0.0563  0.1244 -0.0908  0.1137  0.0007
                                        -0.1082
 333. (0.00023) RY ( 4) C 11            s(  2.70%)p13.32( 35.95%)d21.07( 56.87%)
                                                  f 1.66(  4.49%)
                                         0.0000  0.0010 -0.0871  0.1307 -0.0483
                                         0.0247 -0.2092  0.2360  0.0104 -0.0268
                                         0.0537 -0.0187 -0.5036 -0.0412 -0.3143
                                         0.0008 -0.2924 -0.1064 -0.5509 -0.1117
                                         0.0642  0.0953 -0.1983  0.0674  0.1147
                                        -0.1427  0.0456  0.0858  0.0159 -0.0402
                                        -0.0086
 334. (0.00009) RY ( 5) C 11            s(  7.62%)p 5.38( 40.97%)d 5.11( 38.96%)
                                                  f 1.63( 12.45%)
 335. (0.00006) RY ( 6) C 11            s(  9.11%)p 2.45( 22.33%)d 6.30( 57.38%)
                                                  f 1.23( 11.18%)
 336. (0.00003) RY ( 7) C 11            s( 15.38%)p 1.97( 30.29%)d 3.34( 51.29%)
                                                  f 0.20(  3.05%)
 337. (0.00001) RY ( 8) C 11            s( 25.62%)p 0.31(  7.93%)d 2.30( 58.82%)
                                                  f 0.30(  7.63%)
 338. (0.00001) RY ( 9) C 11            s( 41.18%)p 0.47( 19.40%)d 0.82( 33.89%)
                                                  f 0.13(  5.53%)
 339. (0.00000) RY (10) C 11            s(  7.52%)p 5.75( 43.25%)d 5.84( 43.94%)
                                                  f 0.70(  5.29%)
 340. (0.00000) RY (11) C 11            s(  4.12%)p 3.24( 13.37%)d10.40( 42.89%)
                                                  f 9.61( 39.63%)
 341. (0.00000) RY (12) C 11            s( 35.77%)p 0.10(  3.74%)d 0.34( 12.33%)
                                                  f 1.35( 48.17%)
 342. (0.00000) RY (13) C 11            s(  8.87%)p 1.25( 11.06%)d 5.88( 52.14%)
                                                  f 3.15( 27.92%)
 343. (0.00000) RY (14) C 11            s( 10.93%)p 4.04( 44.13%)d 2.42( 26.48%)
                                                  f 1.69( 18.46%)
 344. (0.00000) RY (15) C 11            s( 10.08%)p 3.84( 38.69%)d 0.96(  9.72%)
                                                  f 4.12( 41.51%)
 345. (0.00000) RY (16) C 11            s(  2.90%)p 5.30( 15.34%)d11.73( 33.96%)
                                                  f16.51( 47.80%)
 346. (0.00000) RY (17) C 11            s(  5.61%)p 1.13(  6.34%)d11.75( 65.90%)
                                                  f 3.95( 22.15%)
 347. (0.00000) RY (18) C 11            s( 50.26%)p 0.47( 23.55%)d 0.28( 14.14%)
                                                  f 0.24( 12.05%)
 348. (0.00000) RY (19) C 11            s( 24.46%)p 1.69( 41.43%)d 0.72( 17.62%)
                                                  f 0.67( 16.49%)
 349. (0.00000) RY (20) C 11            s(  1.61%)p 0.43(  0.70%)d19.68( 31.65%)
                                                  f41.07( 66.04%)
 350. (0.00000) RY (21) C 11            s(  2.05%)p 0.24(  0.48%)d10.37( 21.26%)
                                                  f37.19( 76.21%)
 351. (0.00000) RY (22) C 11            s(  3.95%)p 0.57(  2.24%)d12.13( 47.97%)
                                                  f11.59( 45.84%)
 352. (0.00000) RY (23) C 11            s(  0.78%)p 6.45(  5.06%)d90.39( 70.95%)
                                                  f29.56( 23.20%)
 353. (0.00000) RY (24) C 11            s(  1.29%)p 6.03(  7.80%)d39.05( 50.48%)
                                                  f31.27( 40.43%)
 354. (0.00000) RY (25) C 11            s(  2.56%)p 0.96(  2.47%)d23.36( 59.75%)
                                                  f13.77( 35.23%)
 355. (0.00000) RY (26) C 11            s(  2.51%)p 2.03(  5.11%)d 7.05( 17.70%)
                                                  f29.75( 74.68%)
 356. (0.00275) RY ( 1) H 12            s( 97.42%)p 0.02(  2.06%)d 0.01(  0.52%)
                                         0.0081  0.9870 -0.0001 -0.1290  0.0534
                                        -0.0205  0.0238 -0.0080  0.0027 -0.0416
                                        -0.0008  0.0014 -0.0558  0.0192
 357. (0.00028) RY ( 2) H 12            s(  0.01%)p99.99( 91.23%)d99.99(  8.76%)
                                        -0.0001 -0.0058  0.0084  0.0134 -0.0026
                                         0.0123 -0.0022 -0.9520  0.0745  0.0008
                                         0.0503  0.2916  0.0073  0.0064
 358. (0.00019) RY ( 3) H 12            s( 10.87%)p 7.40( 80.37%)d 0.81(  8.76%)
                                        -0.0001 -0.1204  0.3069 -0.4625  0.7634
                                        -0.0752  0.0365 -0.0075  0.0089 -0.2837
                                         0.0002 -0.0034 -0.0817 -0.0216
 359. (0.00014) RY ( 4) H 12            s( 77.41%)p 0.23( 17.78%)d 0.06(  4.81%)
                                         0.0008  0.0175  0.8797  0.0390 -0.2834
                                        -0.2164  0.2215  0.0060 -0.0048  0.1921
                                        -0.0016 -0.0007  0.0121  0.1051
 360. (0.00002) RY ( 5) H 12            s(  2.65%)p32.03( 84.89%)d 4.70( 12.46%)
 361. (0.00001) RY ( 6) H 12            s(  5.03%)p12.52( 63.03%)d 6.34( 31.93%)
 362. (0.00001) RY ( 7) H 12            s(  0.09%)p99.99( 39.88%)d99.99( 60.03%)
 363. (0.00000) RY ( 8) H 12            s(  0.56%)p48.30( 26.96%)d99.99( 72.48%)
 364. (0.00000) RY ( 9) H 12            s(  0.00%)p 1.00( 27.50%)d 2.64( 72.50%)
 365. (0.00000) RY (10) H 12            s(  0.14%)p99.99( 41.62%)d99.99( 58.24%)
 366. (0.00000) RY (11) H 12            s(  1.41%)p 7.18( 10.10%)d62.91( 88.49%)
 367. (0.00000) RY (12) H 12            s(  0.06%)p99.99( 41.70%)d99.99( 58.24%)
 368. (0.00000) RY (13) H 12            s(  4.39%)p16.61( 72.87%)d 5.18( 22.74%)
 369. (0.00405) RY ( 1) H 13            s( 98.25%)p 0.01(  1.24%)d 0.01(  0.51%)
                                         0.0113  0.9912 -0.0010  0.0857 -0.0694
                                        -0.0090  0.0049  0.0103 -0.0067  0.0432
                                        -0.0011 -0.0003 -0.0525  0.0210
 370. (0.00018) RY ( 2) H 13            s(  0.51%)p99.99( 91.06%)d16.44(  8.43%)
                                         0.0001  0.0076  0.0712 -0.1023  0.1098
                                        -0.0248  0.0203  0.9163 -0.2177 -0.0548
                                        -0.0924 -0.2697  0.0002 -0.0021
 371. (0.00013) RY ( 3) H 13            s( 88.86%)p 0.10(  9.16%)d 0.02(  1.98%)
                                         0.0001 -0.0075  0.9426  0.0066 -0.0453
                                        -0.1569  0.2400 -0.0707  0.0479 -0.0624
                                        -0.0313  0.0039 -0.0712  0.0992
 372. (0.00008) RY ( 4) H 13            s(  1.38%)p68.97( 94.90%)d 2.71(  3.72%)
 373. (0.00005) RY ( 5) H 13            s(  0.03%)p99.99( 72.00%)d99.99( 27.97%)
 374. (0.00001) RY ( 6) H 13            s(  0.40%)p99.99( 61.77%)d94.81( 37.83%)
 375. (0.00001) RY ( 7) H 13            s(  2.70%)p24.90( 67.29%)d11.10( 30.00%)
 376. (0.00000) RY ( 8) H 13            s(  0.64%)p28.14( 17.93%)d99.99( 81.44%)
 377. (0.00000) RY ( 9) H 13            s(  0.49%)p74.17( 36.65%)d99.99( 62.85%)
 378. (0.00000) RY (10) H 13            s(  0.01%)p99.99( 20.44%)d99.99( 79.54%)
 379. (0.00000) RY (11) H 13            s(  0.42%)p99.99( 58.33%)d97.25( 41.25%)
 380. (0.00000) RY (12) H 13            s(  1.47%)p30.93( 45.56%)d35.95( 52.96%)
 381. (0.00000) RY (13) H 13            s(  4.86%)p 4.86( 23.62%)d14.70( 71.51%)
 382. (0.00159) RY ( 1) H 14            s( 96.88%)p 0.03(  2.44%)d 0.01(  0.68%)
                                         0.0029  0.9843 -0.0001  0.0620 -0.0873
                                        -0.0219  0.0930 -0.0599 -0.0135 -0.0082
                                        -0.0566  0.0374 -0.0029  0.0465
 383. (0.00010) RY ( 2) H 14            s(  0.75%)p99.99( 96.21%)d 4.08(  3.05%)
                                         0.0005  0.0821 -0.0270  0.4193  0.3612
                                         0.5046 -0.5990  0.0932  0.1834  0.0884
                                         0.0723  0.0744  0.1012  0.0407
 384. (0.00009) RY ( 3) H 14            s(  0.08%)p99.99( 86.14%)d99.99( 13.77%)
 385. (0.00007) RY ( 4) H 14            s(  4.11%)p12.70( 52.17%)d10.64( 43.72%)
 386. (0.00003) RY ( 5) H 14            s(  2.53%)p11.99( 30.30%)d26.58( 67.17%)
 387. (0.00002) RY ( 6) H 14            s( 54.20%)p 0.48( 26.27%)d 0.36( 19.53%)
 388. (0.00001) RY ( 7) H 14            s(  4.73%)p 5.46( 25.84%)d14.68( 69.43%)
 389. (0.00001) RY ( 8) H 14            s(  0.05%)p99.99( 40.37%)d99.99( 59.58%)
 390. (0.00000) RY ( 9) H 14            s(  0.02%)p99.99( 31.99%)d99.99( 67.99%)
 391. (0.00000) RY (10) H 14            s( 17.05%)p 3.48( 59.35%)d 1.38( 23.60%)
 392. (0.00000) RY (11) H 14            s( 17.45%)p 2.19( 38.23%)d 2.54( 44.32%)
 393. (0.00000) RY (12) H 14            s(  1.32%)p63.59( 83.95%)d11.16( 14.73%)
 394. (0.00000) RY (13) H 14            s(  0.89%)p29.94( 26.70%)d81.18( 72.41%)
 395. (0.00116) RY ( 1) H 15            s( 98.44%)p 0.01(  1.09%)d 0.00(  0.47%)
                                         0.0025  0.9922 -0.0001 -0.0659 -0.0589
                                        -0.0149  0.0415 -0.0191 -0.0278  0.0243
                                        -0.0285 -0.0064  0.0350  0.0450
 396. (0.00017) RY ( 2) H 15            s(  4.36%)p19.41( 84.69%)d 2.51( 10.94%)
                                         0.0049 -0.0238  0.2075 -0.4097 -0.2020
                                        -0.6416 -0.4115 -0.2239 -0.0845 -0.0040
                                         0.1839  0.2094 -0.1744 -0.0364
 397. (0.00015) RY ( 3) H 15            s(  2.64%)p31.92( 84.24%)d 4.97( 13.13%)
                                        -0.0002  0.0783  0.1423  0.6529  0.1818
                                        -0.4516 -0.2040  0.3567  0.1010 -0.1832
                                        -0.1320  0.0455  0.0278 -0.2783
 398. (0.00007) RY ( 4) H 15            s(  5.86%)p13.55( 79.44%)d 2.51( 14.69%)
 399. (0.00003) RY ( 5) H 15            s(  6.03%)p12.45( 75.09%)d 3.13( 18.87%)
 400. (0.00002) RY ( 6) H 15            s( 62.85%)p 0.33( 20.97%)d 0.26( 16.18%)
 401. (0.00001) RY ( 7) H 15            s(  8.45%)p 8.53( 72.09%)d 2.30( 19.47%)
 402. (0.00000) RY ( 8) H 15            s(  0.55%)p18.72( 10.23%)d99.99( 89.22%)
 403. (0.00000) RY ( 9) H 15            s(  0.37%)p74.79( 28.03%)d99.99( 71.60%)
 404. (0.00000) RY (10) H 15            s(  1.13%)p25.25( 28.52%)d62.27( 70.35%)
 405. (0.00000) RY (11) H 15            s(  1.74%)p20.96( 36.39%)d35.64( 61.87%)
 406. (0.00000) RY (12) H 15            s(  0.11%)p87.67(  9.89%)d99.99( 90.00%)
 407. (0.00000) RY (13) H 15            s(  7.51%)p 9.23( 69.29%)d 3.09( 23.20%)
 408. (0.00066) RY ( 1) H 16            s( 93.90%)p 0.06(  5.47%)d 0.01(  0.64%)
                                         0.0007  0.9690  0.0000 -0.1488 -0.1325
                                         0.0144  0.0653  0.0565  0.0855  0.0229
                                         0.0442 -0.0276  0.0440  0.0345
 409. (0.00017) RY ( 2) H 16            s(  3.18%)p26.73( 84.99%)d 3.72( 11.84%)
                                         0.0064 -0.0398  0.1737 -0.4023 -0.1198
                                        -0.6602 -0.4361  0.2176  0.0126  0.0102
                                        -0.1678 -0.1708 -0.2460  0.0203
 410. (0.00012) RY ( 3) H 16            s(  6.72%)p10.96( 73.68%)d 2.92( 19.60%)
                                         0.0013  0.1439  0.2157  0.5155  0.0356
                                        -0.4346 -0.0440 -0.5281 -0.0049 -0.1969
                                        -0.0384  0.0032  0.0289 -0.3935
 411. (0.00006) RY ( 4) H 16            s(  6.11%)p13.09( 79.91%)d 2.29( 13.98%)
 412. (0.00004) RY ( 5) H 16            s( 52.45%)p 0.67( 35.17%)d 0.24( 12.37%)
 413. (0.00001) RY ( 6) H 16            s( 27.25%)p 2.15( 58.58%)d 0.52( 14.17%)
 414. (0.00000) RY ( 7) H 16            s(  5.72%)p11.93( 68.20%)d 4.56( 26.08%)
 415. (0.00000) RY ( 8) H 16            s(  0.52%)p50.11( 25.82%)d99.99( 73.67%)
 416. (0.00000) RY ( 9) H 16            s(  1.75%)p34.87( 61.05%)d21.25( 37.20%)
 417. (0.00000) RY (10) H 16            s(  0.01%)p 1.00( 17.24%)d 4.80( 82.75%)
 418. (0.00000) RY (11) H 16            s(  0.00%)p 1.00( 38.56%)d 1.59( 61.44%)
 419. (0.00000) RY (12) H 16            s(  0.39%)p54.49( 21.03%)d99.99( 78.58%)
 420. (0.00000) RY (13) H 16            s(  2.07%)p14.62( 30.25%)d32.73( 67.69%)
 421. (0.00043) RY ( 1) H 17            s( 94.58%)p 0.05(  4.60%)d 0.01(  0.83%)
                                        -0.0008  0.9725 -0.0013  0.0447 -0.1193
                                         0.0208  0.1648  0.0096  0.0453  0.0605
                                        -0.0015 -0.0017  0.0614 -0.0290
 422. (0.00011) RY ( 2) H 17            s(  1.14%)p71.93( 82.36%)d14.41( 16.50%)
                                         0.0017  0.0969  0.0454  0.1512  0.0705
                                        -0.4246 -0.4993  0.6033  0.0470  0.0299
                                        -0.2834 -0.2147 -0.1942  0.0010
 423. (0.00009) RY ( 3) H 17            s(  7.38%)p 9.39( 69.25%)d 3.17( 23.38%)
 424. (0.00008) RY ( 4) H 17            s( 12.94%)p 5.94( 76.92%)d 0.78( 10.14%)
 425. (0.00003) RY ( 5) H 17            s( 41.22%)p 0.97( 39.85%)d 0.46( 18.93%)
 426. (0.00001) RY ( 6) H 17            s( 25.79%)p 2.59( 66.77%)d 0.29(  7.44%)
 427. (0.00001) RY ( 7) H 17            s(  1.08%)p67.08( 72.39%)d24.59( 26.53%)
 428. (0.00000) RY ( 8) H 17            s(  0.09%)p99.99( 15.71%)d99.99( 84.20%)
 429. (0.00000) RY ( 9) H 17            s(  0.49%)p31.44( 15.39%)d99.99( 84.12%)
 430. (0.00000) RY (10) H 17            s(  0.44%)p80.07( 35.31%)d99.99( 64.25%)
 431. (0.00000) RY (11) H 17            s(  5.43%)p 2.88( 15.65%)d14.54( 78.92%)
 432. (0.00000) RY (12) H 17            s(  8.67%)p 8.41( 72.91%)d 2.13( 18.42%)
 433. (0.00000) RY (13) H 17            s(  0.82%)p40.29( 32.86%)d81.31( 66.32%)
 434. (0.00063) RY ( 1) H 18            s( 96.68%)p 0.03(  2.78%)d 0.01(  0.54%)
                                         0.0002  0.9833 -0.0022  0.0256 -0.0095
                                         0.0150 -0.1064 -0.0119  0.1240  0.0448
                                         0.0031  0.0042  0.0459 -0.0352
 435. (0.00012) RY ( 2) H 18            s(  3.78%)p21.49( 81.17%)d 3.98( 15.05%)
                                         0.0042  0.0737  0.1798 -0.4189 -0.2767
                                         0.5427  0.2748 -0.2951 -0.3203 -0.3086
                                         0.1609  0.0089  0.1683  0.0316
 436. (0.00010) RY ( 3) H 18            s(  3.05%)p23.71( 72.26%)d 8.10( 24.69%)
                                         0.0019 -0.0013  0.1746  0.0916  0.0164
                                        -0.3988 -0.0469 -0.7421 -0.0454  0.1119
                                         0.4148  0.1756 -0.1676  0.0576
 437. (0.00006) RY ( 4) H 18            s(  5.91%)p13.98( 82.59%)d 1.95( 11.50%)
 438. (0.00003) RY ( 5) H 18            s( 34.30%)p 1.45( 49.86%)d 0.46( 15.83%)
 439. (0.00001) RY ( 6) H 18            s( 10.52%)p 5.89( 61.91%)d 2.62( 27.57%)
 440. (0.00000) RY ( 7) H 18            s( 21.10%)p 3.30( 69.57%)d 0.44(  9.33%)
 441. (0.00000) RY ( 8) H 18            s(  1.55%)p11.37( 17.61%)d52.18( 80.84%)
 442. (0.00000) RY ( 9) H 18            s(  0.90%)p28.38( 25.58%)d81.54( 73.51%)
 443. (0.00000) RY (10) H 18            s(  1.40%)p17.72( 24.81%)d52.71( 73.79%)
 444. (0.00000) RY (11) H 18            s(  0.20%)p99.99( 20.27%)d99.99( 79.53%)
 445. (0.00000) RY (12) H 18            s(  2.56%)p14.36( 36.71%)d23.76( 60.74%)
 446. (0.00000) RY (13) H 18            s( 18.11%)p 3.03( 54.82%)d 1.49( 27.07%)
 447. (0.00047) RY ( 1) H 19            s( 93.05%)p 0.07(  6.16%)d 0.01(  0.79%)
                                        -0.0010  0.9646 -0.0082 -0.0130  0.0769
                                        -0.0699 -0.0607  0.0168  0.2160  0.0103
                                        -0.0135  0.0129 -0.0703 -0.0497
 448. (0.00011) RY ( 2) H 19            s(  4.02%)p18.82( 75.57%)d 5.08( 20.41%)
                                         0.0024  0.0463  0.1949 -0.8121 -0.2446
                                        -0.0174 -0.0103  0.1562 -0.1076 -0.4042
                                        -0.0198  0.0881  0.1801  0.0122
 449. (0.00009) RY ( 3) H 19            s( 11.35%)p 5.59( 63.48%)d 2.22( 25.17%)
 450. (0.00005) RY ( 4) H 19            s( 18.15%)p 3.76( 68.28%)d 0.75( 13.57%)
 451. (0.00002) RY ( 5) H 19            s( 33.67%)p 1.71( 57.46%)d 0.26(  8.87%)
 452. (0.00001) RY ( 6) H 19            s( 22.20%)p 3.16( 70.11%)d 0.35(  7.69%)
 453. (0.00000) RY ( 7) H 19            s(  2.14%)p35.64( 76.14%)d10.17( 21.73%)
 454. (0.00000) RY ( 8) H 19            s(  1.55%)p 5.57(  8.62%)d58.04( 89.83%)
 455. (0.00000) RY ( 9) H 19            s(  0.20%)p99.99( 23.52%)d99.99( 76.28%)
 456. (0.00000) RY (10) H 19            s(  0.65%)p46.58( 30.46%)d99.99( 68.89%)
 457. (0.00000) RY (11) H 19            s(  0.38%)p70.91( 26.77%)d99.99( 72.85%)
 458. (0.00000) RY (12) H 19            s(  0.16%)p99.99( 34.91%)d99.99( 64.92%)
 459. (0.00000) RY (13) H 19            s( 12.54%)p 4.66( 58.47%)d 2.31( 28.99%)
 460. (0.00112) RY ( 1) H 20            s( 99.19%)p 0.01(  0.59%)d 0.00(  0.23%)
                                         0.0020  0.9959  0.0009 -0.0639  0.0156
                                         0.0155 -0.0292 -0.0209 -0.0012  0.0007
                                        -0.0271  0.0242  0.0125  0.0286
 461. (0.00017) RY ( 2) H 20            s(  1.14%)p78.75( 89.62%)d 8.12(  9.24%)
                                         0.0035 -0.0294  0.1025 -0.5767 -0.4825
                                         0.1975  0.2134 -0.4172 -0.2685  0.0506
                                         0.2541 -0.0939 -0.0334  0.1239
 462. (0.00012) RY ( 3) H 20            s(  0.35%)p99.99( 81.02%)d52.82( 18.63%)
                                         0.0003  0.0183  0.0565  0.3520  0.0261
                                         0.8033  0.1961 -0.0388 -0.0180  0.0638
                                        -0.1780 -0.3793  0.0800 -0.0171
 463. (0.00007) RY ( 4) H 20            s( 12.63%)p 5.73( 72.45%)d 1.18( 14.91%)
 464. (0.00003) RY ( 5) H 20            s( 34.14%)p 1.37( 46.81%)d 0.56( 19.06%)
 465. (0.00002) RY ( 6) H 20            s( 17.79%)p 3.53( 62.82%)d 1.09( 19.39%)
 466. (0.00000) RY ( 7) H 20            s( 10.39%)p 7.55( 78.45%)d 1.07( 11.16%)
 467. (0.00000) RY ( 8) H 20            s(  0.21%)p29.75(  6.25%)d99.99( 93.54%)
 468. (0.00000) RY ( 9) H 20            s(  0.43%)p63.59( 27.17%)d99.99( 72.41%)
 469. (0.00000) RY (10) H 20            s(  0.05%)p99.99( 24.64%)d99.99( 75.31%)
 470. (0.00000) RY (11) H 20            s(  2.26%)p 3.84(  8.69%)d39.42( 89.06%)
 471. (0.00000) RY (12) H 20            s(  3.11%)p19.66( 61.16%)d11.49( 35.73%)
 472. (0.00000) RY (13) H 20            s( 18.36%)p 2.20( 40.31%)d 2.25( 41.34%)
 473. (0.00191) RY ( 1) H 21            s( 98.02%)p 0.01(  0.97%)d 0.01(  1.01%)
                                         0.0045  0.9900 -0.0037  0.0236  0.0646
                                         0.0451 -0.0477  0.0249 -0.0050  0.0804
                                        -0.0144 -0.0525 -0.0156  0.0205
 474. (0.00029) RY ( 2) H 21            s( 17.87%)p 4.40( 78.69%)d 0.19(  3.44%)
                                         0.0083  0.0669  0.4173 -0.2239 -0.7778
                                        -0.1020 -0.1254  0.0289 -0.3238 -0.1023
                                         0.0546  0.0636  0.1158  0.0588
 475. (0.00011) RY ( 3) H 21            s(  3.91%)p22.84( 89.21%)d 1.76(  6.88%)
                                        -0.0013 -0.0309  0.1952  0.3620  0.2864
                                        -0.2835 -0.2709 -0.4458 -0.5715  0.1291
                                        -0.0892  0.0796 -0.0714  0.1810
 476. (0.00008) RY ( 4) H 21            s(  5.51%)p10.04( 55.33%)d 7.10( 39.16%)
 477. (0.00004) RY ( 5) H 21            s( 11.72%)p 6.22( 72.89%)d 1.31( 15.40%)
 478. (0.00002) RY ( 6) H 21            s( 46.91%)p 0.88( 41.24%)d 0.25( 11.85%)
 479. (0.00001) RY ( 7) H 21            s(  3.28%)p20.72( 68.01%)d 8.75( 28.70%)
 480. (0.00001) RY ( 8) H 21            s(  0.29%)p92.36( 26.98%)d99.99( 72.73%)
 481. (0.00001) RY ( 9) H 21            s(  2.49%)p12.48( 31.05%)d26.71( 66.46%)
 482. (0.00000) RY (10) H 21            s(  1.55%)p15.10( 23.33%)d48.61( 75.13%)
 483. (0.00000) RY (11) H 21            s(  6.89%)p 5.64( 38.89%)d 7.86( 54.21%)
 484. (0.00000) RY (12) H 21            s(  1.30%)p31.25( 40.60%)d44.72( 58.10%)
 485. (0.00000) RY (13) H 21            s(  0.31%)p99.99( 32.77%)d99.99( 66.92%)
 486. (0.00102) RY ( 1) H 22            s( 92.74%)p 0.06(  6.02%)d 0.01(  1.24%)
                                         0.0007  0.9630 -0.0006 -0.0916 -0.0760
                                        -0.0454  0.0521  0.0123 -0.2028  0.0682
                                         0.0424  0.0047 -0.0702 -0.0319
 487. (0.00010) RY ( 2) H 22            s(  6.31%)p10.25( 64.62%)d 4.61( 29.07%)
                                         0.0033 -0.0106  0.2509  0.0382  0.2052
                                        -0.2103 -0.3663  0.5682 -0.3184 -0.2764
                                         0.2905  0.0695  0.2748  0.2227
 488. (0.00006) RY ( 3) H 22            s(  0.39%)p99.99( 71.15%)d72.14( 28.45%)
 489. (0.00005) RY ( 4) H 22            s(  4.01%)p22.32( 89.57%)d 1.60(  6.41%)
 490. (0.00005) RY ( 5) H 22            s(  0.73%)p99.99( 90.43%)d12.20(  8.84%)
 491. (0.00002) RY ( 6) H 22            s( 79.27%)p 0.17( 13.72%)d 0.09(  7.01%)
 492. (0.00001) RY ( 7) H 22            s(  0.01%)p 1.00( 46.67%)d 1.14( 53.33%)
 493. (0.00001) RY ( 8) H 22            s(  1.59%)p30.39( 48.18%)d31.68( 50.23%)
 494. (0.00000) RY ( 9) H 22            s(  4.27%)p 8.74( 37.32%)d13.68( 58.41%)
 495. (0.00000) RY (10) H 22            s(  7.63%)p 6.89( 52.60%)d 5.21( 39.77%)
 496. (0.00000) RY (11) H 22            s(  0.01%)p99.99( 20.61%)d99.99( 79.37%)
 497. (0.00000) RY (12) H 22            s(  0.42%)p74.51( 31.37%)d99.99( 68.21%)
 498. (0.00000) RY (13) H 22            s(  2.68%)p10.34( 27.69%)d26.00( 69.63%)
 499. (0.00039) RY ( 1) H 23            s( 90.88%)p 0.07(  6.52%)d 0.03(  2.60%)
                                        -0.0006  0.9532  0.0142 -0.0435  0.1114
                                        -0.0281 -0.0212 -0.2028  0.0923 -0.0774
                                        -0.1251  0.0581  0.0265 -0.0165
 500. (0.00009) RY ( 2) H 23            s(  0.09%)p99.99( 66.00%)d99.99( 33.90%)
 501. (0.00008) RY ( 3) H 23            s( 21.71%)p 2.45( 53.12%)d 1.16( 25.18%)
 502. (0.00003) RY ( 4) H 23            s(  7.60%)p11.54( 87.62%)d 0.63(  4.78%)
 503. (0.00001) RY ( 5) H 23            s( 31.22%)p 1.56( 48.64%)d 0.64( 20.13%)
 504. (0.00001) RY ( 6) H 23            s(  3.54%)p22.35( 79.13%)d 4.90( 17.33%)
 505. (0.00000) RY ( 7) H 23            s( 20.67%)p 2.84( 58.62%)d 1.00( 20.71%)
 506. (0.00000) RY ( 8) H 23            s(  4.90%)p 4.05( 19.84%)d15.37( 75.26%)
 507. (0.00000) RY ( 9) H 23            s(  0.69%)p25.64( 17.69%)d99.99( 81.62%)
 508. (0.00000) RY (10) H 23            s(  0.21%)p99.99( 39.84%)d99.99( 59.96%)
 509. (0.00000) RY (11) H 23            s(  0.89%)p14.48( 12.92%)d96.59( 86.19%)
 510. (0.00000) RY (12) H 23            s(  6.49%)p 7.32( 47.46%)d 7.10( 46.06%)
 511. (0.00000) RY (13) H 23            s( 11.17%)p 5.60( 62.56%)d 2.35( 26.26%)
 512. (0.00100) RY ( 1) H 24            s( 96.01%)p 0.04(  3.85%)d 0.00(  0.14%)
                                         0.0021  0.9798  0.0043  0.1148  0.0556
                                        -0.0063 -0.0095 -0.1359 -0.0604  0.0213
                                         0.0073  0.0256  0.0054 -0.0141
 513. (0.00013) RY ( 2) H 24            s(  2.83%)p26.95( 76.16%)d 7.43( 21.01%)
                                         0.0020 -0.0276  0.1658 -0.4074  0.0215
                                         0.5657  0.0764 -0.5052 -0.1188 -0.0688
                                         0.2081  0.0415  0.3548  0.1856
 514. (0.00013) RY ( 3) H 24            s(  7.98%)p 9.82( 78.38%)d 1.71( 13.64%)
                                         0.0079 -0.1602  0.2326  0.3827  0.2111
                                        -0.3373 -0.0758 -0.5713 -0.3832 -0.1536
                                         0.0001  0.1502 -0.2305  0.1926
 515. (0.00006) RY ( 4) H 24            s(  0.04%)p99.99( 80.84%)d99.99( 19.12%)
 516. (0.00003) RY ( 5) H 24            s( 61.37%)p 0.46( 28.31%)d 0.17( 10.31%)
 517. (0.00001) RY ( 6) H 24            s(  1.23%)p65.50( 80.66%)d14.70( 18.11%)
 518. (0.00001) RY ( 7) H 24            s(  0.77%)p99.99( 93.62%)d 7.26(  5.61%)
 519. (0.00000) RY ( 8) H 24            s( 24.57%)p 2.19( 53.91%)d 0.88( 21.52%)
 520. (0.00000) RY ( 9) H 24            s(  0.85%)p 7.65(  6.46%)d99.99( 92.69%)
 521. (0.00000) RY (10) H 24            s(  1.78%)p12.77( 22.69%)d42.49( 75.53%)
 522. (0.00000) RY (11) H 24            s(  1.62%)p15.95( 25.88%)d44.70( 72.50%)
 523. (0.00000) RY (12) H 24            s(  0.86%)p11.02(  9.44%)d99.99( 89.71%)
 524. (0.00000) RY (13) H 24            s(  0.16%)p99.99( 39.74%)d99.99( 60.10%)
 525. (0.00077) RY ( 1) H 25            s( 97.81%)p 0.02(  1.70%)d 0.01(  0.49%)
                                         0.0003  0.9890  0.0024  0.0522  0.0073
                                        -0.0911  0.0397 -0.0306  0.0579 -0.0176
                                        -0.0110 -0.0639 -0.0070  0.0185
 526. (0.00010) RY ( 2) H 25            s(  1.14%)p61.72( 70.24%)d25.15( 28.62%)
                                         0.0026 -0.0356  0.1005  0.8244  0.0861
                                         0.0591  0.0318 -0.0936 -0.0467  0.4069
                                        -0.3445  0.0212  0.0371  0.0123
 527. (0.00009) RY ( 3) H 25            s(  9.05%)p 6.95( 62.86%)d 3.11( 28.10%)
 528. (0.00003) RY ( 4) H 25            s(  1.08%)p87.36( 94.00%)d 4.58(  4.92%)
 529. (0.00002) RY ( 5) H 25            s( 22.17%)p 2.86( 63.41%)d 0.65( 14.42%)
 530. (0.00001) RY ( 6) H 25            s( 32.34%)p 1.77( 57.26%)d 0.32( 10.40%)
 531. (0.00000) RY ( 7) H 25            s(  2.71%)p31.20( 84.58%)d 4.69( 12.71%)
 532. (0.00000) RY ( 8) H 25            s( 12.28%)p 1.59( 19.56%)d 5.55( 68.16%)
 533. (0.00000) RY ( 9) H 25            s(  1.64%)p13.95( 22.86%)d46.05( 75.50%)
 534. (0.00000) RY (10) H 25            s(  4.61%)p 1.54(  7.11%)d19.17( 88.29%)
 535. (0.00000) RY (11) H 25            s(  1.14%)p38.46( 43.69%)d48.57( 55.18%)
 536. (0.00000) RY (12) H 25            s(  1.21%)p16.89( 20.50%)d64.52( 78.29%)
 537. (0.00000) RY (13) H 25            s( 12.88%)p 4.05( 52.20%)d 2.71( 34.92%)


 NHO DIRECTIONALITY AND BOND BENDING (deviation from line of nuclear centers at
                                      the position of maximum hybrid amplitude)

         [Thresholds for printing:  angular deviation  >  1.0 degree]
                                    p- or d-character  > 25.0%
                                    orbital occupancy  >  0.10e

                        Line of Centers        Hybrid 1             Hybrid 2
                        ---------------  -------------------  ------------------
           NBO            Theta   Phi    Theta   Phi    Dev   Theta   Phi    Dev
 ===============================================================================
  12. LP ( 1) O  1          --     --     89.9   98.7   --      --     --    --
  13. LP ( 2) O  1          --     --     89.4  190.0   --      --     --    --
  14. LP ( 3) O  1          --     --    178.9  244.3   --      --     --    --
  15. LP ( 1) N  4          --     --     89.4   89.9   --      --     --    --
  16. LP ( 1) O  9          --     --     89.3  275.5   --      --     --    --
  17. LP ( 2) O  9          --     --    179.6  342.9   --      --     --    --
  18. BD ( 1) O  1- C  2   90.0  278.6     --     --    --     90.0   97.3   1.3
  19. BD ( 1) C  2- C  3   89.6  327.3    89.6  328.8   1.5    90.3  146.2   1.2
  20. BD ( 2) C  2- C  3   89.6  327.3   177.7  334.5  88.1   179.0   79.2  89.2
  21. BD ( 1) C  2- O  9   90.4  216.9    90.7  213.9   3.1    89.8   38.0   1.1
  22. BD ( 1) C  3- N  4   89.2   26.6    89.2   27.7   1.1     --     --    --
  24. BD ( 1) N  4- C  5   89.9  330.7     --     --    --     89.9  149.7   1.0
  25. BD ( 2) N  4- C  5   89.9  330.7   178.1  336.1  88.2   177.8  134.0  87.7
  26. BD ( 1) C  5- C  6   89.4   28.3    90.4   29.4   1.5     --     --    --
  29. BD ( 1) C  6- C  8   43.7  328.7     --     --    --    137.5  148.5   1.2
  38. BD ( 1) C 10- C 11   23.9  130.0     --     --    --    156.8  307.7   1.2
  39. BD ( 1) C 10- H 21  128.2   88.6   129.1   87.8   1.1     --     --    --
  40. BD ( 1) C 10- H 22  110.1  224.9   110.2  226.1   1.1     --     --    --


 3-Center, 4-Electron A:-B-:C Hyperbonds (A-B :C <=> A: B-C)
              [threshold for detection: 33.3%]

                                                  NBOs       3-center hybrids
                                              -------------  ----------------
       Hyperbond A:-B-:C   %A-B/%B-C   occ    BD(A-B) LP(C)  h(A)  h(B)  h(C)
      -------------------  ---------  ------  ------- -----  ----  ----  ----
   1.  C  3:- C  2-: O  1  52.8/47.2  3.8442      20     14    22    23    14


 SECOND ORDER PERTURBATION THEORY ANALYSIS OF FOCK MATRIX IN NBO BASIS

     Threshold for printing:   0.50 kcal/mol
                                                          E(2) E(NL)-E(L) F(L,NL)
      Donor (L) NBO              Acceptor (NL) NBO      kcal/mol   a.u.    a.u.
 ===============================================================================

 within unit  1
   12. LP ( 1) O  1            45. BD*( 1) C  2- C  3      3.72    1.21   0.060
   12. LP ( 1) O  1            47. BD*( 1) C  2- O  9      1.47    1.02   0.035
   12. LP ( 1) O  1            72. RY ( 3) O  1            0.63    2.73   0.037
   12. LP ( 1) O  1            96. RY ( 1) C  2           14.60    1.89   0.148
   13. LP ( 2) O  1            45. BD*( 1) C  2- C  3     18.94    0.88   0.115
   13. LP ( 2) O  1            47. BD*( 1) C  2- O  9     45.21    0.69   0.158
   13. LP ( 2) O  1            66. BD*( 1) C 10- H 22      0.85    0.71   0.022
   13. LP ( 2) O  1            97. RY ( 2) C  2            0.81    1.82   0.034
   13. LP ( 2) O  1            99. RY ( 4) C  2            1.69    3.61   0.070
   14. LP ( 3) O  1            46. BD*( 2) C  2- C  3    138.94    0.34   0.193
   14. LP ( 3) O  1            70. RY ( 1) O  1            0.51    1.09   0.021
   14. LP ( 3) O  1            98. RY ( 3) C  2            4.55    1.87   0.082
   14. LP ( 3) O  1           100. RY ( 5) C  2            1.46    2.26   0.051
   15. LP ( 1) N  4            45. BD*( 1) C  2- C  3      5.30    0.91   0.062
   15. LP ( 1) N  4            47. BD*( 1) C  2- O  9      0.56    0.72   0.018
   15. LP ( 1) N  4            49. BD*( 1) C  3- H 12     13.74    0.79   0.093
   15. LP ( 1) N  4            52. BD*( 1) C  5- C  6      6.30    0.78   0.063
   15. LP ( 1) N  4            53. BD*( 1) C  5- H 13     17.40    0.76   0.103
   15. LP ( 1) N  4            59. BD*( 1) C  7- H 17      0.97    0.78   0.024
   15. LP ( 1) N  4           123. RY ( 2) C  3            3.41    1.77   0.069
   15. LP ( 1) N  4           174. RY ( 1) C  5            5.56    1.51   0.082
   16. LP ( 1) O  9            44. BD*( 1) O  1- C  2      7.21    1.26   0.085
   16. LP ( 1) O  9            48. BD*( 1) C  3- N  4      0.64    1.18   0.025
   16. LP ( 1) O  9            64. BD*( 1) C 10- C 11      0.65    0.98   0.023
   16. LP ( 1) O  9            65. BD*( 1) C 10- H 21      2.82    0.99   0.047
   16. LP ( 1) O  9            66. BD*( 1) C 10- H 22      2.81    0.99   0.047
   16. LP ( 1) O  9            96. RY ( 1) C  2            1.25    1.84   0.043
   16. LP ( 1) O  9            97. RY ( 2) C  2            1.19    2.10   0.045
   16. LP ( 1) O  9           304. RY ( 1) C 10            2.00    1.91   0.055
   16. LP ( 1) O  9           305. RY ( 2) C 10            0.53    1.74   0.027
   17. LP ( 2) O  9            46. BD*( 2) C  2- C  3     37.12    0.43   0.113
   17. LP ( 2) O  9            64. BD*( 1) C 10- C 11      9.73    0.77   0.077
   17. LP ( 2) O  9            65. BD*( 1) C 10- H 21      5.08    0.78   0.056
   17. LP ( 2) O  9            66. BD*( 1) C 10- H 22      1.27    0.78   0.028
   17. LP ( 2) O  9            67. BD*( 1) C 11- H 23      0.89    0.79   0.024
   17. LP ( 2) O  9           100. RY ( 5) C  2            1.56    2.35   0.054
   17. LP ( 2) O  9           306. RY ( 3) C 10            1.11    2.00   0.042
   18. BD ( 1) O  1- C  2      45. BD*( 1) C  2- C  3      1.15    1.54   0.038
   18. BD ( 1) O  1- C  2      49. BD*( 1) C  3- H 12      0.82    1.42   0.030
   19. BD ( 1) C  2- C  3      44. BD*( 1) O  1- C  2      0.66    1.33   0.027
   19. BD ( 1) C  2- C  3      48. BD*( 1) C  3- N  4      0.68    1.26   0.026
   19. BD ( 1) C  2- C  3      50. BD*( 1) N  4- C  5      3.60    1.35   0.062
   19. BD ( 1) C  2- C  3      63. BD*( 1) O  9- C 10      3.16    1.04   0.051
   19. BD ( 1) C  2- C  3      71. RY ( 2) O  1            0.75    1.61   0.031
   19. BD ( 1) C  2- C  3     148. RY ( 1) N  4            1.16    1.53   0.038
   19. BD ( 1) C  2- C  3     279. RY ( 2) O  9            0.53    1.50   0.025
   20. BD ( 2) C  2- C  3      46. BD*( 2) C  2- C  3      9.89    0.32   0.050
   20. BD ( 2) C  2- C  3      51. BD*( 2) N  4- C  5     44.32    0.34   0.110
   20. BD ( 2) C  2- C  3      70. RY ( 1) O  1            1.90    1.08   0.040
   20. BD ( 2) C  2- C  3     150. RY ( 3) N  4            1.37    2.09   0.048
   21. BD ( 1) C  2- O  9      48. BD*( 1) C  3- N  4      1.97    1.41   0.047
   21. BD ( 1) C  2- O  9      65. BD*( 1) C 10- H 21      0.66    1.22   0.025
   21. BD ( 1) C  2- O  9      66. BD*( 1) C 10- H 22      1.40    1.22   0.037
   21. BD ( 1) C  2- O  9     124. RY ( 3) C  3            0.64    2.18   0.033
   21. BD ( 1) C  2- O  9     305. RY ( 2) C 10            2.10    1.97   0.057
   22. BD ( 1) C  3- N  4      45. BD*( 1) C  2- C  3      0.73    1.32   0.028
   22. BD ( 1) C  3- N  4      47. BD*( 1) C  2- O  9      2.11    1.13   0.044
   22. BD ( 1) C  3- N  4      50. BD*( 1) N  4- C  5      0.76    1.44   0.030
   22. BD ( 1) C  3- N  4      52. BD*( 1) C  5- C  6      3.58    1.19   0.058
   22. BD ( 1) C  3- N  4      96. RY ( 1) C  2            1.24    2.01   0.045
   22. BD ( 1) C  3- N  4     176. RY ( 3) C  5            2.56    2.18   0.067
   23. BD ( 1) C  3- H 12      44. BD*( 1) O  1- C  2      5.60    1.20   0.073
   23. BD ( 1) C  3- H 12      47. BD*( 1) C  2- O  9      0.52    0.91   0.019
   23. BD ( 1) C  3- H 12      97. RY ( 2) C  2            0.93    2.04   0.039
   23. BD ( 1) C  3- H 12     148. RY ( 1) N  4            0.98    1.40   0.033
   24. BD ( 1) N  4- C  5      45. BD*( 1) C  2- C  3      1.45    1.38   0.040
   24. BD ( 1) N  4- C  5      48. BD*( 1) C  3- N  4      0.92    1.41   0.032
   24. BD ( 1) N  4- C  5      52. BD*( 1) C  5- C  6      0.55    1.26   0.023
   24. BD ( 1) N  4- C  5      55. BD*( 1) C  6- C  8      0.54    1.20   0.023
   24. BD ( 1) N  4- C  5     124. RY ( 3) C  3            2.16    2.18   0.061
   25. BD ( 2) N  4- C  5      46. BD*( 2) C  2- C  3     12.87    0.41   0.065
   25. BD ( 2) N  4- C  5      51. BD*( 2) N  4- C  5      1.40    0.43   0.022
   25. BD ( 2) N  4- C  5      55. BD*( 1) C  6- C  8      2.34    0.75   0.037
   25. BD ( 2) N  4- C  5      56. BD*( 1) C  6- H 14      3.59    0.75   0.046
   25. BD ( 2) N  4- C  5     122. RY ( 1) C  3            2.62    0.94   0.044
   26. BD ( 1) C  5- C  6      48. BD*( 1) C  3- N  4      4.53    1.20   0.066
   26. BD ( 1) C  5- C  6      50. BD*( 1) N  4- C  5      0.76    1.29   0.028
   26. BD ( 1) C  5- C  6      59. BD*( 1) C  7- H 17      1.86    1.03   0.039
   26. BD ( 1) C  5- C  6      60. BD*( 1) C  8- H 18      2.00    1.02   0.040
   26. BD ( 1) C  5- C  6     148. RY ( 1) N  4            0.93    1.47   0.033
   26. BD ( 1) C  5- C  6     226. RY ( 1) C  7            0.54    1.79   0.028
   27. BD ( 1) C  5- H 13      54. BD*( 1) C  6- C  7      3.02    0.94   0.048
   27. BD ( 1) C  5- H 13     148. RY ( 1) N  4            1.53    1.41   0.041
   27. BD ( 1) C  5- H 13     149. RY ( 2) N  4            0.86    1.78   0.035
   27. BD ( 1) C  5- H 13     200. RY ( 1) C  6            0.69    1.68   0.030
   27. BD ( 1) C  5- H 13     201. RY ( 2) C  6            0.56    1.98   0.030
   28. BD ( 1) C  6- C  7      53. BD*( 1) C  5- H 13      2.55    1.01   0.045
   28. BD ( 1) C  6- C  7      61. BD*( 1) C  8- H 19      1.91    1.02   0.039
   28. BD ( 1) C  6- C  7     176. RY ( 3) C  5            0.69    2.02   0.033
   28. BD ( 1) C  6- C  7     252. RY ( 1) C  8            0.64    1.61   0.029
   29. BD ( 1) C  6- C  8      50. BD*( 1) N  4- C  5      1.33    1.28   0.037
   29. BD ( 1) C  6- C  8      51. BD*( 2) N  4- C  5      2.49    0.66   0.036
   29. BD ( 1) C  6- C  8      58. BD*( 1) C  7- H 16      1.92    1.04   0.040
   29. BD ( 1) C  6- C  8     227. RY ( 2) C  7            0.66    1.85   0.031
   30. BD ( 1) C  6- H 14      50. BD*( 1) N  4- C  5      1.07    1.21   0.032
   30. BD ( 1) C  6- H 14      51. BD*( 2) N  4- C  5      5.29    0.59   0.050
   30. BD ( 1) C  6- H 14      57. BD*( 1) C  7- H 15      3.56    0.95   0.052
   30. BD ( 1) C  6- H 14      62. BD*( 1) C  8- H 20      3.67    0.94   0.052
   30. BD ( 1) C  6- H 14     175. RY ( 2) C  5            0.65    1.26   0.025
   31. BD ( 1) C  7- H 15      56. BD*( 1) C  6- H 14      3.27    0.92   0.049
   32. BD ( 1) C  7- H 16      55. BD*( 1) C  6- C  8      3.60    0.92   0.051
   32. BD ( 1) C  7- H 16     201. RY ( 2) C  6            0.72    1.97   0.034
   33. BD ( 1) C  7- H 17      52. BD*( 1) C  5- C  6      3.51    0.98   0.052
   34. BD ( 1) C  8- H 18      52. BD*( 1) C  5- C  6      3.07    0.98   0.049
   35. BD ( 1) C  8- H 19      54. BD*( 1) C  6- C  7      3.34    0.94   0.050
   36. BD ( 1) C  8- H 20      56. BD*( 1) C  6- H 14      2.95    0.93   0.047
   36. BD ( 1) C  8- H 20     200. RY ( 1) C  6            0.71    1.68   0.031
   37. BD ( 1) O  9- C 10      45. BD*( 1) C  2- C  3      1.80    1.40   0.045
   37. BD ( 1) O  9- C 10      67. BD*( 1) C 11- H 23      0.96    1.25   0.031
   37. BD ( 1) O  9- C 10      96. RY ( 1) C  2            1.04    2.09   0.042
   38. BD ( 1) C 10- C 11     278. RY ( 1) O  9            1.06    1.37   0.034
   39. BD ( 1) C 10- H 21      69. BD*( 1) C 11- H 25      3.07    0.96   0.049
   39. BD ( 1) C 10- H 21     278. RY ( 1) O  9            0.72    1.31   0.027
   40. BD ( 1) C 10- H 22      47. BD*( 1) C  2- O  9      3.85    0.93   0.053
   40. BD ( 1) C 10- H 22      68. BD*( 1) C 11- H 24      2.79    0.98   0.047
   41. BD ( 1) C 11- H 23      63. BD*( 1) O  9- C 10      4.26    0.92   0.056
   41. BD ( 1) C 11- H 23     307. RY ( 4) C 10            0.56    2.10   0.031
   42. BD ( 1) C 11- H 24      66. BD*( 1) C 10- H 22      2.78    0.94   0.046
   43. BD ( 1) C 11- H 25      63. BD*( 1) O  9- C 10      0.59    0.92   0.021
   43. BD ( 1) C 11- H 25      65. BD*( 1) C 10- H 21      2.57    0.95   0.044


 NATURAL BOND ORBITALS (Summary):

                                                     Principal Delocalizations
           NBO                 Occupancy    Energy   (geminal,vicinal,remote)
 ===============================================================================
 Molecular unit  1  (C8H14NO2)
 ------ Lewis --------------------------------------
    1. CR ( 1) O  1             2.00000   -19.53762
    2. CR ( 1) C  2             1.99999   -10.59294
    3. CR ( 1) C  3             1.99999   -10.47716
    4. CR ( 1) N  4             1.99999   -14.70200
    5. CR ( 1) C  5             1.99999   -10.51224
    6. CR ( 1) C  6             1.99999   -10.51426
    7. CR ( 1) C  7             1.99999   -10.49734
    8. CR ( 1) C  8             1.99999   -10.50674
    9. CR ( 1) O  9             2.00000   -19.60215
   10. CR ( 1) C 10             1.99999   -10.55374
   11. CR ( 1) C 11             1.99999   -10.50152
   12. LP ( 1) O  1             1.97687    -0.60494  96(v),45(v),47(v),72(g)
   13. LP ( 2) O  1             1.85209    -0.27703  47(v),45(v),99(v),66(r)
                                                     97(v)
   14. LP ( 3) O  1             1.63588    -0.25332  46(v),98(v),100(v),70(g)
   15. LP ( 1) N  4             1.88246    -0.31098  53(v),49(v),52(v),174(v)
                                                     45(v),123(v),59(r),47(r)
   16. LP ( 1) O  9             1.96364    -0.55244  44(v),65(v),66(v),304(v)
                                                     96(v),97(v),64(v),48(r)
                                                     305(v)
   17. LP ( 2) O  9             1.86515    -0.34494  46(v),64(v),65(v),100(v)
                                                     66(v),306(v),67(r)
   18. BD ( 1) O  1- C  2       1.99642    -0.93680  45(g),49(v)
   19. BD ( 1) C  2- C  3       1.98278    -0.62447  50(v),63(v),148(v),71(v)
                                                     48(g),44(g),279(v)
   20. BD ( 2) C  2- C  3       1.77361    -0.23984  51(v),46(g),70(v),150(v)
   21. BD ( 1) C  2- O  9       1.98835    -0.78362  305(v),48(v),66(v),65(v)
                                                     124(v)
   22. BD ( 1) C  3- N  4       1.98292    -0.72122  52(v),176(v),47(v),96(v)
                                                     50(g),45(g)
   23. BD ( 1) C  3- H 12       1.98438    -0.49499  44(v),148(v),97(v),47(v)
   24. BD ( 1) N  4- C  5       1.99101    -0.78225  124(v),45(v),48(g),52(g)
                                                     55(v)
   25. BD ( 2) N  4- C  5       1.95211    -0.32975  46(v),56(v),122(v),55(v)
                                                     51(g)
   26. BD ( 1) C  5- C  6       1.97920    -0.56489  48(v),60(v),59(v),148(v)
                                                     50(g),226(v)
   27. BD ( 1) C  5- H 13       1.98701    -0.50918  54(v),148(v),149(v),200(v)
                                                     201(v)
   28. BD ( 1) C  6- C  7       1.98613    -0.55940  53(v),61(v),176(v),252(v)
   29. BD ( 1) C  6- C  8       1.98284    -0.55993  51(v),58(v),50(v),227(v)
   30. BD ( 1) C  6- H 14       1.96166    -0.48479  51(v),62(v),57(v),50(v)
                                                     175(v)
   31. BD ( 1) C  7- H 15       1.98971    -0.49876  56(v)
   32. BD ( 1) C  7- H 16       1.98913    -0.49825  55(v),201(v)
   33. BD ( 1) C  7- H 17       1.99016    -0.50416  52(v)
   34. BD ( 1) C  8- H 18       1.99072    -0.51065  52(v)
   35. BD ( 1) C  8- H 19       1.98994    -0.50982  54(v)
   36. BD ( 1) C  8- H 20       1.99106    -0.50867  56(v),200(v)
   37. BD ( 1) O  9- C 10       1.99262    -0.80090  45(v),96(v),67(v)
   38. BD ( 1) C 10- C 11       1.99488    -0.57776  278(v)
   39. BD ( 1) C 10- H 21       1.98743    -0.51220  69(v),278(v)
   40. BD ( 1) C 10- H 22       1.98355    -0.51431  47(v),68(v)
   41. BD ( 1) C 11- H 23       1.98746    -0.51188  63(v),307(v)
   42. BD ( 1) C 11- H 24       1.99026    -0.50642  66(v)
   43. BD ( 1) C 11- H 25       1.99096    -0.51011  65(v),63(v)
 ------ non-Lewis ----------------------------------
   44. BD*( 1) O  1- C  2       0.02031     0.70869
   45. BD*( 1) C  2- C  3       0.05323     0.60151
   46. BD*( 2) C  2- C  3       0.43472     0.08317
   47. BD*( 1) C  2- O  9       0.11612     0.41218
   48. BD*( 1) C  3- N  4       0.01222     0.63082
   49. BD*( 1) C  3- H 12       0.03653     0.47984
   50. BD*( 1) N  4- C  5       0.00922     0.72109
   51. BD*( 2) N  4- C  5       0.27044     0.10501
   52. BD*( 1) C  5- C  6       0.03271     0.47371
   53. BD*( 1) C  5- H 13       0.04942     0.45029
   54. BD*( 1) C  6- C  7       0.01369     0.43429
   55. BD*( 1) C  6- C  8       0.01667     0.41788
   56. BD*( 1) C  6- H 14       0.03176     0.41710
   57. BD*( 1) C  7- H 15       0.01013     0.46256
   58. BD*( 1) C  7- H 16       0.00655     0.47618
   59. BD*( 1) C  7- H 17       0.00715     0.46420
   60. BD*( 1) C  8- H 18       0.00794     0.45358
   61. BD*( 1) C  8- H 19       0.00657     0.45718
   62. BD*( 1) C  8- H 20       0.01023     0.45180
   63. BD*( 1) O  9- C 10       0.02257     0.41093
   64. BD*( 1) C 10- C 11       0.02081     0.42599
   65. BD*( 1) C 10- H 21       0.02939     0.43501
   66. BD*( 1) C 10- H 22       0.02102     0.43476
   67. BD*( 1) C 11- H 23       0.00478     0.44991
   68. BD*( 1) C 11- H 24       0.00886     0.46315
   69. BD*( 1) C 11- H 25       0.00834     0.45093
   70. RY ( 1) O  1             0.00264     0.83596
   71. RY ( 2) O  1             0.00208     0.98898
   72. RY ( 3) O  1             0.00028     2.12729
   73. RY ( 4) O  1             0.00014     2.17498
   74. RY ( 5) O  1             0.00012     1.78232
   75. RY ( 6) O  1             0.00007     2.23421
   76. RY ( 7) O  1             0.00005     2.56669
   77. RY ( 8) O  1             0.00001     3.66821
   78. RY ( 9) O  1             0.00001     3.93142
   79. RY (10) O  1             0.00000     3.87406
   80. RY (11) O  1             0.00000     3.05898
   81. RY (12) O  1             0.00000     6.46837
   82. RY (13) O  1             0.00000    11.39439
   83. RY (14) O  1             0.00000     5.84776
   84. RY (15) O  1             0.00000     5.59570
   85. RY (16) O  1             0.00000     4.33658
   86. RY (17) O  1             0.00000     2.95146
   87. RY (18) O  1             0.00000     5.18481
   88. RY (19) O  1             0.00000    19.42617
   89. RY (20) O  1             0.00000     6.22482
   90. RY (21) O  1             0.00000     6.61713
   91. RY (22) O  1             0.00000     6.36099
   92. RY (23) O  1             0.00000     7.49158
   93. RY (24) O  1             0.00000     6.81752
   94. RY (25) O  1             0.00000     7.45366
   95. RY (26) O  1             0.00000    14.70862
   96. RY ( 1) C  2             0.01723     1.28508
   97. RY ( 2) C  2             0.00620     1.54640
   98. RY ( 3) C  2             0.00542     1.61935
   99. RY ( 4) C  2             0.00228     3.33240
  100. RY ( 5) C  2             0.00197     2.00932
  101. RY ( 6) C  2             0.00078     2.11193
  102. RY ( 7) C  2             0.00056     1.29479
  103. RY ( 8) C  2             0.00038     3.40025
  104. RY ( 9) C  2             0.00011     1.90420
  105. RY (10) C  2             0.00008     1.69719
  106. RY (11) C  2             0.00005     2.71655
  107. RY (12) C  2             0.00003     3.09234
  108. RY (13) C  2             0.00002     2.97364
  109. RY (14) C  2             0.00001     2.84710
  110. RY (15) C  2             0.00001     2.99045
  111. RY (16) C  2             0.00000     5.88209
  112. RY (17) C  2             0.00000     5.89142
  113. RY (18) C  2             0.00000     7.94128
  114. RY (19) C  2             0.00000     6.76734
  115. RY (20) C  2             0.00000     3.10991
  116. RY (21) C  2             0.00000     3.07304
  117. RY (22) C  2             0.00000     4.12014
  118. RY (23) C  2             0.00000     5.27426
  119. RY (24) C  2             0.00000     2.80487
  120. RY (25) C  2             0.00000     3.51248
  121. RY (26) C  2             0.00000     4.55802
  122. RY ( 1) C  3             0.00602     0.60596
  123. RY ( 2) C  3             0.00512     1.45754
  124. RY ( 3) C  3             0.00296     1.39759
  125. RY ( 4) C  3             0.00097     1.29063
  126. RY ( 5) C  3             0.00029     2.40223
  127. RY ( 6) C  3             0.00023     2.37027
  128. RY ( 7) C  3             0.00021     3.01648
  129. RY ( 8) C  3             0.00015     1.63347
  130. RY ( 9) C  3             0.00013     2.89837
  131. RY (10) C  3             0.00004     2.62952
  132. RY (11) C  3             0.00004     3.67519
  133. RY (12) C  3             0.00001     2.51274
  134. RY (13) C  3             0.00001     3.33965
  135. RY (14) C  3             0.00001     2.46624
  136. RY (15) C  3             0.00001     2.94031
  137. RY (16) C  3             0.00000     3.46087
  138. RY (17) C  3             0.00000     3.66175
  139. RY (18) C  3             0.00000     3.92770
  140. RY (19) C  3             0.00000     4.33467
  141. RY (20) C  3             0.00000     8.18935
  142. RY (21) C  3             0.00000     3.36809
  143. RY (22) C  3             0.00000     5.83965
  144. RY (23) C  3             0.00000     6.56604
  145. RY (24) C  3             0.00000     5.64748
  146. RY (25) C  3             0.00000     3.04528
  147. RY (26) C  3             0.00000     3.37717
  148. RY ( 1) N  4             0.00731     0.90334
  149. RY ( 2) N  4             0.00226     1.26957
  150. RY ( 3) N  4             0.00123     1.84589
  151. RY ( 4) N  4             0.00070     1.34876
  152. RY ( 5) N  4             0.00032     1.46293
  153. RY ( 6) N  4             0.00018     2.62629
  154. RY ( 7) N  4             0.00014     4.14876
  155. RY ( 8) N  4             0.00006     3.30156
  156. RY ( 9) N  4             0.00003     2.08282
  157. RY (10) N  4             0.00002     2.04325
  158. RY (11) N  4             0.00001     5.66236
  159. RY (12) N  4             0.00001     3.84844
  160. RY (13) N  4             0.00001     3.34499
  161. RY (14) N  4             0.00000     3.26362
  162. RY (15) N  4             0.00000    18.01022
  163. RY (16) N  4             0.00000     4.81312
  164. RY (17) N  4             0.00000     4.78037
  165. RY (18) N  4             0.00000     6.84532
  166. RY (19) N  4             0.00000     6.75643
  167. RY (20) N  4             0.00000     4.77047
  168. RY (21) N  4             0.00000     8.12620
  169. RY (22) N  4             0.00000     5.75632
  170. RY (23) N  4             0.00000     4.32970
  171. RY (24) N  4             0.00000     4.50089
  172. RY (25) N  4             0.00000     4.55636
  173. RY (26) N  4             0.00000     3.33778
  174. RY ( 1) C  5             0.00847     1.20260
  175. RY ( 2) C  5             0.00388     0.77270
  176. RY ( 3) C  5             0.00329     1.46168
  177. RY ( 4) C  5             0.00083     1.68614
  178. RY ( 5) C  5             0.00033     3.00921
  179. RY ( 6) C  5             0.00017     3.37833
  180. RY ( 7) C  5             0.00011     2.16102
  181. RY ( 8) C  5             0.00009     3.35167
  182. RY ( 9) C  5             0.00006     2.30841
  183. RY (10) C  5             0.00005     2.65356
  184. RY (11) C  5             0.00004     2.32152
  185. RY (12) C  5             0.00002     1.82708
  186. RY (13) C  5             0.00001     2.07506
  187. RY (14) C  5             0.00001     2.59901
  188. RY (15) C  5             0.00000     2.87804
  189. RY (16) C  5             0.00000     3.50224
  190. RY (17) C  5             0.00000     3.66578
  191. RY (18) C  5             0.00000     9.85886
  192. RY (19) C  5             0.00000     3.17403
  193. RY (20) C  5             0.00000    11.41212
  194. RY (21) C  5             0.00000     3.49329
  195. RY (22) C  5             0.00000     2.99634
  196. RY (23) C  5             0.00000     5.19932
  197. RY (24) C  5             0.00000     2.55248
  198. RY (25) C  5             0.00000     3.04046
  199. RY (26) C  5             0.00000     3.34861
  200. RY ( 1) C  6             0.00288     1.17174
  201. RY ( 2) C  6             0.00183     1.46867
  202. RY ( 3) C  6             0.00127     1.56765
  203. RY ( 4) C  6             0.00070     2.27095
  204. RY ( 5) C  6             0.00048     2.43190
  205. RY ( 6) C  6             0.00030     2.82963
  206. RY ( 7) C  6             0.00014     3.01329
  207. RY ( 8) C  6             0.00010     4.07716
  208. RY ( 9) C  6             0.00008     3.45620
  209. RY (10) C  6             0.00006     3.52691
  210. RY (11) C  6             0.00004     2.54853
  211. RY (12) C  6             0.00001     2.35901
  212. RY (13) C  6             0.00000     2.11930
  213. RY (14) C  6             0.00000     3.99324
  214. RY (15) C  6             0.00000     4.29056
  215. RY (16) C  6             0.00000     3.65649
  216. RY (17) C  6             0.00000     3.40600
  217. RY (18) C  6             0.00000     3.33981
  218. RY (19) C  6             0.00000     3.49112
  219. RY (20) C  6             0.00000     3.92033
  220. RY (21) C  6             0.00000     3.55351
  221. RY (22) C  6             0.00000     3.10185
  222. RY (23) C  6             0.00000     5.70041
  223. RY (24) C  6             0.00000     8.33974
  224. RY (25) C  6             0.00000     3.61753
  225. RY (26) C  6             0.00000     3.38131
  226. RY ( 1) C  7             0.00224     1.22057
  227. RY ( 2) C  7             0.00138     1.28945
  228. RY ( 3) C  7             0.00028     1.13922
  229. RY ( 4) C  7             0.00022     2.16283
  230. RY ( 5) C  7             0.00015     2.00884
  231. RY ( 6) C  7             0.00007     2.10181
  232. RY ( 7) C  7             0.00005     2.21111
  233. RY ( 8) C  7             0.00004     2.76664
  234. RY ( 9) C  7             0.00002     1.87305
  235. RY (10) C  7             0.00001     2.17081
  236. RY (11) C  7             0.00000     2.98198
  237. RY (12) C  7             0.00000     3.50349
  238. RY (13) C  7             0.00000     2.29818
  239. RY (14) C  7             0.00000     5.43690
  240. RY (15) C  7             0.00000     3.65094
  241. RY (16) C  7             0.00000     2.55634
  242. RY (17) C  7             0.00000     3.44597
  243. RY (18) C  7             0.00000     6.71152
  244. RY (19) C  7             0.00000     3.56611
  245. RY (20) C  7             0.00000     3.68972
  246. RY (21) C  7             0.00000     3.40149
  247. RY (22) C  7             0.00000     3.40491
  248. RY (23) C  7             0.00000     5.34598
  249. RY (24) C  7             0.00000     5.40536
  250. RY (25) C  7             0.00000     3.37364
  251. RY (26) C  7             0.00000     8.34362
  252. RY ( 1) C  8             0.00154     1.05402
  253. RY ( 2) C  8             0.00090     1.40634
  254. RY ( 3) C  8             0.00021     1.90003
  255. RY ( 4) C  8             0.00016     2.20283
  256. RY ( 5) C  8             0.00011     1.85319
  257. RY ( 6) C  8             0.00006     1.68138
  258. RY ( 7) C  8             0.00002     2.04811
  259. RY ( 8) C  8             0.00001     2.21191
  260. RY ( 9) C  8             0.00001     1.84521
  261. RY (10) C  8             0.00000     2.09509
  262. RY (11) C  8             0.00000     2.78857
  263. RY (12) C  8             0.00000     4.26131
  264. RY (13) C  8             0.00000     4.94076
  265. RY (14) C  8             0.00000     9.48102
  266. RY (15) C  8             0.00000     3.13444
  267. RY (16) C  8             0.00000     4.13787
  268. RY (17) C  8             0.00000     3.43450
  269. RY (18) C  8             0.00000     3.42410
  270. RY (19) C  8             0.00000     5.56930
  271. RY (20) C  8             0.00000     3.73432
  272. RY (21) C  8             0.00000     3.90865
  273. RY (22) C  8             0.00000     3.47722
  274. RY (23) C  8             0.00000     3.99151
  275. RY (24) C  8             0.00000     3.41402
  276. RY (25) C  8             0.00000     3.79252
  277. RY (26) C  8             0.00000     3.99108
  278. RY ( 1) O  9             0.00357     0.79604
  279. RY ( 2) O  9             0.00224     0.88032
  280. RY ( 3) O  9             0.00101     2.18902
  281. RY ( 4) O  9             0.00039     2.01649
  282. RY ( 5) O  9             0.00019     2.33524
  283. RY ( 6) O  9             0.00010     3.10424
  284. RY ( 7) O  9             0.00008     3.84242
  285. RY ( 8) O  9             0.00006     3.01254
  286. RY ( 9) O  9             0.00002     4.40197
  287. RY (10) O  9             0.00002     3.35494
  288. RY (11) O  9             0.00001     4.07177
  289. RY (12) O  9             0.00000     5.18779
  290. RY (13) O  9             0.00000     4.54024
  291. RY (14) O  9             0.00000     4.87442
  292. RY (15) O  9             0.00000     4.00964
  293. RY (16) O  9             0.00000     4.89239
  294. RY (17) O  9             0.00000    23.73044
  295. RY (18) O  9             0.00000    16.69838
  296. RY (19) O  9             0.00000     8.76073
  297. RY (20) O  9             0.00000     6.48516
  298. RY (21) O  9             0.00000     6.33840
  299. RY (22) O  9             0.00000     6.00071
  300. RY (23) O  9             0.00000     8.07411
  301. RY (24) O  9             0.00000     5.76563
  302. RY (25) O  9             0.00000     5.64785
  303. RY (26) O  9             0.00000     5.71404
  304. RY ( 1) C 10             0.00359     1.35969
  305. RY ( 2) C 10             0.00293     1.18860
  306. RY ( 3) C 10             0.00219     1.65751
  307. RY ( 4) C 10             0.00085     1.59172
  308. RY ( 5) C 10             0.00046     1.99466
  309. RY ( 6) C 10             0.00026     3.35029
  310. RY ( 7) C 10             0.00020     2.49475
  311. RY ( 8) C 10             0.00015     2.01177
  312. RY ( 9) C 10             0.00005     3.20952
  313. RY (10) C 10             0.00004     2.81025
  314. RY (11) C 10             0.00002     1.74182
  315. RY (12) C 10             0.00001     2.06635
  316. RY (13) C 10             0.00000     3.15179
  317. RY (14) C 10             0.00000     4.67716
  318. RY (15) C 10             0.00000     5.68964
  319. RY (16) C 10             0.00000     3.67984
  320. RY (17) C 10             0.00000     3.63961
  321. RY (18) C 10             0.00000     4.92367
  322. RY (19) C 10             0.00000     4.39524
  323. RY (20) C 10             0.00000     5.41576
  324. RY (21) C 10             0.00000     4.04457
  325. RY (22) C 10             0.00000     5.60172
  326. RY (23) C 10             0.00000     4.85291
  327. RY (24) C 10             0.00000     2.73080
  328. RY (25) C 10             0.00000     3.62049
  329. RY (26) C 10             0.00000     4.27978
  330. RY ( 1) C 11             0.00132     1.18485
  331. RY ( 2) C 11             0.00050     1.29558
  332. RY ( 3) C 11             0.00035     1.88438
  333. RY ( 4) C 11             0.00023     1.63870
  334. RY ( 5) C 11             0.00009     2.23901
  335. RY ( 6) C 11             0.00006     1.70144
  336. RY ( 7) C 11             0.00003     1.57296
  337. RY ( 8) C 11             0.00001     2.00302
  338. RY ( 9) C 11             0.00001     1.98121
  339. RY (10) C 11             0.00000     2.11927
  340. RY (11) C 11             0.00000     3.40886
  341. RY (12) C 11             0.00000     6.80425
  342. RY (13) C 11             0.00000     2.15753
  343. RY (14) C 11             0.00000     4.08004
  344. RY (15) C 11             0.00000     3.91406
  345. RY (16) C 11             0.00000     2.69219
  346. RY (17) C 11             0.00000     3.96735
  347. RY (18) C 11             0.00000    10.26284
  348. RY (19) C 11             0.00000     3.60870
  349. RY (20) C 11             0.00000     3.81100
  350. RY (21) C 11             0.00000     3.70356
  351. RY (22) C 11             0.00000     4.03885
  352. RY (23) C 11             0.00000     3.55834
  353. RY (24) C 11             0.00000     3.74394
  354. RY (25) C 11             0.00000     3.97370
  355. RY (26) C 11             0.00000     3.64391
  356. RY ( 1) H 12             0.00275     0.59308
  357. RY ( 2) H 12             0.00028     1.76767
  358. RY ( 3) H 12             0.00019     2.59957
  359. RY ( 4) H 12             0.00014     2.84918
  360. RY ( 5) H 12             0.00002     3.02156
  361. RY ( 6) H 12             0.00001     3.22708
  362. RY ( 7) H 12             0.00001     3.44154
  363. RY ( 8) H 12             0.00000     4.61833
  364. RY ( 9) H 12             0.00000     4.33107
  365. RY (10) H 12             0.00000     3.74364
  366. RY (11) H 12             0.00000     3.94744
  367. RY (12) H 12             0.00000     3.38529
  368. RY (13) H 12             0.00000     4.10796
  369. RY ( 1) H 13             0.00405     0.54752
  370. RY ( 2) H 13             0.00018     1.79899
  371. RY ( 3) H 13             0.00013     2.73058
  372. RY ( 4) H 13             0.00008     1.84250
  373. RY ( 5) H 13             0.00005     3.90581
  374. RY ( 6) H 13             0.00001     3.43129
  375. RY ( 7) H 13             0.00001     3.37656
  376. RY ( 8) H 13             0.00000     4.42902
  377. RY ( 9) H 13             0.00000     3.72747
  378. RY (10) H 13             0.00000     4.32460
  379. RY (11) H 13             0.00000     3.99987
  380. RY (12) H 13             0.00000     3.51867
  381. RY (13) H 13             0.00000     3.60265
  382. RY ( 1) H 14             0.00159     0.86700
  383. RY ( 2) H 14             0.00010     2.12332
  384. RY ( 3) H 14             0.00009     3.34363
  385. RY ( 4) H 14             0.00007     3.84149
  386. RY ( 5) H 14             0.00003     3.85630
  387. RY ( 6) H 14             0.00002     3.14405
  388. RY ( 7) H 14             0.00001     3.26229
  389. RY ( 8) H 14             0.00001     3.01472
  390. RY ( 9) H 14             0.00000     3.66266
  391. RY (10) H 14             0.00000     3.77698
  392. RY (11) H 14             0.00000     3.86520
  393. RY (12) H 14             0.00000     3.27630
  394. RY (13) H 14             0.00000     3.57918
  395. RY ( 1) H 15             0.00116     0.82160
  396. RY ( 2) H 15             0.00017     2.64970
  397. RY ( 3) H 15             0.00015     3.07445
  398. RY ( 4) H 15             0.00007     2.66858
  399. RY ( 5) H 15             0.00003     2.32020
  400. RY ( 6) H 15             0.00002     2.61056
  401. RY ( 7) H 15             0.00001     3.48314
  402. RY ( 8) H 15             0.00000     3.73389
  403. RY ( 9) H 15             0.00000     4.42836
  404. RY (10) H 15             0.00000     4.11659
  405. RY (11) H 15             0.00000     4.32684
  406. RY (12) H 15             0.00000     3.61100
  407. RY (13) H 15             0.00000     3.60972
  408. RY ( 1) H 16             0.00066     0.81111
  409. RY ( 2) H 16             0.00017     2.66814
  410. RY ( 3) H 16             0.00012     3.51263
  411. RY ( 4) H 16             0.00006     2.61391
  412. RY ( 5) H 16             0.00004     2.16839
  413. RY ( 6) H 16             0.00001     2.52061
  414. RY ( 7) H 16             0.00000     3.36276
  415. RY ( 8) H 16             0.00000     3.94807
  416. RY ( 9) H 16             0.00000     3.36212
  417. RY (10) H 16             0.00000     3.86292
  418. RY (11) H 16             0.00000     4.54500
  419. RY (12) H 16             0.00000     3.82242
  420. RY (13) H 16             0.00000     4.26724
  421. RY ( 1) H 17             0.00043     0.86227
  422. RY ( 2) H 17             0.00011     3.02458
  423. RY ( 3) H 17             0.00009     3.53764
  424. RY ( 4) H 17             0.00008     2.40594
  425. RY ( 5) H 17             0.00003     2.42374
  426. RY ( 6) H 17             0.00001     2.45214
  427. RY ( 7) H 17             0.00001     2.31514
  428. RY ( 8) H 17             0.00000     3.42844
  429. RY ( 9) H 17             0.00000     3.96874
  430. RY (10) H 17             0.00000     4.35790
  431. RY (11) H 17             0.00000     3.97380
  432. RY (12) H 17             0.00000     4.11306
  433. RY (13) H 17             0.00000     4.45750
  434. RY ( 1) H 18             0.00063     0.79493
  435. RY ( 2) H 18             0.00012     2.87197
  436. RY ( 3) H 18             0.00010     3.72071
  437. RY ( 4) H 18             0.00006     2.50066
  438. RY ( 5) H 18             0.00003     2.29269
  439. RY ( 6) H 18             0.00001     2.51501
  440. RY ( 7) H 18             0.00000     2.51018
  441. RY ( 8) H 18             0.00000     3.60602
  442. RY ( 9) H 18             0.00000     4.20856
  443. RY (10) H 18             0.00000     4.24042
  444. RY (11) H 18             0.00000     3.78415
  445. RY (12) H 18             0.00000     4.11352
  446. RY (13) H 18             0.00000     3.85774
  447. RY ( 1) H 19             0.00047     0.79450
  448. RY ( 2) H 19             0.00011     3.49805
  449. RY ( 3) H 19             0.00009     3.66812
  450. RY ( 4) H 19             0.00005     2.37122
  451. RY ( 5) H 19             0.00002     1.95219
  452. RY ( 6) H 19             0.00001     2.98602
  453. RY ( 7) H 19             0.00000     2.37998
  454. RY ( 8) H 19             0.00000     3.63779
  455. RY ( 9) H 19             0.00000     4.00646
  456. RY (10) H 19             0.00000     4.38604
  457. RY (11) H 19             0.00000     3.54344
  458. RY (12) H 19             0.00000     3.84496
  459. RY (13) H 19             0.00000     3.96169
  460. RY ( 1) H 20             0.00112     0.82377
  461. RY ( 2) H 20             0.00017     2.39692
  462. RY ( 3) H 20             0.00012     3.42339
  463. RY ( 4) H 20             0.00007     2.70240
  464. RY ( 5) H 20             0.00003     2.41891
  465. RY ( 6) H 20             0.00002     2.61630
  466. RY ( 7) H 20             0.00000     2.79434
  467. RY ( 8) H 20             0.00000     3.49776
  468. RY ( 9) H 20             0.00000     4.17425
  469. RY (10) H 20             0.00000     4.26872
  470. RY (11) H 20             0.00000     3.81419
  471. RY (12) H 20             0.00000     4.18669
  472. RY (13) H 20             0.00000     3.99569
  473. RY ( 1) H 21             0.00191     0.70579
  474. RY ( 2) H 21             0.00029     2.02256
  475. RY ( 3) H 21             0.00011     2.02241
  476. RY ( 4) H 21             0.00008     3.77900
  477. RY ( 5) H 21             0.00004     3.67152
  478. RY ( 6) H 21             0.00002     2.49273
  479. RY ( 7) H 21             0.00001     2.98975
  480. RY ( 8) H 21             0.00001     3.99413
  481. RY ( 9) H 21             0.00001     3.74463
  482. RY (10) H 21             0.00000     3.79105
  483. RY (11) H 21             0.00000     3.73297
  484. RY (12) H 21             0.00000     4.11188
  485. RY (13) H 21             0.00000     4.14444
  486. RY ( 1) H 22             0.00102     0.74332
  487. RY ( 2) H 22             0.00010     3.17741
  488. RY ( 3) H 22             0.00006     2.81701
  489. RY ( 4) H 22             0.00005     2.01130
  490. RY ( 5) H 22             0.00005     3.71625
  491. RY ( 6) H 22             0.00002     2.51729
  492. RY ( 7) H 22             0.00001     3.15901
  493. RY ( 8) H 22             0.00001     3.20315
  494. RY ( 9) H 22             0.00000     3.85503
  495. RY (10) H 22             0.00000     4.18012
  496. RY (11) H 22             0.00000     3.64895
  497. RY (12) H 22             0.00000     3.78811
  498. RY (13) H 22             0.00000     4.15008
  499. RY ( 1) H 23             0.00039     1.07038
  500. RY ( 2) H 23             0.00009     3.94555
  501. RY ( 3) H 23             0.00008     3.24259
  502. RY ( 4) H 23             0.00003     1.80086
  503. RY ( 5) H 23             0.00001     3.19231
  504. RY ( 6) H 23             0.00001     1.88522
  505. RY ( 7) H 23             0.00000     2.91879
  506. RY ( 8) H 23             0.00000     3.30612
  507. RY ( 9) H 23             0.00000     3.91119
  508. RY (10) H 23             0.00000     4.46018
  509. RY (11) H 23             0.00000     3.98787
  510. RY (12) H 23             0.00000     4.17303
  511. RY (13) H 23             0.00000     2.83166
  512. RY ( 1) H 24             0.00100     1.00793
  513. RY ( 2) H 24             0.00013     3.37450
  514. RY ( 3) H 24             0.00013     2.51655
  515. RY ( 4) H 24             0.00006     2.94610
  516. RY ( 5) H 24             0.00003     2.24311
  517. RY ( 6) H 24             0.00001     2.63948
  518. RY ( 7) H 24             0.00001     2.77182
  519. RY ( 8) H 24             0.00000     3.51179
  520. RY ( 9) H 24             0.00000     3.93410
  521. RY (10) H 24             0.00000     4.22640
  522. RY (11) H 24             0.00000     3.94000
  523. RY (12) H 24             0.00000     3.55204
  524. RY (13) H 24             0.00000     4.39039
  525. RY ( 1) H 25             0.00077     0.78199
  526. RY ( 2) H 25             0.00010     3.76475
  527. RY ( 3) H 25             0.00009     3.58513
  528. RY ( 4) H 25             0.00003     1.76448
  529. RY ( 5) H 25             0.00002     2.49282
  530. RY ( 6) H 25             0.00001     2.48390
  531. RY ( 7) H 25             0.00000     2.38747
  532. RY ( 8) H 25             0.00000     3.69530
  533. RY ( 9) H 25             0.00000     4.27042
  534. RY (10) H 25             0.00000     3.71118
  535. RY (11) H 25             0.00000     4.29539
  536. RY (12) H 25             0.00000     3.83235
  537. RY (13) H 25             0.00000     3.67979
          -------------------------------
                 Total Lewis   84.59234  ( 98.3632%)
           Valence non-Lewis    1.26139  (  1.4667%)
           Rydberg non-Lewis    0.14627  (  0.1701%)
          -------------------------------
               Total unit  1   86.00000  (100.0000%)
              Charge unit  1   -1.00000

 $CHOOSE
   LONE 1 3 4 1 9 2 END
   BOND S 1 2 D 2 3 S 2 9 S 3 4 S 3 12 D 4 5 S 5 6 S 5 13 S 6 7 S 6 8 S 6 14
        S 7 15 S 7 16 S 7 17 S 8 18 S 8 19 S 8 20 S 9 10 S 10 11 S 10 21
        S 10 22 S 11 23 S 11 24 S 11 25 END
 $END

 NBO analysis completed in 11.67 CPU seconds (16 wall seconds)
 Maximum scratch memory used by NBO was 2830326 words (21.59 MB)
 Maximum scratch memory used by G16NBO was 444706 words (3.39 MB)

 Opening RunExU unformatted file "/scratch/general/vast/u6067110/5269603-notchpeak.peaks/Gau-3526639.EUF"
 Read unf file /scratch/general/vast/u6067110/5269603-notchpeak.peaks/Gau-3526639.EUF:
 Label Gaussian matrix elements                                         IVers= 2 NLab= 2 Version=ES64L-G16RevC.01
 Title A18_crest_conformers_censo-13                                   
 NAtoms=    25 NBasis=   537 NBsUse=   537 ICharg=    -1 Multip=     1 NE=    86 Len12L=8 Len4L=8 IOpCl= 0 ICGU=111
 GAUSSIAN SCALARS                    NI= 1 NR= 1 NTot=       1 LenBuf=    2 NRI=1 N=    1000
 NPA CHARGES                         NI= 0 NR= 1 NTot=      25 LenBuf= 4000 NRI=1 N=      25
 Recovered energy= -518.550031745     dipole=      0.819971644763     -0.736949984444      0.440728196195

 ----------------------------------------------------------------------

 Electric dipole moment (input orientation):
 (Debye = 10**-18 statcoulomb cm , SI units = C m)
                  (au)            (Debye)         (10**-30 SI)
   Tot        0.118730D+01      0.301782D+01      0.100664D+02
   x         -0.802591D+00     -0.203998D+01     -0.680465D+01
   y         -0.128434D+00     -0.326446D+00     -0.108891D+01
   z          0.865472D+00      0.219981D+01      0.733778D+01

 Dipole polarizability, Alpha (input orientation).
 (esu units = cm**3 , SI units = C**2 m**2 J**-1)
 Alpha(0;0):
               (au)            (10**-24 esu)      (10**-40 SI)
   iso        0.173978D+03      0.257809D+02      0.286852D+02
   aniso      0.133366D+03      0.197628D+02      0.219891D+02
   xx         0.258496D+03      0.383051D+02      0.426202D+02
   yx        -0.257924D+01     -0.382204D+00     -0.425259D+00
   yy         0.122074D+03      0.180896D+02      0.201274D+02
   zx        -0.198285D+02     -0.293827D+01     -0.326927D+01
   zy         0.886491D+01      0.131364D+01      0.146163D+01
   zz         0.141365D+03      0.209482D+02      0.233080D+02

 First dipole hyperpolarizability, Beta (input orientation).
 ||, _|_  parallel and perpendicular components, (z) with respect to z axis,
 vector components x,y,z.  Values do not include the 1/n! factor of 1/2.
 (esu units = statvolt**-1 cm**4 , SI units = C**3 m**3 J**-2)
 Beta(0;0,0):
               (au)            (10**-30 esu)      (10**-50 SI)
   || (z)     0.443156D+02      0.382852D+00      0.142092D+00
   _|_(z)     0.147719D+02      0.127617D+00      0.473640D-01
   x         -0.704962D+04     -0.609033D+02     -0.226036D+02
   y         -0.830455D+03     -0.717448D+01     -0.266274D+01
   z          0.221578D+03      0.191426D+01      0.710460D+00
   ||         0.142037D+04      0.122709D+02      0.455420D+01
   xxx       -0.234882D+04     -0.202920D+02     -0.753117D+01
   xxy       -0.318443D+03     -0.275110D+01     -0.102104D+01
   yxy       -0.136346D+02     -0.117793D+00     -0.437176D-01
   yyy       -0.382869D+02     -0.330769D+00     -0.122762D+00
   xxz       -0.255781D+03     -0.220975D+01     -0.820128D+00
   yxz        0.460803D+02      0.398098D+00      0.147750D+00
   yyz        0.715987D+02      0.618557D+00      0.229571D+00
   zxz        0.125821D+02      0.108699D+00      0.403426D-01
   zyz        0.799119D+02      0.690376D+00      0.256226D+00
   zzz        0.258042D+03      0.222928D+01      0.827376D+00

 ----------------------------------------------------------------------

 Dipole orientation:
     8          0.63950632         -0.73811937         -3.71082895
     6          1.79182898          0.39382914         -2.04991057
     6          1.05667323          1.14599499          0.39916387
     7         -1.28282746          0.61729453          1.27960822
     6         -2.08460715          1.25184735          3.47831870
     6         -4.72217706          0.63047914          4.38484341
     6         -6.12885350         -1.00082332          2.47274969
     6         -4.64826524         -0.63938081          6.98729174
     8          4.30684266          1.14009344         -2.53517228
     6          5.24998976          0.46906951         -4.91228605
     6          6.09329821         -2.28185705         -5.00611592
     1          2.44041358          2.17292125          1.56099757
     1         -0.87195077          2.31272316          4.82792952
     1         -5.80064217          2.41670375          4.62220458
     1         -5.12928121         -2.80580377          2.21675038
     1         -6.15166402         -0.08294849          0.61336809
     1         -8.08002572         -1.38234589          3.09695906
     1         -6.56235290         -0.95071357          7.75358671
     1         -3.58984757          0.52056801          8.35419264
     1         -3.68731090         -2.48160757          6.85077332
     1          3.80673142          0.78754326         -6.37848522
     1          6.86588865          1.73413175         -5.27896947
     1          6.95790479         -2.74524835         -6.84295116
     1          4.43137383         -3.48875705         -4.71454191
     1          7.47730900         -2.66262004         -3.50167814

 Electric dipole moment (dipole orientation):
 (Debye = 10**-18 statcoulomb cm , SI units = C m)
                  (au)            (Debye)         (10**-30 SI)
   Tot        0.118730D+01      0.301782D+01      0.100664D+02
   x          0.000000D+00      0.000000D+00      0.000000D+00
   y          0.000000D+00      0.000000D+00      0.000000D+00
   z          0.118730D+01      0.301782D+01      0.100664D+02

 Dipole polarizability, Alpha (dipole orientation).
 (esu units = cm**3 , SI units = C**2 m**2 J**-1)
 Alpha(0;0):
               (au)            (10**-24 esu)      (10**-40 SI)
   iso        0.173978D+03      0.257809D+02      0.286852D+02
   aniso      0.133366D+03      0.197628D+02      0.219891D+02
   xx         0.184661D+03      0.273639D+02      0.304465D+02
   yx         0.176684D+00      0.261819D-01      0.291313D-01
   yy         0.124847D+03      0.185004D+02      0.205845D+02
   zx        -0.607030D+02     -0.899526D+01     -0.100086D+02
   zy         0.155169D+02      0.229937D+01      0.255839D+01
   zz         0.212427D+03      0.314785D+02      0.350246D+02

 First dipole hyperpolarizability, Beta (dipole orientation).
 ||, _|_  parallel and perpendicular components, (z) with respect to z axis,
 vector components x,y,z.  Values do not include the 1/n! factor of 1/2.
 (esu units = statvolt**-1 cm**4 , SI units = C**3 m**3 J**-2)
 Beta(0;0,0):
               (au)            (10**-30 esu)      (10**-50 SI)
   || (z)     0.100335D+04      0.866814D+01      0.321710D+01
   _|_(z)     0.334449D+03      0.288938D+01      0.107237D+01
   x         -0.500156D+04     -0.432095D+02     -0.160368D+02
   y         -0.502715D+03     -0.434307D+01     -0.161189D+01
   z          0.501674D+04      0.433407D+02      0.160855D+02
   ||         0.142037D+04      0.122709D+02      0.455420D+01
   xxx       -0.111206D+04     -0.960737D+01     -0.356568D+01
   xxy       -0.307940D+02     -0.266036D+00     -0.987366D-01
   yxy        0.751025D+02      0.648827D+00      0.240806D+00
   yyy       -0.127167D+02     -0.109863D+00     -0.407745D-01
   xxz        0.101481D+04      0.876716D+01      0.325384D+01
   yxz        0.170378D+03      0.147193D+01      0.546294D+00
   yyz        0.507419D+02      0.438370D+00      0.162697D+00
   zxz       -0.630223D+03     -0.544463D+01     -0.202072D+01
   zyz       -0.124061D+03     -0.107179D+01     -0.397784D+00
   zzz        0.606696D+03      0.524138D+01      0.194529D+01

 ----------------------------------------------------------------------
 Unable to Open any file for archive entry.
 1\1\GINC-NOTCH069\SP\RM062X\def2TZVPP\C8H14N1O2(1-)\U6067110\18-Jul-20
 25\0\\#N Guess=Read Geom=Check Integral(Ultrafine) Density Pop=NBO7 Po
 p=Hirshfeld Pop=(ChelpG,ReadRadii) Polar Prop=(Potential,EFG) Volume M
 062X EmpiricalDispersion=GD3 def2TZVPP SCRF(IEFPCM,solvent=thf)\\A18_c
 rest_conformers_censo-13\\-1,1\O,0,1.5929001739,-0.1898481173,-1.24490
 07506\C,0,1.422057688,0.2842346612,-0.1272260227\C,0,0.2429497921,0.55
 58321184,0.5975570242\N,0,-0.9709764959,0.2799099194,0.0700462057\C,0,
 -2.0838319341,0.5055129783,0.6676896872\C,0,-3.4210576943,0.1860630493
 ,0.0383115702\C,0,-3.2482158368,-0.5304076098,-1.295820706\C,0,-4.2947
 89439,-0.6319946178,0.9959243729\O,0,2.5580838085,0.6479582139,0.62795
 8796\C,0,3.7906095944,0.4102344479,0.0099795036\C,0,4.2140573613,-1.04
 91436301,0.1179776884\H,0,0.343081812,0.9981052063,1.599484945\H,0,-2.
 1182362001,0.9587099458,1.6827949548\H,0,-3.9658088664,1.1354446987,-0
 .1536613711\H,0,-2.7270923304,-1.4868146957,-1.140331755\H,0,-2.612515
 6883,0.0589695504,-1.9686732817\H,0,-4.2225938406,-0.72299722,-1.77483
 65199\H,0,-5.3071263227,-0.7966560553,0.5889998227\H,0,-4.3976440261,-
 0.1242630725,1.9681972082\H,0,-3.8306068204,-1.6139532878,1.1815554847
 \H,0,3.7460704822,0.693852605,-1.0536301392\H,0,4.5225649014,1.0599709
 856,0.518977516\H,0,5.2180947017,-1.2069056256,-0.3078050884\H,0,3.489
 7492775,-1.6629808206,-0.4331274102\H,0,4.2232459019,-1.3663636279,1.1
 715782654\\Version=ES64L-G16RevC.01\State=1-A\HF=-518.5500317\RMSD=5.0
 67e-09\Dipole=-0.802591,-0.1284336,0.8654724\Polar=258.4957931,-2.5792
 408,122.0744108,-19.8284531,8.8649088,141.3651908\HyperPolar=-2348.821
 9972,-318.4431885,-13.6346417,-38.2868796,-255.7813821,46.0802546,71.5
 986987,12.5820576,79.9118692,258.0420605\Quadrupole=-1.7500914,2.55813
 ,-0.8080385,-0.5820949,1.0670695,-1.1019042\PG=C01 [X(C8H14N1O2)]\\@
 The archive entry for this job was punched.


 AN OPTIMIST IS A GUY
 THAT HAS NEVER HAD
 MUCH EXPERIENCE
   (CERTAIN MAXIMS OF ARCHY  -- DON MARQUIS)
 Job cpu time:       0 days  4 hours 32 minutes  3.4 seconds.
 Elapsed time:       0 days  0 hours 17 minutes 11.6 seconds.
 File lengths (MBytes):  RWF=    233 Int=      0 D2E=      0 Chk=     22 Scr=      2
 Normal termination of Gaussian 16 at Fri Jul 18 12:07:46 2025.
 Initial command:
 /uufs/chpc.utah.edu/sys/installdir/gaussian16/C01/AVX/g16/l1.exe "/scratch/general/vast/u6067110/5269603-notchpeak.peaks/Gau-3518522.inp" -scrdir="/scratch/general/vast/u6067110/5269603-notchpeak.peaks/"
 Entering Link 1 = /uufs/chpc.utah.edu/sys/installdir/gaussian16/C01/AVX/g16/l1.exe PID=   3528455.
  
 Copyright (c) 1988-2019, Gaussian, Inc.  All Rights Reserved.
  
 This is part of the Gaussian(R) 16 program.  It is based on
 the Gaussian(R) 09 system (copyright 2009, Gaussian, Inc.),
 the Gaussian(R) 03 system (copyright 2003, Gaussian, Inc.),
 the Gaussian(R) 98 system (copyright 1998, Gaussian, Inc.),
 the Gaussian(R) 94 system (copyright 1995, Gaussian, Inc.),
 the Gaussian 92(TM) system (copyright 1992, Gaussian, Inc.),
 the Gaussian 90(TM) system (copyright 1990, Gaussian, Inc.),
 the Gaussian 88(TM) system (copyright 1988, Gaussian, Inc.),
 the Gaussian 86(TM) system (copyright 1986, Carnegie Mellon
 University), and the Gaussian 82(TM) system (copyright 1983,
 Carnegie Mellon University). Gaussian is a federally registered
 trademark of Gaussian, Inc.
  
 This software contains proprietary and confidential information,
 including trade secrets, belonging to Gaussian, Inc.
  
 This software is provided under written license and may be
 used, copied, transmitted, or stored only in accord with that
 written license.
  
 The following legend is applicable only to US Government
 contracts under FAR:
  
                    RESTRICTED RIGHTS LEGEND
  
 Use, reproduction and disclosure by the US Government is
 subject to restrictions as set forth in subparagraphs (a)
 and (c) of the Commercial Computer Software - Restricted
 Rights clause in FAR 52.227-19.
  
 Gaussian, Inc.
 340 Quinnipiac St., Bldg. 40, Wallingford CT 06492
  
  
 ---------------------------------------------------------------
 Warning -- This program may not be used in any manner that
 competes with the business of Gaussian, Inc. or will provide
 assistance to any competitor of Gaussian, Inc.  The licensee
 of this program is prohibited from giving any competitor of
 Gaussian, Inc. access to this program.  By using this program,
 the user acknowledges that Gaussian, Inc. is engaged in the
 business of creating and licensing software in the field of
 computational chemistry and represents and warrants to the
 licensee that it is not a competitor of Gaussian, Inc. and that
 it will not use this program in any manner prohibited above.
 ---------------------------------------------------------------
  

 Cite this work as:
 Gaussian 16, Revision C.01,
 M. J. Frisch, G. W. Trucks, H. B. Schlegel, G. E. Scuseria, 
 M. A. Robb, J. R. Cheeseman, G. Scalmani, V. Barone, 
 G. A. Petersson, H. Nakatsuji, X. Li, M. Caricato, A. V. Marenich, 
 J. Bloino, B. G. Janesko, R. Gomperts, B. Mennucci, H. P. Hratchian, 
 J. V. Ortiz, A. F. Izmaylov, J. L. Sonnenberg, D. Williams-Young, 
 F. Ding, F. Lipparini, F. Egidi, J. Goings, B. Peng, A. Petrone, 
 T. Henderson, D. Ranasinghe, V. G. Zakrzewski, J. Gao, N. Rega, 
 G. Zheng, W. Liang, M. Hada, M. Ehara, K. Toyota, R. Fukuda, 
 J. Hasegawa, M. Ishida, T. Nakajima, Y. Honda, O. Kitao, H. Nakai, 
 T. Vreven, K. Throssell, J. A. Montgomery, Jr., J. E. Peralta, 
 F. Ogliaro, M. J. Bearpark, J. J. Heyd, E. N. Brothers, K. N. Kudin, 
 V. N. Staroverov, T. A. Keith, R. Kobayashi, J. Normand, 
 K. Raghavachari, A. P. Rendell, J. C. Burant, S. S. Iyengar, 
 J. Tomasi, M. Cossi, J. M. Millam, M. Klene, C. Adamo, R. Cammi, 
 J. W. Ochterski, R. L. Martin, K. Morokuma, O. Farkas, 
 J. B. Foresman, and D. J. Fox, Gaussian, Inc., Wallingford CT, 2019.
 
 ******************************************
 Gaussian 16:  ES64L-G16RevC.01  3-Jul-2019
                18-Jul-2025 
 ******************************************
 %NProcShared=32
 Will use up to   32 processors via shared memory.
 %Mem=48GB
 %chk=A18_crest_conformers_censo-13.chk
 ----------------------------------------------------------------------
 #N Guess=Read Geom=Check Integral(Ultrafine) Density NMR M062X Empiric
 alDispersion=GD3 def2TZVPP SCRF(IEFPCM,solvent=thf)
 ----------------------------------------------------------------------
 1/29=2,38=1,172=1/1;
 2/12=2,40=1/2;
 3/5=44,7=202,11=2,14=-4,25=1,30=1,70=2201,72=20,74=-55,75=-5,116=-2,124=31/1,2,3,8;
 4/5=1/1;
 5/5=2,38=6,53=20/2;
 8/6=1,10=90,11=11/1;
 10/13=100,45=16/2;
 6/7=2,8=2,9=2,10=2,22=-1,28=1/1;
 99/9=1/99;
 -----------------------------
 A18_crest_conformers_censo-13
 -----------------------------
 Structure from the checkpoint file:  "A18_crest_conformers_censo-13.chk"
 Charge = -1 Multiplicity = 1
 Redundant internal coordinates found in file.  (old form).
 O,0,1.5929001739,-0.1898481173,-1.2449007506
 C,0,1.422057688,0.2842346612,-0.1272260227
 C,0,0.2429497921,0.5558321184,0.5975570242
 N,0,-0.9709764959,0.2799099194,0.0700462057
 C,0,-2.0838319341,0.5055129783,0.6676896872
 C,0,-3.4210576943,0.1860630493,0.0383115702
 C,0,-3.2482158368,-0.5304076098,-1.295820706
 C,0,-4.294789439,-0.6319946178,0.9959243729
 O,0,2.5580838085,0.6479582139,0.627958796
 C,0,3.7906095944,0.4102344479,0.0099795036
 C,0,4.2140573613,-1.0491436301,0.1179776884
 H,0,0.343081812,0.9981052063,1.599484945
 H,0,-2.1182362001,0.9587099458,1.6827949548
 H,0,-3.9658088664,1.1354446987,-0.1536613711
 H,0,-2.7270923304,-1.4868146957,-1.140331755
 H,0,-2.6125156883,0.0589695504,-1.9686732817
 H,0,-4.2225938406,-0.72299722,-1.7748365199
 H,0,-5.3071263227,-0.7966560553,0.5889998227
 H,0,-4.3976440261,-0.1242630725,1.9681972082
 H,0,-3.8306068204,-1.6139532878,1.1815554847
 H,0,3.7460704822,0.693852605,-1.0536301392
 H,0,4.5225649014,1.0599709856,0.518977516
 H,0,5.2180947017,-1.2069056256,-0.3078050884
 H,0,3.4897492775,-1.6629808206,-0.4331274102
 H,0,4.2232459019,-1.3663636279,1.1715782654
 Recover connectivity data from disk.
                           ----------------------------
                           !    Current Parameters    !
                           ! (Angstroms and Degrees)  !
 --------------------------                            --------------------------
 ! Name  Definition              Value                                          !
 --------------------------------------------------------------------------------
 ! R1    R(1,2)                  1.226                                          !
 ! R2    R(2,3)                  1.4105                                         !
 ! R3    R(2,9)                  1.4118                                         !
 ! R4    R(3,4)                  1.352                                          !
 ! R5    R(3,12)                 1.0998                                         !
 ! R6    R(4,5)                  1.2832                                         !
 ! R7    R(5,6)                  1.5121                                         !
 ! R8    R(5,13)                 1.1122                                         !
 ! R9    R(6,7)                  1.5242                                         !
 ! R10   R(6,8)                  1.5329                                         !
 ! R11   R(6,14)                 1.1113                                         !
 ! R12   R(7,15)                 1.1002                                         !
 ! R13   R(7,16)                 1.0974                                         !
 ! R14   R(7,17)                 1.1027                                         !
 ! R15   R(8,18)                 1.1034                                         !
 ! R16   R(8,19)                 1.1017                                         !
 ! R17   R(8,20)                 1.1019                                         !
 ! R18   R(9,10)                 1.3991                                         !
 ! R19   R(10,11)                1.5234                                         !
 ! R20   R(10,21)                1.1017                                         !
 ! R21   R(10,22)                1.1032                                         !
 ! R22   R(11,23)                1.1019                                         !
 ! R23   R(11,24)                1.0978                                         !
 ! R24   R(11,25)                1.1004                                         !
 ! A1    A(1,2,3)              131.2544                                         !
 ! A2    A(1,2,9)              118.368                                          !
 ! A3    A(3,2,9)              110.3775                                         !
 ! A4    A(2,3,4)              120.7168                                         !
 ! A5    A(2,3,12)             118.0002                                         !
 ! A6    A(4,3,12)             121.283                                          !
 ! A7    A(3,4,5)              124.1303                                         !
 ! A8    A(4,5,6)              122.4104                                         !
 ! A9    A(4,5,13)             121.5714                                         !
 ! A10   A(6,5,13)             116.0163                                         !
 ! A11   A(5,6,7)              111.3068                                         !
 ! A12   A(5,6,8)              110.9044                                         !
 ! A13   A(5,6,14)             108.9618                                         !
 ! A14   A(7,6,8)              111.137                                          !
 ! A15   A(7,6,14)             107.8164                                         !
 ! A16   A(8,6,14)             106.5252                                         !
 ! A17   A(6,7,15)             109.7939                                         !
 ! A18   A(6,7,16)             110.4828                                         !
 ! A19   A(6,7,17)             111.2312                                         !
 ! A20   A(15,7,16)            106.2095                                         !
 ! A21   A(15,7,17)            109.1538                                         !
 ! A22   A(16,7,17)            109.836                                          !
 ! A23   A(6,8,18)             111.8516                                         !
 ! A24   A(6,8,19)             111.0144                                         !
 ! A25   A(6,8,20)             109.9207                                         !
 ! A26   A(18,8,19)            107.9742                                         !
 ! A27   A(18,8,20)            108.3988                                         !
 ! A28   A(19,8,20)            107.5394                                         !
 ! A29   A(2,9,10)             115.3925                                         !
 ! A30   A(9,10,11)            112.106                                          !
 ! A31   A(9,10,21)            110.3084                                         !
 ! A32   A(9,10,22)            106.2979                                         !
 ! A33   A(11,10,21)           109.0446                                         !
 ! A34   A(11,10,22)           110.3088                                         !
 ! A35   A(21,10,22)           108.7022                                         !
 ! A36   A(10,11,23)           111.286                                          !
 ! A37   A(10,11,24)           108.4619                                         !
 ! A38   A(10,11,25)           110.2657                                         !
 ! A39   A(23,11,24)           109.0954                                         !
 ! A40   A(23,11,25)           108.729                                          !
 ! A41   A(24,11,25)           108.9652                                         !
 ! D1    D(1,2,3,4)              0.396                                          !
 ! D2    D(1,2,3,12)          -179.5236                                         !
 ! D3    D(9,2,3,4)           -179.6605                                         !
 ! D4    D(9,2,3,12)             0.4199                                         !
 ! D5    D(1,2,9,10)            -0.627                                          !
 ! D6    D(3,2,9,10)           179.4213                                         !
 ! D7    D(2,3,4,5)           -179.6562                                         !
 ! D8    D(12,3,4,5)             0.2607                                         !
 ! D9    D(3,4,5,6)            179.7592                                         !
 ! D10   D(3,4,5,13)             0.2827                                         !
 ! D11   D(4,5,6,7)              5.0836                                         !
 ! D12   D(4,5,6,8)            129.3676                                         !
 ! D13   D(4,5,6,14)          -113.6844                                         !
 ! D14   D(13,5,6,7)          -175.4128                                         !
 ! D15   D(13,5,6,8)           -51.1287                                         !
 ! D16   D(13,5,6,14)           65.8192                                         !
 ! D17   D(5,6,7,15)            61.5869                                         !
 ! D18   D(5,6,7,16)           -55.23                                           !
 ! D19   D(5,6,7,17)          -177.4877                                         !
 ! D20   D(8,6,7,15)           -62.5657                                         !
 ! D21   D(8,6,7,16)          -179.3826                                         !
 ! D22   D(8,6,7,17)            58.3597                                         !
 ! D23   D(14,6,7,15)         -178.9612                                         !
 ! D24   D(14,6,7,16)           64.2219                                         !
 ! D25   D(14,6,7,17)          -58.0359                                         !
 ! D26   D(5,6,8,18)           174.879                                          !
 ! D27   D(5,6,8,19)            54.2007                                         !
 ! D28   D(5,6,8,20)           -64.6545                                         !
 ! D29   D(7,6,8,18)           -60.7404                                         !
 ! D30   D(7,6,8,19)           178.5813                                         !
 ! D31   D(7,6,8,20)            59.7261                                         !
 ! D32   D(14,6,8,18)           56.4453                                         !
 ! D33   D(14,6,8,19)          -64.2329                                         !
 ! D34   D(14,6,8,20)          176.9119                                         !
 ! D35   D(2,9,10,11)          -79.9132                                         !
 ! D36   D(2,9,10,21)           41.8127                                         !
 ! D37   D(2,9,10,22)          159.4855                                         !
 ! D38   D(9,10,11,23)        -175.8708                                         !
 ! D39   D(9,10,11,24)          64.115                                          !
 ! D40   D(9,10,11,25)         -55.1274                                         !
 ! D41   D(21,10,11,23)         61.6824                                         !
 ! D42   D(21,10,11,24)        -58.3318                                         !
 ! D43   D(21,10,11,25)       -177.5742                                         !
 ! D44   D(22,10,11,23)        -57.6224                                         !
 ! D45   D(22,10,11,24)       -177.6365                                         !
 ! D46   D(22,10,11,25)         63.1211                                         !
 --------------------------------------------------------------------------------
                          Input orientation:                          
 ---------------------------------------------------------------------
 Center     Atomic      Atomic             Coordinates (Angstroms)
 Number     Number       Type             X           Y           Z
 ---------------------------------------------------------------------
      1          8           0        1.592900   -0.189848   -1.244901
      2          6           0        1.422058    0.284235   -0.127226
      3          6           0        0.242950    0.555832    0.597557
      4          7           0       -0.970976    0.279910    0.070046
      5          6           0       -2.083832    0.505513    0.667690
      6          6           0       -3.421058    0.186063    0.038312
      7          6           0       -3.248216   -0.530408   -1.295821
      8          6           0       -4.294789   -0.631995    0.995924
      9          8           0        2.558084    0.647958    0.627959
     10          6           0        3.790610    0.410234    0.009980
     11          6           0        4.214057   -1.049144    0.117978
     12          1           0        0.343082    0.998105    1.599485
     13          1           0       -2.118236    0.958710    1.682795
     14          1           0       -3.965809    1.135445   -0.153661
     15          1           0       -2.727092   -1.486815   -1.140332
     16          1           0       -2.612516    0.058970   -1.968673
     17          1           0       -4.222594   -0.722997   -1.774837
     18          1           0       -5.307126   -0.796656    0.589000
     19          1           0       -4.397644   -0.124263    1.968197
     20          1           0       -3.830607   -1.613953    1.181555
     21          1           0        3.746070    0.693853   -1.053630
     22          1           0        4.522565    1.059971    0.518978
     23          1           0        5.218095   -1.206906   -0.307805
     24          1           0        3.489749   -1.662981   -0.433127
     25          1           0        4.223246   -1.366364    1.171578
 ---------------------------------------------------------------------
                    Distance matrix (angstroms):
                    1          2          3          4          5
     1  O    0.000000
     2  C    1.226025   0.000000
     3  C    2.402718   1.410451   0.000000
     4  N    2.919456   2.401155   1.352042   0.000000
     5  C    4.202367   3.601683   2.328382   1.283169   0.000000
     6  C    5.189192   4.846938   3.724840   2.452083   1.512064
     7  C    4.853347   4.882695   4.117406   2.776333   2.506849
     8  C    6.315194   5.897735   4.707516   3.568831   2.507986
     9  O    2.267400   1.411791   2.317166   3.591795   4.644271
    10  C    2.600913   2.375866   3.598935   4.763748   5.911914
    11  C    3.076734   3.103753   4.309946   5.352874   6.510188
    12  H    3.326230   2.157622   1.099769   2.140499   2.645902
    13  H    4.864475   4.032961   2.629687   2.092351   1.112209
    14  H    5.817770   5.454756   4.314386   3.122660   2.147852
    15  H    4.511695   4.623683   4.001726   2.769526   2.766242
    16  H    4.274492   4.440659   3.871188   2.626755   2.725677
    17  H    5.863877   5.965838   5.215816   3.870714   3.471235
    18  H    7.165317   6.852972   5.712499   4.497833   3.477278
    19  H    6.798156   6.198919   4.886338   3.938068   2.727941
    20  H    6.109844   5.736420   4.652192   3.605504   2.794176
    21  H    2.335306   2.535162   3.875219   4.866675   6.081626
    22  H    3.640913   3.260750   4.309923   5.566779   6.631291
    23  H    3.880024   4.082402   5.355277   6.376362   7.563207
    24  H    2.535179   2.856672   4.065360   4.891429   6.081034
    25  H    3.760622   3.501146   4.457252   5.559095   6.598262
                    6          7          8          9         10
     6  C    0.000000
     7  C    1.524176   0.000000
     8  C    1.532856   2.521454   0.000000
     9  O    6.025875   6.229172   6.981085   0.000000
    10  C    7.215206   7.220456   8.211699   1.399118   0.000000
    11  C    7.734796   7.612715   8.564186   2.425383   1.523403
    12  H    4.155168   4.859688   4.952914   2.443911   3.841558
    13  H    2.235767   3.516600   2.781999   4.803875   6.165517
    14  H    1.111275   2.143486   2.133921   6.588608   7.791966
    15  H    2.160858   1.100210   2.784238   5.968014   6.884944
    16  H    2.167460   1.097365   3.477976   5.815884   6.711071
    17  H    2.180907   1.102705   2.773195   7.323287   8.287413
    18  H    2.196873   2.804024   1.103416   7.996872   9.195686
    19  H    2.185059   3.484243   1.101674   7.125638   8.436101
    20  H    2.171358   2.765980   1.101893   6.799859   7.972005
    21  H    7.267593   7.104753   8.403212   2.059408   1.101675
    22  H    8.005991   8.136819   8.990882   2.010178   1.103175
    23  H    8.757575   8.550569   9.619002   3.375179   2.180331
    24  H    7.169412   6.886736   7.981489   2.708199   2.141281
    25  H    7.882239   7.912624   8.551437   2.669416   2.166284
                   11         12         13         14         15
    11  C    0.000000
    12  H    4.622828   0.000000
    13  H    6.824813   2.463043   0.000000
    14  H    8.470916   4.653915   2.611002   0.000000
    15  H    7.067847   4.807015   3.784355   3.063361   0.000000
    16  H    7.223858   4.727503   3.793029   2.506884   1.757477
    17  H    8.652526   5.932422   4.383113   2.479507   1.795143
    18  H    9.536171   6.013909   3.800884   2.466514   3.181742
    19  H    8.856643   4.885708   2.539682   2.505121   3.782888
    20  H    8.134300   4.941375   3.130823   3.059456   2.573921
    21  H    2.151677   4.325728   6.476748   7.776762   6.831154
    22  H    2.168950   4.317337   6.742771   8.515317   7.861104
    23  H    1.101940   5.680280   7.904058   9.479159   7.993588
    24  H    1.097786   4.595042   6.542163   7.968352   6.259416
    25  H    1.100358   4.563934   6.773604   8.664636   7.325752
                   16         17         18         19         20
    16  H    0.000000
    17  H    1.800388   0.000000
    18  H    3.812442   2.601799   0.000000
    19  H    4.326570   3.794658   1.783664   0.000000
    20  H    3.769132   3.112509   1.788633   1.777502   0.000000
    21  H    6.455385   8.125713   9.320956   8.724726   8.229706
    22  H    7.622322   9.215116  10.003739   9.114427   8.795701
    23  H    8.104282   9.566240  10.571322   9.940560   9.179482
    24  H    6.523853   7.884414   8.898330   8.387192   7.496480
    25  H    7.656395   8.968137   9.565143   8.746265   8.057664
                   21         22         23         24         25
    21  H    0.000000
    22  H    1.791670   0.000000
    23  H    2.517140   2.511187   0.000000
    24  H    2.450589   3.063932   1.791895   0.000000
    25  H    3.069811   2.530332   1.789896   1.789156   0.000000
 Stoichiometry    C8H14NO2(1-)
 Framework group  C1[X(C8H14NO2)]
 Deg. of freedom    69
 Full point group                 C1      NOp   1
 Largest Abelian subgroup         C1      NOp   1
 Largest concise Abelian subgroup C1      NOp   1
                         Standard orientation:                         
 ---------------------------------------------------------------------
 Center     Atomic      Atomic             Coordinates (Angstroms)
 Number     Number       Type             X           Y           Z
 ---------------------------------------------------------------------
      1          8           0       -1.629654    1.240489   -0.296150
      2          6           0       -1.447134    0.028126   -0.295167
      3          6           0       -0.260164   -0.733707   -0.286036
      4          7           0        0.948753   -0.128546   -0.268170
      5          6           0        2.068020   -0.756046   -0.265370
      6          6           0        3.399134   -0.038933   -0.250476
      7          6           0        3.214939    1.467906   -0.114015
      8          6           0        4.303756   -0.587896    0.858554
      9          8           0       -2.575633   -0.820126   -0.305760
     10          6           0       -3.814687   -0.170305   -0.302702
     11          6           0       -4.210919    0.301955    1.090398
     12          1           0       -0.350047   -1.829758   -0.295247
     13          1           0        2.112677   -1.867226   -0.282501
     14          1           0        3.923930   -0.231735   -1.210867
     15          1           0        2.713235    1.697230    0.837911
     16          1           0        2.557290    1.847668   -0.906157
     17          1           0        4.183808    1.993348   -0.148125
     18          1           0        5.311374   -0.139349    0.826327
     19          1           0        4.415139   -1.680570    0.772872
     20          1           0        3.859952   -0.375647    1.844533
     21          1           0       -3.793993    0.695616   -0.983467
     22          1           0       -4.548555   -0.901268   -0.682340
     23          1           0       -5.219511    0.745817    1.090508
     24          1           0       -3.486065    1.057379    1.420633
     25          1           0       -4.195873   -0.541179    1.797283
 ---------------------------------------------------------------------
 Rotational constants (GHZ):           3.3330379           0.3700259           0.3553674
 Standard basis: def2TZVPP (5D, 7F)
 There are   606 symmetry adapted cartesian basis functions of A   symmetry.
 There are   537 symmetry adapted basis functions of A   symmetry.
   537 basis functions,   799 primitive gaussians,   606 cartesian basis functions
    43 alpha electrons       43 beta electrons
       nuclear repulsion energy       596.7438611113 Hartrees.
 NAtoms=   25 NActive=   25 NUniq=   25 SFac= 1.00D+00 NAtFMM=   60 NAOKFM=F Big=F
 Integral buffers will be    131072 words long.
 Raffenetti 2 integral format.
 Two-electron integral symmetry is turned on.
 Nuclear repulsion after empirical dispersion term =      596.7430624097 Hartrees.
 ------------------------------------------------------------------------------
 Polarizable Continuum Model (PCM)
 =================================
 Model                : PCM.
 Atomic radii         : UFF (Universal Force Field).
 Polarization charges : Total charges.
 Charge compensation  : None.
 Solution method      : On-the-fly selection.
 Cavity type          : Scaled VdW (van der Waals Surface) (Alpha=1.100).
 Cavity algorithm     : GePol (No added spheres)
                        Default sphere list used, NSphG=   25.
                        Lebedev-Laikov grids with approx.  5.0 points / Ang**2.
                        Smoothing algorithm: York/Karplus (Gamma=1.0000).
                        Polarization charges: spherical gaussians, with
                                              point-specific exponents (IZeta= 3).
                        Self-potential: point-specific (ISelfS= 7).
                        Self-field    : sphere-specific E.n sum rule (ISelfD= 2).
 Solvent              : TetraHydroFuran, Eps=   7.425700 Eps(inf)=   1.974025
 ------------------------------------------------------------------------------
 One-electron integrals computed using PRISM.
   1 Symmetry operations used in ECPInt.
 ECPInt:  NShTT=   21115 NPrTT=   55562 LenC2=   18217 LenP2D=   37173.
 LDataN:  DoStor=T MaxTD1= 6 Len=  172
 NBasis=   537 RedAO= T EigKep=  6.11D-05  NBF=   537
 NBsUse=   537 1.00D-06 EigRej= -1.00D+00 NBFU=   537
 Initial guess from the checkpoint file:  "A18_crest_conformers_censo-13.chk"
 B after Tr=    -0.000000    0.000000   -0.000000
         Rot=    1.000000   -0.000000   -0.000000    0.000000 Ang=   0.00 deg.
 Requested convergence on RMS density matrix=1.00D-08 within 128 cycles.
 Requested convergence on MAX density matrix=1.00D-06.
 Requested convergence on             energy=1.00D-06.
 No special actions if energy rises.
 Inv3:  Mode=1 IEnd=    11560107.
 Iteration    1 A*A^-1 deviation from unit magnitude is 5.22D-15 for   1944.
 Iteration    1 A*A^-1 deviation from orthogonality  is 3.04D-15 for   1944   1512.
 Iteration    1 A^-1*A deviation from unit magnitude is 5.00D-15 for   1944.
 Iteration    1 A^-1*A deviation from orthogonality  is 3.93D-15 for   1960   1174.
 Error on total polarization charges =  0.01316
 SCF Done:  E(RM062X) =  -518.550031745     A.U. after    1 cycles
            NFock=  1  Conv=0.13D-08     -V/T= 2.0053
 DoSCS=F DFT=T ScalE2(SS,OS)=  1.000000  1.000000
 Range of M.O.s used for correlation:     1   537
 NBasis=   537 NAE=    43 NBE=    43 NFC=     0 NFV=     0
 NROrb=    537 NOA=    43 NOB=    43 NVA=   494 NVB=   494

 **** Warning!!: The largest alpha MO coefficient is  0.20240195D+02

 NEqPCM:  Using equilibrium solvation (IEInf=0, Eps=   7.4257, EpsInf=   1.9740)
          Differentiating once with respect to magnetic field using GIAOs.
          Electric field/nuclear overlap derivatives assumed to be zero.
   1 Symmetry operations used in ECPInt.
 ECPInt:  NShTT=   21115 NPrTT=   55562 LenC2=   21116 LenP2D=   55562.
 LDataN:  DoStor=T MaxTD1= 7 Len=  274
 FoFJK:  IHMeth= 1 ICntrl=    6127 DoSepK=F KAlg= 0 I1Cent=           0 FoldK=F
 IRaf=         1 NMat=       1 IRICut=       1 DoRegI=T DoRafI=F ISym2E= 0 IDoP0=0 IntGTp=1.
          There are     3 degrees of freedom in the 1st order CPHF.  IDoFFX=0 NUNeed=     3.
      3 vectors produced by pass  0 Test12= 7.08D-13 3.33D-08 XBig12= 1.84D+01 6.90D-01.
 AX will form     3 AO Fock derivatives at one time.
      3 vectors produced by pass  1 Test12= 7.08D-13 3.33D-08 XBig12= 8.53D-02 1.33D-01.
      3 vectors produced by pass  2 Test12= 7.08D-13 3.33D-08 XBig12= 1.73D-03 1.33D-02.
      3 vectors produced by pass  3 Test12= 7.08D-13 3.33D-08 XBig12= 2.75D-05 1.47D-03.
      3 vectors produced by pass  4 Test12= 7.08D-13 3.33D-08 XBig12= 3.20D-07 1.64D-04.
      3 vectors produced by pass  5 Test12= 7.08D-13 3.33D-08 XBig12= 6.25D-09 2.48D-05.
      3 vectors produced by pass  6 Test12= 7.08D-13 3.33D-08 XBig12= 5.25D-11 1.55D-06.
      3 vectors produced by pass  7 Test12= 7.08D-13 3.33D-08 XBig12= 7.25D-13 1.79D-07.
 InvSVY:  IOpt=1 It=  1 EMax= 1.78D-15
 Solved reduced A of dimension    24 with     3 vectors.
 Calculating GIAO nuclear magnetic shielding tensors.
 SCF GIAO Magnetic shielding tensor (ppm):
      1  O    Isotropic =    44.9838   Anisotropy =   439.0644
   XX=   -53.3602   YX=   -52.6809   ZX=    -4.0583
   XY=   -13.9161   YY=  -149.1995   ZY=     1.3467
   XZ=   -12.5652   YZ=     0.5116   ZZ=   337.5113
   Eigenvalues:  -159.6381   -43.1038   337.6935
      2  C    Isotropic =     4.4233   Anisotropy =    93.3361
   XX=   -56.5034   YX=   -52.4534   ZX=    -2.1365
   XY=   -74.7798   YY=     3.6280   ZY=     0.5279
   XZ=     1.2397   YZ=    -8.7606   ZZ=    66.1453
   Eigenvalues:   -96.8421    43.4647    66.6474
      3  C    Isotropic =    91.9947   Anisotropy =    83.9179
   XX=   146.1701   YX=    22.9674   ZX=     0.7309
   XY=     5.8849   YY=    26.7404   ZY=    -0.6836
   XZ=    -3.3381   YZ=    -3.2497   ZZ=   103.0737
   Eigenvalues:    24.9811   103.0631   147.9400
      4  N    Isotropic =  -157.4867   Anisotropy =   633.7990
   XX=  -519.5602   YX=   -33.6406   ZX=    -0.9891
   XY=    -0.8601   YY=  -217.7588   ZY=    -6.8127
   XZ=   -16.9840   YZ=    -6.3291   ZZ=   264.8588
   Eigenvalues:  -520.6542  -216.8519   265.0459
      5  C    Isotropic =    44.9768   Anisotropy =    85.0916
   XX=    54.9185   YX=   -58.1983   ZX=     5.9412
   XY=   -44.7655   YY=   -20.6818   ZY=    -5.0383
   XZ=     0.7852   YZ=    -1.7806   ZZ=   100.6937
   Eigenvalues:   -46.7663    79.9922   101.7046
      6  C    Isotropic =   149.3028   Anisotropy =    20.0710
   XX=   147.5164   YX=    18.4618   ZX=    -1.0848
   XY=     8.7893   YY=   149.9463   ZY=     3.0850
   XZ=     0.3846   YZ=     2.4720   ZZ=   150.4457
   Eigenvalues:   134.7593   150.4656   162.6835
      7  C    Isotropic =   163.1294   Anisotropy =    21.9597
   XX=   155.7362   YX=    -0.2579   ZX=     1.9058
   XY=    -6.7070   YY=   177.0027   ZY=    -3.7776
   XZ=    -1.7716   YZ=    -0.4725   ZZ=   156.6492
   Eigenvalues:   155.1260   156.4930   177.7691
      8  C    Isotropic =   160.7438   Anisotropy =    35.9410
   XX=   162.9273   YX=    -9.7524   ZX=    11.9827
   XY=    -7.2281   YY=   154.9189   ZY=    -8.3170
   XZ=    18.1234   YZ=   -12.3483   ZZ=   164.3852
   Eigenvalues:   147.8503   149.6765   184.7045
      9  O    Isotropic =   169.7610   Anisotropy =   144.0253
   XX=   174.7921   YX=    55.5410   ZX=   -17.3131
   XY=   157.7911   YY=   134.6999   ZY=    -4.0258
   XZ=   -22.1134   YZ=    11.6676   ZZ=   199.7908
   Eigenvalues:    44.6512   198.8539   265.7778
     10  C    Isotropic =   128.6681   Anisotropy =    54.4318
   XX=   154.8688   YX=   -27.7273   ZX=     2.3519
   XY=   -20.2412   YY=   107.0894   ZY=     5.9944
   XZ=    -0.2996   YZ=    10.5881   ZZ=   124.0460
   Eigenvalues:    94.8980   126.1502   164.9559
     11  C    Isotropic =   167.0457   Anisotropy =    29.2882
   XX=   164.5005   YX=    -9.8563   ZX=    -2.6245
   XY=   -13.7418   YY=   155.6751   ZY=     7.0086
   XZ=    -8.8911   YZ=     6.9346   ZZ=   180.9616
   Eigenvalues:   147.2954   167.2705   186.5712
     12  H    Isotropic =    25.3769   Anisotropy =     8.1042
   XX=    30.7721   YX=     2.8530   ZX=     0.1186
   XY=    -2.3268   YY=    21.7364   ZY=    -0.0362
   XZ=    -0.1350   YZ=    -0.1429   ZZ=    23.6223
   Eigenvalues:    21.7246    23.6265    30.7797
     13  H    Isotropic =    24.4330   Anisotropy =     4.3874
   XX=    27.1683   YX=    -2.2386   ZX=     0.5691
   XY=     3.3294   YY=    22.9663   ZY=     0.5766
   XZ=     0.6906   YZ=     0.6732   ZZ=    23.1644
   Eigenvalues:    22.4326    23.5084    27.3579
     14  H    Isotropic =    29.4222   Anisotropy =     7.9300
   XX=    28.1955   YX=    -1.3097   ZX=    -2.1300
   XY=    -1.1312   YY=    27.0484   ZY=     1.2493
   XZ=    -3.3644   YZ=     1.6812   ZZ=    33.0226
   Eigenvalues:    26.2561    27.3015    34.7088
     15  H    Isotropic =    30.7888   Anisotropy =     6.9563
   XX=    30.3570   YX=    -1.1181   ZX=    -2.1243
   XY=    -1.8610   YY=    30.3043   ZY=     2.7141
   XZ=    -2.0945   YZ=     3.3456   ZZ=    31.7050
   Eigenvalues:    27.8795    29.0604    35.4263
     16  H    Isotropic =    29.7738   Anisotropy =     8.8192
   XX=    30.0268   YX=    -1.0579   ZX=     3.1511
   XY=    -2.6216   YY=    30.3471   ZY=    -3.7605
   XZ=     3.0135   YZ=    -3.9406   ZZ=    28.9477
   Eigenvalues:    25.3098    28.3584    35.6533
     17  H    Isotropic =    30.7801   Anisotropy =     8.8074
   XX=    32.6373   YX=     3.6684   ZX=    -0.3651
   XY=     3.9772   YY=    32.8394   ZY=    -0.7852
   XZ=    -0.4505   YZ=    -1.0267   ZZ=    26.8635
   Eigenvalues:    26.7222    28.9663    36.6517
     18  H    Isotropic =    30.4620   Anisotropy =     9.3390
   XX=    36.2330   YX=     1.2212   ZX=     1.3689
   XY=     0.5016   YY=    28.1043   ZY=    -0.8634
   XZ=     2.5089   YZ=    -0.2921   ZZ=    27.0485
   Eigenvalues:    26.3389    28.3590    36.6879
     19  H    Isotropic =    30.3374   Anisotropy =     9.2528
   XX=    28.6633   YX=    -3.1873   ZX=     1.0144
   XY=    -2.2950   YY=    35.2907   ZY=    -0.3282
   XZ=     1.3323   YZ=    -1.9395   ZZ=    27.0581
   Eigenvalues:    26.4260    28.0803    36.5059
     20  H    Isotropic =    31.1440   Anisotropy =     6.9856
   XX=    28.9869   YX=    -0.8678   ZX=    -0.4234
   XY=    -0.6375   YY=    28.6841   ZY=    -0.6853
   XZ=    -0.1087   YZ=    -0.2856   ZZ=    35.7612
   Eigenvalues:    28.0294    29.6016    35.8011
     21  H    Isotropic =    27.1228   Anisotropy =     5.3902
   XX=    27.9371   YX=    -2.6138   ZX=     1.1437
   XY=    -0.4926   YY=    25.2417   ZY=    -2.4166
   XZ=     0.9037   YZ=    -2.7326   ZZ=    28.1896
   Eigenvalues:    23.5727    27.0794    30.7163
     22  H    Isotropic =    28.3879   Anisotropy =     7.9336
   XX=    31.4077   YX=     1.9393   ZX=     2.0424
   XY=     0.6422   YY=    26.3396   ZY=     3.1737
   XZ=     2.6286   YZ=     4.2625   ZZ=    27.4165
   Eigenvalues:    23.0801    28.4068    33.6770
     23  H    Isotropic =    30.7885   Anisotropy =    10.1739
   XX=    35.1293   YX=    -3.5305   ZX=    -1.8715
   XY=    -3.7917   YY=    28.9273   ZY=     0.7766
   XZ=    -2.9856   YZ=     1.2360   ZZ=    28.3089
   Eigenvalues:    27.2005    27.5939    37.5711
     24  H    Isotropic =    29.7606   Anisotropy =     5.5024
   XX=    30.1349   YX=     2.8843   ZX=    -1.2656
   XY=     3.0796   YY=    29.4691   ZY=     2.3306
   XZ=    -1.1874   YZ=     3.9654   ZZ=    29.6780
   Eigenvalues:    24.7125    31.1405    33.4289
     25  H    Isotropic =    30.7767   Anisotropy =     7.9654
   XX=    28.5361   YX=     0.3111   ZX=    -1.9221
   XY=     0.6371   YY=    30.7519   ZY=    -2.7394
   XZ=    -1.7614   YZ=    -4.4511   ZZ=    33.0422
   Eigenvalues:    27.4361    28.8070    36.0870
 End of Minotr F.D. properties file   721 does not exist.
 End of Minotr F.D. properties file   722 does not exist.
 End of Minotr F.D. properties file   788 does not exist.

 **********************************************************************

            Population analysis using the SCF Density.

 **********************************************************************

 Orbital symmetries:
       Occupied  (A) (A) (A) (A) (A) (A) (A) (A) (A) (A) (A) (A)
                 (A) (A) (A) (A) (A) (A) (A) (A) (A) (A) (A) (A)
                 (A) (A) (A) (A) (A) (A) (A) (A) (A) (A) (A) (A)
                 (A) (A) (A) (A) (A) (A) (A)
       Virtual   (A) (A) (A) (A) (A) (A) (A) (A) (A) (A) (A) (A)
                 (A) (A) (A) (A) (A) (A) (A) (A) (A) (A) (A) (A)
                 (A) (A) (A) (A) (A) (A) (A) (A) (A) (A) (A) (A)
                 (A) (A) (A) (A) (A) (A) (A) (A) (A) (A) (A) (A)
                 (A) (A) (A) (A) (A) (A) (A) (A) (A) (A) (A) (A)
                 (A) (A) (A) (A) (A) (A) (A) (A) (A) (A) (A) (A)
                 (A) (A) (A) (A) (A) (A) (A) (A) (A) (A) (A) (A)
                 (A) (A) (A) (A) (A) (A) (A) (A) (A) (A) (A) (A)
                 (A) (A) (A) (A) (A) (A) (A) (A) (A) (A) (A) (A)
                 (A) (A) (A) (A) (A) (A) (A) (A) (A) (A) (A) (A)
                 (A) (A) (A) (A) (A) (A) (A) (A) (A) (A) (A) (A)
                 (A) (A) (A) (A) (A) (A) (A) (A) (A) (A) (A) (A)
                 (A) (A) (A) (A) (A) (A) (A) (A) (A) (A) (A) (A)
                 (A) (A) (A) (A) (A) (A) (A) (A) (A) (A) (A) (A)
                 (A) (A) (A) (A) (A) (A) (A) (A) (A) (A) (A) (A)
                 (A) (A) (A) (A) (A) (A) (A) (A) (A) (A) (A) (A)
                 (A) (A) (A) (A) (A) (A) (A) (A) (A) (A) (A) (A)
                 (A) (A) (A) (A) (A) (A) (A) (A) (A) (A) (A) (A)
                 (A) (A) (A) (A) (A) (A) (A) (A) (A) (A) (A) (A)
                 (A) (A) (A) (A) (A) (A) (A) (A) (A) (A) (A) (A)
                 (A) (A) (A) (A) (A) (A) (A) (A) (A) (A) (A) (A)
                 (A) (A) (A) (A) (A) (A) (A) (A) (A) (A) (A) (A)
                 (A) (A) (A) (A) (A) (A) (A) (A) (A) (A) (A) (A)
                 (A) (A) (A) (A) (A) (A) (A) (A) (A) (A) (A) (A)
                 (A) (A) (A) (A) (A) (A) (A) (A) (A) (A) (A) (A)
                 (A) (A) (A) (A) (A) (A) (A) (A) (A) (A) (A) (A)
                 (A) (A) (A) (A) (A) (A) (A) (A) (A) (A) (A) (A)
                 (A) (A) (A) (A) (A) (A) (A) (A) (A) (A) (A) (A)
                 (A) (A) (A) (A) (A) (A) (A) (A) (A) (A) (A) (A)
                 (A) (A) (A) (A) (A) (A) (A) (A) (A) (A) (A) (A)
                 (A) (A) (A) (A) (A) (A) (A) (A) (A) (A) (A) (A)
                 (A) (A) (A) (A) (A) (A) (A) (A) (A) (A) (A) (A)
                 (A) (A) (A) (A) (A) (A) (A) (A) (A) (A) (A) (A)
                 (A) (A) (A) (A) (A) (A) (A) (A) (A) (A) (A) (A)
                 (A) (A) (A) (A) (A) (A) (A) (A) (A) (A) (A) (A)
                 (A) (A) (A) (A) (A) (A) (A) (A) (A) (A) (A) (A)
                 (A) (A) (A) (A) (A) (A) (A) (A) (A) (A) (A) (A)
                 (A) (A) (A) (A) (A) (A) (A) (A) (A) (A) (A) (A)
                 (A) (A) (A) (A) (A) (A) (A) (A) (A) (A) (A) (A)
                 (A) (A) (A) (A) (A) (A) (A) (A) (A) (A) (A) (A)
                 (A) (A) (A) (A) (A) (A) (A) (A) (A) (A) (A) (A)
                 (A) (A)
 The electronic state is 1-A.
 Alpha  occ. eigenvalues --  -19.60223 -19.53780 -14.70209 -10.59303 -10.55385
 Alpha  occ. eigenvalues --  -10.51448 -10.51232 -10.50688 -10.50167 -10.49748
 Alpha  occ. eigenvalues --  -10.47726  -1.15883  -1.06620  -0.98286  -0.86724
 Alpha  occ. eigenvalues --   -0.82766  -0.76243  -0.74818  -0.69931  -0.65335
 Alpha  occ. eigenvalues --   -0.59589  -0.56384  -0.54160  -0.51891  -0.50354
 Alpha  occ. eigenvalues --   -0.49713  -0.48414  -0.47152  -0.45669  -0.43439
 Alpha  occ. eigenvalues --   -0.43247  -0.42183  -0.41208  -0.40449  -0.38356
 Alpha  occ. eigenvalues --   -0.37155  -0.37025  -0.36290  -0.35312  -0.31888
 Alpha  occ. eigenvalues --   -0.29406  -0.27086  -0.17410
 Alpha virt. eigenvalues --    0.06878   0.09768   0.10653   0.12527   0.13156
 Alpha virt. eigenvalues --    0.13676   0.14417   0.15063   0.15331   0.15865
 Alpha virt. eigenvalues --    0.16672   0.17024   0.17397   0.18503   0.18809
 Alpha virt. eigenvalues --    0.19251   0.20318   0.20690   0.21379   0.22669
 Alpha virt. eigenvalues --    0.24537   0.24772   0.25193   0.25441   0.27769
 Alpha virt. eigenvalues --    0.28031   0.28978   0.29316   0.30149   0.30967
 Alpha virt. eigenvalues --    0.32771   0.34036   0.35146   0.35582   0.36827
 Alpha virt. eigenvalues --    0.38000   0.38294   0.39632   0.40071   0.42106
 Alpha virt. eigenvalues --    0.42695   0.43560   0.44440   0.44961   0.46114
 Alpha virt. eigenvalues --    0.46247   0.46674   0.47075   0.47712   0.48530
 Alpha virt. eigenvalues --    0.48998   0.49475   0.49590   0.50125   0.50867
 Alpha virt. eigenvalues --    0.51373   0.52253   0.52768   0.53313   0.54176
 Alpha virt. eigenvalues --    0.54375   0.55164   0.56817   0.57533   0.58733
 Alpha virt. eigenvalues --    0.59552   0.60247   0.61201   0.62573   0.63039
 Alpha virt. eigenvalues --    0.64803   0.65037   0.67209   0.68689   0.69328
 Alpha virt. eigenvalues --    0.70155   0.71028   0.71923   0.73603   0.74727
 Alpha virt. eigenvalues --    0.75099   0.77280   0.79041   0.79423   0.80692
 Alpha virt. eigenvalues --    0.81535   0.83674   0.84882   0.86314   0.86838
 Alpha virt. eigenvalues --    0.87620   0.89869   0.90889   0.91561   0.94076
 Alpha virt. eigenvalues --    0.94946   0.95558   0.97064   0.97292   0.97893
 Alpha virt. eigenvalues --    0.98390   0.99366   0.99808   1.00815   1.02464
 Alpha virt. eigenvalues --    1.02848   1.04061   1.04765   1.05762   1.06344
 Alpha virt. eigenvalues --    1.07319   1.08997   1.10144   1.12981   1.13242
 Alpha virt. eigenvalues --    1.14984   1.15058   1.15968   1.16902   1.17264
 Alpha virt. eigenvalues --    1.18234   1.19678   1.21245   1.22474   1.23429
 Alpha virt. eigenvalues --    1.24232   1.24671   1.24735   1.26322   1.26779
 Alpha virt. eigenvalues --    1.27374   1.29175   1.31540   1.32497   1.34179
 Alpha virt. eigenvalues --    1.34804   1.35793   1.37695   1.39345   1.40905
 Alpha virt. eigenvalues --    1.41504   1.44153   1.45648   1.46137   1.46639
 Alpha virt. eigenvalues --    1.46874   1.47378   1.49029   1.49633   1.49745
 Alpha virt. eigenvalues --    1.50656   1.51758   1.52592   1.53035   1.54350
 Alpha virt. eigenvalues --    1.55018   1.56538   1.57343   1.57659   1.58325
 Alpha virt. eigenvalues --    1.59346   1.59433   1.60210   1.60592   1.62342
 Alpha virt. eigenvalues --    1.63597   1.64895   1.65570   1.67358   1.68329
 Alpha virt. eigenvalues --    1.69328   1.70847   1.72470   1.73638   1.76864
 Alpha virt. eigenvalues --    1.77584   1.79663   1.81182   1.83493   1.85834
 Alpha virt. eigenvalues --    1.87548   1.88916   1.91217   1.95292   1.96772
 Alpha virt. eigenvalues --    1.97511   2.00404   2.03622   2.04978   2.08964
 Alpha virt. eigenvalues --    2.10709   2.12788   2.12997   2.14214   2.15420
 Alpha virt. eigenvalues --    2.17011   2.20838   2.21280   2.24696   2.27536
 Alpha virt. eigenvalues --    2.27968   2.29955   2.30924   2.33612   2.38127
 Alpha virt. eigenvalues --    2.41663   2.42640   2.44972   2.45274   2.48169
 Alpha virt. eigenvalues --    2.49965   2.52128   2.53201   2.54980   2.56124
 Alpha virt. eigenvalues --    2.57533   2.58590   2.59598   2.61076   2.61161
 Alpha virt. eigenvalues --    2.62089   2.65149   2.66952   2.67368   2.69530
 Alpha virt. eigenvalues --    2.71079   2.72610   2.76147   2.77441   2.79471
 Alpha virt. eigenvalues --    2.81522   2.81589   2.83555   2.85420   2.85898
 Alpha virt. eigenvalues --    2.86531   2.87087   2.87464   2.88757   2.89797
 Alpha virt. eigenvalues --    2.91566   2.92847   2.93793   2.95111   2.95561
 Alpha virt. eigenvalues --    2.96036   2.96915   2.97680   2.98341   2.98980
 Alpha virt. eigenvalues --    3.00521   3.00648   3.02378   3.03649   3.04150
 Alpha virt. eigenvalues --    3.05860   3.06801   3.07791   3.08748   3.09410
 Alpha virt. eigenvalues --    3.09814   3.10870   3.12117   3.13491   3.14374
 Alpha virt. eigenvalues --    3.14895   3.16233   3.16919   3.18292   3.18911
 Alpha virt. eigenvalues --    3.19134   3.19573   3.20488   3.20826   3.22168
 Alpha virt. eigenvalues --    3.24347   3.24812   3.25678   3.27075   3.28555
 Alpha virt. eigenvalues --    3.29614   3.31963   3.33131   3.33516   3.34088
 Alpha virt. eigenvalues --    3.35066   3.35771   3.35868   3.36676   3.38694
 Alpha virt. eigenvalues --    3.39402   3.40813   3.42011   3.43023   3.44564
 Alpha virt. eigenvalues --    3.47550   3.48205   3.48856   3.49425   3.50179
 Alpha virt. eigenvalues --    3.51515   3.52376   3.52754   3.55167   3.55747
 Alpha virt. eigenvalues --    3.56525   3.58119   3.59070   3.60140   3.60508
 Alpha virt. eigenvalues --    3.61935   3.63523   3.63662   3.64543   3.64910
 Alpha virt. eigenvalues --    3.66085   3.67784   3.69526   3.72188   3.73571
 Alpha virt. eigenvalues --    3.75198   3.76122   3.77311   3.79439   3.79786
 Alpha virt. eigenvalues --    3.81809   3.82259   3.83316   3.84404   3.85417
 Alpha virt. eigenvalues --    3.87094   3.87872   3.89088   3.89595   3.89850
 Alpha virt. eigenvalues --    3.91940   3.92690   3.93778   3.95038   3.95496
 Alpha virt. eigenvalues --    3.96138   3.97108   3.98269   3.98614   3.99770
 Alpha virt. eigenvalues --    4.00330   4.00952   4.01924   4.03322   4.03721
 Alpha virt. eigenvalues --    4.04844   4.05024   4.06314   4.06801   4.07796
 Alpha virt. eigenvalues --    4.08854   4.09527   4.11277   4.12223   4.12508
 Alpha virt. eigenvalues --    4.13051   4.15273   4.16010   4.16733   4.19383
 Alpha virt. eigenvalues --    4.21246   4.21894   4.24003   4.24259   4.25979
 Alpha virt. eigenvalues --    4.26992   4.28083   4.30600   4.31705   4.32007
 Alpha virt. eigenvalues --    4.34108   4.36365   4.39506   4.40433   4.43960
 Alpha virt. eigenvalues --    4.47027   4.49539   4.50530   4.52726   4.53850
 Alpha virt. eigenvalues --    4.55161   4.56117   4.57907   4.58098   4.58983
 Alpha virt. eigenvalues --    4.60346   4.63841   4.64572   4.65314   4.69752
 Alpha virt. eigenvalues --    4.71550   4.73453   4.75046   4.76167   4.78249
 Alpha virt. eigenvalues --    4.79173   4.79772   4.81659   4.84888   4.85550
 Alpha virt. eigenvalues --    4.86871   4.87584   4.89750   4.90261   4.91705
 Alpha virt. eigenvalues --    4.94687   4.96780   4.97122   5.01524   5.02340
 Alpha virt. eigenvalues --    5.05054   5.09770   5.11491   5.12050   5.14930
 Alpha virt. eigenvalues --    5.17161   5.17480   5.18508   5.21594   5.22521
 Alpha virt. eigenvalues --    5.24373   5.25077   5.26526   5.27607   5.28126
 Alpha virt. eigenvalues --    5.29302   5.29583   5.30406   5.31573   5.32897
 Alpha virt. eigenvalues --    5.34010   5.35256   5.36494   5.37908   5.39086
 Alpha virt. eigenvalues --    5.40268   5.41332   5.42864   5.43932   5.46465
 Alpha virt. eigenvalues --    5.47574   5.51475   5.51951   5.52400   5.52814
 Alpha virt. eigenvalues --    5.58156   5.58629   5.59862   5.60502   5.61873
 Alpha virt. eigenvalues --    5.62376   5.63409   5.64041   5.65895   5.67201
 Alpha virt. eigenvalues --    5.71870   5.76750   5.86734   5.90141   5.93760
 Alpha virt. eigenvalues --    6.01031   6.06255   6.20861   6.24519   6.30708
 Alpha virt. eigenvalues --    6.43238   6.48493   6.55550   6.62364   6.76955
 Alpha virt. eigenvalues --    6.78463   6.86991   6.95049   7.00740   7.15129
 Alpha virt. eigenvalues --    7.21131   7.38265   7.46351  23.19554  23.24235
 Alpha virt. eigenvalues --   23.43599  23.45957  23.52313  23.67474  23.70736
 Alpha virt. eigenvalues --   23.79034  32.89953  44.19725  44.49797
          Condensed to atoms (all electrons):
               1          2          3          4          5          6
     1  O    8.125124   0.639465  -0.122628  -0.000753   0.002525  -0.000612
     2  C    0.639465   4.475200   0.514898  -0.087127   0.002394   0.000384
     3  C   -0.122628   0.514898   5.338964   0.445284  -0.202810   0.008707
     4  N   -0.000753  -0.087127   0.445284   6.430773   0.641578  -0.121392
     5  C    0.002525   0.002394  -0.202810   0.641578   5.209579   0.231876
     6  C   -0.000612   0.000384   0.008707  -0.121392   0.231876   5.228546
     7  C    0.000118  -0.000545  -0.000781  -0.003016  -0.045263   0.254206
     8  C   -0.000006  -0.000222   0.000722   0.003762  -0.101213   0.294588
     9  O   -0.112056   0.282764  -0.106092   0.005017   0.000338  -0.000073
    10  C   -0.006131  -0.068300  -0.004398  -0.000153   0.000061  -0.000022
    11  C   -0.028088   0.008098   0.008795  -0.000072  -0.000040   0.000005
    12  H    0.004907  -0.053841   0.410469  -0.051255  -0.009822  -0.008210
    13  H   -0.000055  -0.004154  -0.007011  -0.055153   0.451765  -0.114905
    14  H   -0.000008   0.000119   0.000455  -0.000918  -0.068521   0.465772
    15  H    0.000192  -0.000184  -0.001249   0.005242  -0.005429  -0.030225
    16  H    0.000554  -0.000212  -0.000690   0.009445  -0.007733  -0.038184
    17  H    0.000012   0.000031   0.000053   0.001884   0.017458  -0.054215
    18  H    0.000000   0.000008   0.000007  -0.000255   0.016895  -0.040666
    19  H    0.000000  -0.000001   0.000021   0.000315  -0.006826  -0.039925
    20  H   -0.000000  -0.000027  -0.000681   0.001113  -0.002470  -0.022833
    21  H    0.020095  -0.015010   0.003646  -0.000078   0.000001   0.000004
    22  H    0.001750   0.006585   0.001379   0.000004  -0.000000   0.000000
    23  H    0.000406  -0.000118  -0.000329   0.000000   0.000000  -0.000000
    24  H    0.018281   0.000516  -0.000277  -0.000000   0.000040  -0.000000
    25  H    0.001298  -0.002927  -0.000408   0.000005   0.000005  -0.000000
               7          8          9         10         11         12
     1  O    0.000118  -0.000006  -0.112056  -0.006131  -0.028088   0.004907
     2  C   -0.000545  -0.000222   0.282764  -0.068300   0.008098  -0.053841
     3  C   -0.000781   0.000722  -0.106092  -0.004398   0.008795   0.410469
     4  N   -0.003016   0.003762   0.005017  -0.000153  -0.000072  -0.051255
     5  C   -0.045263  -0.101213   0.000338   0.000061  -0.000040  -0.009822
     6  C    0.254206   0.294588  -0.000073  -0.000022   0.000005  -0.008210
     7  C    5.019782  -0.051845   0.000013   0.000004  -0.000000   0.000746
     8  C   -0.051845   5.081297  -0.000001  -0.000000   0.000000   0.000082
     9  O    0.000013  -0.000001   8.154879   0.237978  -0.054449   0.014602
    10  C    0.000004  -0.000000   0.237978   4.869685   0.238529   0.002160
    11  C   -0.000000   0.000000  -0.054449   0.238529   5.117623   0.000036
    12  H    0.000746   0.000082   0.014602   0.002160   0.000036   0.617835
    13  H    0.012957  -0.001528   0.000065   0.000028  -0.000003   0.022865
    14  H   -0.051215  -0.088877  -0.000001   0.000000  -0.000000   0.000020
    15  H    0.407880  -0.017632   0.000003   0.000002  -0.000002   0.000092
    16  H    0.416785   0.012519   0.000010  -0.000003   0.000001   0.000155
    17  H    0.422334  -0.007733   0.000000   0.000000  -0.000000   0.000017
    18  H   -0.009310   0.408794   0.000000   0.000000  -0.000000  -0.000002
    19  H    0.010462   0.414830   0.000000   0.000000  -0.000000   0.000063
    20  H   -0.011385   0.388003   0.000000   0.000000  -0.000000   0.000005
    21  H   -0.000001  -0.000000  -0.048904   0.442103  -0.078781  -0.000063
    22  H   -0.000000  -0.000000  -0.035637   0.416006  -0.047275  -0.000354
    23  H   -0.000000  -0.000000   0.005692  -0.029013   0.392024   0.000000
    24  H   -0.000001  -0.000000  -0.003635  -0.032693   0.399621  -0.000135
    25  H    0.000000  -0.000000   0.005045  -0.031709   0.387358   0.000038
              13         14         15         16         17         18
     1  O   -0.000055  -0.000008   0.000192   0.000554   0.000012   0.000000
     2  C   -0.004154   0.000119  -0.000184  -0.000212   0.000031   0.000008
     3  C   -0.007011   0.000455  -0.001249  -0.000690   0.000053   0.000007
     4  N   -0.055153  -0.000918   0.005242   0.009445   0.001884  -0.000255
     5  C    0.451765  -0.068521  -0.005429  -0.007733   0.017458   0.016895
     6  C   -0.114905   0.465772  -0.030225  -0.038184  -0.054215  -0.040666
     7  C    0.012957  -0.051215   0.407880   0.416785   0.422334  -0.009310
     8  C   -0.001528  -0.088877  -0.017632   0.012519  -0.007733   0.408794
     9  O    0.000065  -0.000001   0.000003   0.000010   0.000000   0.000000
    10  C    0.000028   0.000000   0.000002  -0.000003   0.000000   0.000000
    11  C   -0.000003  -0.000000  -0.000002   0.000001  -0.000000  -0.000000
    12  H    0.022865   0.000020   0.000092   0.000155   0.000017  -0.000002
    13  H    0.650843  -0.001166   0.000679   0.000809   0.000094  -0.000498
    14  H   -0.001166   0.672362   0.010322  -0.007603  -0.006000  -0.002032
    15  H    0.000679   0.010322   0.566733  -0.024778  -0.025998   0.000616
    16  H    0.000809  -0.007603  -0.024778   0.547131  -0.021787  -0.000401
    17  H    0.000094  -0.006000  -0.025998  -0.021787   0.568829   0.002269
    18  H   -0.000498  -0.002032   0.000616  -0.000401   0.002269   0.563308
    19  H    0.004255  -0.003689   0.000035  -0.000398  -0.000031  -0.023290
    20  H    0.000258   0.011195   0.005636  -0.000346  -0.000036  -0.021624
    21  H   -0.000003   0.000000  -0.000001  -0.000001  -0.000000  -0.000000
    22  H    0.000000   0.000000   0.000000  -0.000000  -0.000000   0.000000
    23  H    0.000000   0.000000   0.000000  -0.000000   0.000000   0.000000
    24  H   -0.000000   0.000000   0.000003  -0.000002   0.000000   0.000000
    25  H   -0.000000   0.000000   0.000000  -0.000000  -0.000000   0.000000
              19         20         21         22         23         24
     1  O    0.000000  -0.000000   0.020095   0.001750   0.000406   0.018281
     2  C   -0.000001  -0.000027  -0.015010   0.006585  -0.000118   0.000516
     3  C    0.000021  -0.000681   0.003646   0.001379  -0.000329  -0.000277
     4  N    0.000315   0.001113  -0.000078   0.000004   0.000000  -0.000000
     5  C   -0.006826  -0.002470   0.000001  -0.000000   0.000000   0.000040
     6  C   -0.039925  -0.022833   0.000004   0.000000  -0.000000  -0.000000
     7  C    0.010462  -0.011385  -0.000001  -0.000000  -0.000000  -0.000001
     8  C    0.414830   0.388003  -0.000000  -0.000000  -0.000000  -0.000000
     9  O    0.000000   0.000000  -0.048904  -0.035637   0.005692  -0.003635
    10  C    0.000000   0.000000   0.442103   0.416006  -0.029013  -0.032693
    11  C   -0.000000  -0.000000  -0.078781  -0.047275   0.392024   0.399621
    12  H    0.000063   0.000005  -0.000063  -0.000354   0.000000  -0.000135
    13  H    0.004255   0.000258  -0.000003   0.000000   0.000000  -0.000000
    14  H   -0.003689   0.011195   0.000000   0.000000   0.000000   0.000000
    15  H    0.000035   0.005636  -0.000001   0.000000   0.000000   0.000003
    16  H   -0.000398  -0.000346  -0.000001  -0.000000  -0.000000  -0.000002
    17  H   -0.000031  -0.000036  -0.000000  -0.000000   0.000000   0.000000
    18  H   -0.023290  -0.021624  -0.000000   0.000000   0.000000   0.000000
    19  H    0.562757  -0.025013  -0.000000   0.000000   0.000000   0.000000
    20  H   -0.025013   0.571280   0.000000   0.000000   0.000000   0.000000
    21  H   -0.000000   0.000000   0.606723  -0.028626   0.003847  -0.008468
    22  H    0.000000   0.000000  -0.028626   0.585584  -0.002719   0.006757
    23  H    0.000000   0.000000   0.003847  -0.002719   0.569664  -0.022023
    24  H    0.000000   0.000000  -0.008468   0.006757  -0.022023   0.548785
    25  H    0.000000   0.000000   0.009427  -0.006220  -0.017587  -0.025877
              25
     1  O    0.001298
     2  C   -0.002927
     3  C   -0.000408
     4  N    0.000005
     5  C    0.000005
     6  C   -0.000000
     7  C    0.000000
     8  C   -0.000000
     9  O    0.005045
    10  C   -0.031709
    11  C    0.387358
    12  H    0.000038
    13  H   -0.000000
    14  H    0.000000
    15  H    0.000000
    16  H   -0.000000
    17  H   -0.000000
    18  H    0.000000
    19  H    0.000000
    20  H    0.000000
    21  H    0.009427
    22  H   -0.006220
    23  H   -0.017587
    24  H   -0.025877
    25  H    0.581831
 Mulliken charges:
               1
     1  O   -0.544391
     2  C    0.302206
     3  C   -0.286044
     4  N   -0.224251
     5  C   -0.124389
     6  C   -0.012825
     7  C   -0.371925
     8  C   -0.335539
     9  O   -0.345557
    10  C   -0.034133
    11  C   -0.343379
    12  H    0.049591
    13  H    0.039861
    14  H    0.069785
    15  H    0.108063
    16  H    0.114729
    17  H    0.102818
    18  H    0.106181
    19  H    0.106434
    20  H    0.106923
    21  H    0.094089
    22  H    0.102766
    23  H    0.100154
    24  H    0.119110
    25  H    0.099721
 Sum of Mulliken charges =  -1.00000
 Mulliken charges with hydrogens summed into heavy atoms:
               1
     1  O   -0.544391
     2  C    0.302206
     3  C   -0.236452
     4  N   -0.224251
     5  C   -0.084529
     6  C    0.056960
     7  C   -0.046316
     8  C   -0.016000
     9  O   -0.345557
    10  C    0.162722
    11  C   -0.024394
 Electronic spatial extent (au):  <R**2>=           3234.0590
 Charge=             -1.0000 electrons
 Dipole moment (field-independent basis, Debye):
    X=              2.0842    Y=             -1.8731    Z=              1.1202  Tot=              3.0178
 Quadrupole moment (field-independent basis, Debye-Ang):
   XX=            -80.6205   YY=            -79.6291   ZZ=            -74.3249
   XY=              1.0150   XZ=             -1.1487   YZ=              0.5845
 Traceless Quadrupole moment (field-independent basis, Debye-Ang):
   XX=             -2.4290   YY=             -1.4376   ZZ=              3.8666
   XY=              1.0150   XZ=             -1.1487   YZ=              0.5845
 Octapole moment (field-independent basis, Debye-Ang**2):
  XXX=            -32.8939  YYY=             -6.8091  ZZZ=             -0.9585  XYY=              3.5368
  XXY=             -1.0428  XXZ=             -6.1042  XZZ=             -6.0795  YZZ=              2.5828
  YYZ=              1.4308  XYZ=              0.9327
 Hexadecapole moment (field-independent basis, Debye-Ang**3):
 XXXX=          -3906.8274 YYYY=           -411.3211 ZZZZ=           -245.6064 XXXY=             11.7020
 XXXZ=             -2.3712 YYYX=              0.5310 YYYZ=              1.1865 ZZZX=              5.6245
 ZZZY=             -2.6828 XXYY=           -746.6033 XXZZ=           -715.3825 YYZZ=           -109.8374
 XXYZ=              2.5888 YYXZ=             -3.5202 ZZXY=              4.5985
 N-N= 5.967430624097D+02 E-N=-2.417316694164D+03  KE= 5.158177458579D+02
 Unable to Open any file for archive entry.
 1\1\GINC-NOTCH069\SP\RM062X\def2TZVPP\C8H14N1O2(1-)\U6067110\18-Jul-20
 25\0\\#N Guess=Read Geom=Check Integral(Ultrafine) Density NMR M062X E
 mpiricalDispersion=GD3 def2TZVPP SCRF(IEFPCM,solvent=thf)\\A18_crest_c
 onformers_censo-13\\-1,1\O,0,1.5929001739,-0.1898481173,-1.2449007506\
 C,0,1.422057688,0.2842346612,-0.1272260227\C,0,0.2429497921,0.55583211
 84,0.5975570242\N,0,-0.9709764959,0.2799099194,0.0700462057\C,0,-2.083
 8319341,0.5055129783,0.6676896872\C,0,-3.4210576943,0.1860630493,0.038
 3115702\C,0,-3.2482158368,-0.5304076098,-1.295820706\C,0,-4.294789439,
 -0.6319946178,0.9959243729\O,0,2.5580838085,0.6479582139,0.627958796\C
 ,0,3.7906095944,0.4102344479,0.0099795036\C,0,4.2140573613,-1.04914363
 01,0.1179776884\H,0,0.343081812,0.9981052063,1.599484945\H,0,-2.118236
 2001,0.9587099458,1.6827949548\H,0,-3.9658088664,1.1354446987,-0.15366
 13711\H,0,-2.7270923304,-1.4868146957,-1.140331755\H,0,-2.6125156883,0
 .0589695504,-1.9686732817\H,0,-4.2225938406,-0.72299722,-1.7748365199\
 H,0,-5.3071263227,-0.7966560553,0.5889998227\H,0,-4.3976440261,-0.1242
 630725,1.9681972082\H,0,-3.8306068204,-1.6139532878,1.1815554847\H,0,3
 .7460704822,0.693852605,-1.0536301392\H,0,4.5225649014,1.0599709856,0.
 518977516\H,0,5.2180947017,-1.2069056256,-0.3078050884\H,0,3.489749277
 5,-1.6629808206,-0.4331274102\H,0,4.2232459019,-1.3663636279,1.1715782
 654\\Version=ES64L-G16RevC.01\State=1-A\HF=-518.5500317\RMSD=1.297e-09
 \Dipole=-0.8025913,-0.1284338,0.8654727\Quadrupole=-1.7500936,2.558130
 2,-0.8080366,-0.5820932,1.067072,-1.1019032\PG=C01 [X(C8H14N1O2)]\\@
 The archive entry for this job was punched.


 The juvenile sea squirt wanders through the sea searching
 for a suitable rock or hunk of coral to cling to and make
 its home for life.  For this task it has a rudimentary
 nervous system.  When it finds its spot and takes root, it
 doesn't need its brain any more so it eats it.
 It's rather like getting tenure.

                               -- source unknown
 Job cpu time:       0 days  1 hours 33 minutes 28.6 seconds.
 Elapsed time:       0 days  0 hours  6 minutes 11.3 seconds.
 File lengths (MBytes):  RWF=    244 Int=      0 D2E=      0 Chk=     27 Scr=      2
 Normal termination of Gaussian 16 at Fri Jul 18 12:13:58 2025.
