 Entering Gaussian System, Link 0=g16
 Input=A18_crest_conformers_censo-14.com
 Output=A18_crest_conformers_censo-14.log
 Initial command:
 /uufs/chpc.utah.edu/sys/installdir/gaussian16/C01/AVX/g16/l1.exe "/scratch/general/vast/u6067110/5280073-notchpeak.peaks/Gau-1364907.inp" -scrdir="/scratch/general/vast/u6067110/5280073-notchpeak.peaks/"
 Entering Link 1 = /uufs/chpc.utah.edu/sys/installdir/gaussian16/C01/AVX/g16/l1.exe PID=   1364908.
  
 Copyright (c) 1988-2019, Gaussian, Inc.  All Rights Reserved.
  
 This is part of the Gaussian(R) 16 program.  It is based on
 the Gaussian(R) 09 system (copyright 2009, Gaussian, Inc.),
 the Gaussian(R) 03 system (copyright 2003, Gaussian, Inc.),
 the Gaussian(R) 98 system (copyright 1998, Gaussian, Inc.),
 the Gaussian(R) 94 system (copyright 1995, Gaussian, Inc.),
 the Gaussian 92(TM) system (copyright 1992, Gaussian, Inc.),
 the Gaussian 90(TM) system (copyright 1990, Gaussian, Inc.),
 the Gaussian 88(TM) system (copyright 1988, Gaussian, Inc.),
 the Gaussian 86(TM) system (copyright 1986, Carnegie Mellon
 University), and the Gaussian 82(TM) system (copyright 1983,
 Carnegie Mellon University). Gaussian is a federally registered
 trademark of Gaussian, Inc.
  
 This software contains proprietary and confidential information,
 including trade secrets, belonging to Gaussian, Inc.
  
 This software is provided under written license and may be
 used, copied, transmitted, or stored only in accord with that
 written license.
  
 The following legend is applicable only to US Government
 contracts under FAR:
  
                    RESTRICTED RIGHTS LEGEND
  
 Use, reproduction and disclosure by the US Government is
 subject to restrictions as set forth in subparagraphs (a)
 and (c) of the Commercial Computer Software - Restricted
 Rights clause in FAR 52.227-19.
  
 Gaussian, Inc.
 340 Quinnipiac St., Bldg. 40, Wallingford CT 06492
  
  
 ---------------------------------------------------------------
 Warning -- This program may not be used in any manner that
 competes with the business of Gaussian, Inc. or will provide
 assistance to any competitor of Gaussian, Inc.  The licensee
 of this program is prohibited from giving any competitor of
 Gaussian, Inc. access to this program.  By using this program,
 the user acknowledges that Gaussian, Inc. is engaged in the
 business of creating and licensing software in the field of
 computational chemistry and represents and warrants to the
 licensee that it is not a competitor of Gaussian, Inc. and that
 it will not use this program in any manner prohibited above.
 ---------------------------------------------------------------
  

 Cite this work as:
 Gaussian 16, Revision C.01,
 M. J. Frisch, G. W. Trucks, H. B. Schlegel, G. E. Scuseria, 
 M. A. Robb, J. R. Cheeseman, G. Scalmani, V. Barone, 
 G. A. Petersson, H. Nakatsuji, X. Li, M. Caricato, A. V. Marenich, 
 J. Bloino, B. G. Janesko, R. Gomperts, B. Mennucci, H. P. Hratchian, 
 J. V. Ortiz, A. F. Izmaylov, J. L. Sonnenberg, D. Williams-Young, 
 F. Ding, F. Lipparini, F. Egidi, J. Goings, B. Peng, A. Petrone, 
 T. Henderson, D. Ranasinghe, V. G. Zakrzewski, J. Gao, N. Rega, 
 G. Zheng, W. Liang, M. Hada, M. Ehara, K. Toyota, R. Fukuda, 
 J. Hasegawa, M. Ishida, T. Nakajima, Y. Honda, O. Kitao, H. Nakai, 
 T. Vreven, K. Throssell, J. A. Montgomery, Jr., J. E. Peralta, 
 F. Ogliaro, M. J. Bearpark, J. J. Heyd, E. N. Brothers, K. N. Kudin, 
 V. N. Staroverov, T. A. Keith, R. Kobayashi, J. Normand, 
 K. Raghavachari, A. P. Rendell, J. C. Burant, S. S. Iyengar, 
 J. Tomasi, M. Cossi, J. M. Millam, M. Klene, C. Adamo, R. Cammi, 
 J. W. Ochterski, R. L. Martin, K. Morokuma, O. Farkas, 
 J. B. Foresman, and D. J. Fox, Gaussian, Inc., Wallingford CT, 2019.
 
 ******************************************
 Gaussian 16:  ES64L-G16RevC.01  3-Jul-2019
                18-Jul-2025 
 ******************************************
 %NProcShared=32
 Will use up to   32 processors via shared memory.
 %Mem=48GB
 %chk=A18_crest_conformers_censo-14.chk
 ----------------------------------------------------------------------
 #N OPT FREQ=NORAMAN Integral(Ultrafine) M062X EmpiricalDispersion=GD3 
 def2SVP
 ----------------------------------------------------------------------
 1/18=20,19=15,26=4,38=1/1,3;
 2/9=110,12=2,17=6,18=5,40=1/2;
 3/5=43,7=101,11=2,25=1,30=1,71=1,74=-55,75=-5,124=31/1,2,3;
 4//1;
 5/5=2,38=5/2;
 6/7=2,8=2,9=2,10=2,28=1/1;
 7//1,2,3,16;
 1/18=20,19=15,26=4/3(2);
 2/9=110/2;
 99//99;
 2/9=110/2;
 3/5=43,7=101,11=2,25=1,30=1,71=1,74=-55,75=-5,124=31/1,2,3;
 4/5=5,16=3,69=1/1;
 5/5=2,38=5/2;
 7//1,2,3,16;
 1/18=20,19=15,26=4/3(-5);
 2/9=110/2;
 6/7=2,8=2,9=2,10=2,19=2,28=1/1;
 99/9=1/99;
 -----------------------------
 A18_crest_conformers_censo-14
 -----------------------------
 Symbolic Z-matrix:
 Charge = -1 Multiplicity = 1
 O                     1.59581   0.0175   -1.46156 
 C                     1.39521   0.22354  -0.26396 
 C                     0.22729   0.33978   0.46949 
 N                    -0.98492   0.24087  -0.09411 
 C                    -2.07187   0.34362   0.57177 
 C                    -3.40467   0.22751  -0.12458 
 C                    -3.46286  -1.066    -0.94194 
 C                    -4.55554   0.28723   0.87776 
 O                     2.5325    0.39696   0.60607 
 C                     3.78217   0.23498   0.00134 
 C                     4.44129  -1.08636   0.40177 
 H                     0.32868   0.52338   1.54686 
 H                    -2.09723   0.52624   1.66062 
 H                    -3.51594   1.06655  -0.82879 
 H                    -4.36893  -1.1129   -1.5489 
 H                    -3.44074  -1.93019  -0.27952 
 H                    -2.59025  -1.10641  -1.58681 
 H                    -5.5182    0.21584   0.36975 
 H                    -4.52951   1.22203   1.43597 
 H                    -4.47967  -0.53615   1.58704 
 H                     3.64162   0.26089  -1.09015 
 H                     4.41931   1.07853   0.30698 
 H                     3.81491  -1.91404   0.07831 
 H                     4.55293  -1.13761   1.48348 
 H                     5.42176  -1.17534  -0.06447 
 

 GradGradGradGradGradGradGradGradGradGradGradGradGradGradGradGradGradGrad
 Berny optimization.
 Initialization pass.
                           ----------------------------
                           !    Initial Parameters    !
                           ! (Angstroms and Degrees)  !
 --------------------------                            --------------------------
 ! Name  Definition              Value          Derivative Info.                !
 --------------------------------------------------------------------------------
 ! R1    R(1,2)                  1.2316         estimate D2E/DX2                !
 ! R2    R(2,3)                  1.384          estimate D2E/DX2                !
 ! R3    R(2,9)                  1.4424         estimate D2E/DX2                !
 ! R4    R(3,4)                  1.3405         estimate D2E/DX2                !
 ! R5    R(3,12)                 1.0976         estimate D2E/DX2                !
 ! R6    R(4,5)                  1.2788         estimate D2E/DX2                !
 ! R7    R(5,6)                  1.5082         estimate D2E/DX2                !
 ! R8    R(5,13)                 1.1043         estimate D2E/DX2                !
 ! R9    R(6,7)                  1.5312         estimate D2E/DX2                !
 ! R10   R(6,8)                  1.5273         estimate D2E/DX2                !
 ! R11   R(6,14)                 1.101          estimate D2E/DX2                !
 ! R12   R(7,15)                 1.0916         estimate D2E/DX2                !
 ! R13   R(7,16)                 1.0891         estimate D2E/DX2                !
 ! R14   R(7,17)                 1.0858         estimate D2E/DX2                !
 ! R15   R(8,18)                 1.0908         estimate D2E/DX2                !
 ! R16   R(8,19)                 1.0891         estimate D2E/DX2                !
 ! R17   R(8,20)                 1.0894         estimate D2E/DX2                !
 ! R18   R(9,10)                 1.3977         estimate D2E/DX2                !
 ! R19   R(10,11)                1.5299         estimate D2E/DX2                !
 ! R20   R(10,21)                1.1008         estimate D2E/DX2                !
 ! R21   R(10,22)                1.1004         estimate D2E/DX2                !
 ! R22   R(11,23)                1.0872         estimate D2E/DX2                !
 ! R23   R(11,24)                1.0887         estimate D2E/DX2                !
 ! R24   R(11,25)                1.0893         estimate D2E/DX2                !
 ! A1    A(1,2,3)              131.8197         estimate D2E/DX2                !
 ! A2    A(1,2,9)              118.5687         estimate D2E/DX2                !
 ! A3    A(3,2,9)              109.61           estimate D2E/DX2                !
 ! A4    A(2,3,4)              122.2833         estimate D2E/DX2                !
 ! A5    A(2,3,12)             117.1471         estimate D2E/DX2                !
 ! A6    A(4,3,12)             120.5691         estimate D2E/DX2                !
 ! A7    A(3,4,5)              122.9407         estimate D2E/DX2                !
 ! A8    A(4,5,6)              120.2984         estimate D2E/DX2                !
 ! A9    A(4,5,13)             123.106          estimate D2E/DX2                !
 ! A10   A(6,5,13)             116.5936         estimate D2E/DX2                !
 ! A11   A(5,6,7)              110.1861         estimate D2E/DX2                !
 ! A12   A(5,6,8)              111.0917         estimate D2E/DX2                !
 ! A13   A(5,6,14)             109.0224         estimate D2E/DX2                !
 ! A14   A(7,6,8)              110.7756         estimate D2E/DX2                !
 ! A15   A(7,6,14)             107.3672         estimate D2E/DX2                !
 ! A16   A(8,6,14)             108.2881         estimate D2E/DX2                !
 ! A17   A(6,7,15)             111.3859         estimate D2E/DX2                !
 ! A18   A(6,7,16)             110.1738         estimate D2E/DX2                !
 ! A19   A(6,7,17)             108.5378         estimate D2E/DX2                !
 ! A20   A(15,7,16)            108.7213         estimate D2E/DX2                !
 ! A21   A(15,7,17)            109.5873         estimate D2E/DX2                !
 ! A22   A(16,7,17)            108.3841         estimate D2E/DX2                !
 ! A23   A(6,8,18)             110.9034         estimate D2E/DX2                !
 ! A24   A(6,8,19)             110.6047         estimate D2E/DX2                !
 ! A25   A(6,8,20)             110.197          estimate D2E/DX2                !
 ! A26   A(18,8,19)            108.4192         estimate D2E/DX2                !
 ! A27   A(18,8,20)            108.3736         estimate D2E/DX2                !
 ! A28   A(19,8,20)            108.2621         estimate D2E/DX2                !
 ! A29   A(2,9,10)             115.4713         estimate D2E/DX2                !
 ! A30   A(9,10,11)            111.8409         estimate D2E/DX2                !
 ! A31   A(9,10,21)            108.1865         estimate D2E/DX2                !
 ! A32   A(9,10,22)            107.9786         estimate D2E/DX2                !
 ! A33   A(11,10,21)           109.5633         estimate D2E/DX2                !
 ! A34   A(11,10,22)           109.8717         estimate D2E/DX2                !
 ! A35   A(21,10,22)           109.3464         estimate D2E/DX2                !
 ! A36   A(10,11,23)           109.3546         estimate D2E/DX2                !
 ! A37   A(10,11,24)           110.1753         estimate D2E/DX2                !
 ! A38   A(10,11,25)           110.2605         estimate D2E/DX2                !
 ! A39   A(23,11,24)           108.5937         estimate D2E/DX2                !
 ! A40   A(23,11,25)           109.2105         estimate D2E/DX2                !
 ! A41   A(24,11,25)           109.216          estimate D2E/DX2                !
 ! D1    D(1,2,3,4)             -0.5225         estimate D2E/DX2                !
 ! D2    D(1,2,3,12)           179.7435         estimate D2E/DX2                !
 ! D3    D(9,2,3,4)            178.9987         estimate D2E/DX2                !
 ! D4    D(9,2,3,12)            -0.7353         estimate D2E/DX2                !
 ! D5    D(1,2,9,10)            -3.5432         estimate D2E/DX2                !
 ! D6    D(3,2,9,10)           176.8631         estimate D2E/DX2                !
 ! D7    D(2,3,4,5)            179.8599         estimate D2E/DX2                !
 ! D8    D(12,3,4,5)            -0.415          estimate D2E/DX2                !
 ! D9    D(3,4,5,6)            179.7754         estimate D2E/DX2                !
 ! D10   D(3,4,5,13)             0.2928         estimate D2E/DX2                !
 ! D11   D(4,5,6,7)             53.0079         estimate D2E/DX2                !
 ! D12   D(4,5,6,8)            176.16           estimate D2E/DX2                !
 ! D13   D(4,5,6,14)           -64.5828         estimate D2E/DX2                !
 ! D14   D(13,5,6,7)          -127.4768         estimate D2E/DX2                !
 ! D15   D(13,5,6,8)            -4.3247         estimate D2E/DX2                !
 ! D16   D(13,5,6,14)          114.9325         estimate D2E/DX2                !
 ! D17   D(5,6,7,15)          -173.1451         estimate D2E/DX2                !
 ! D18   D(5,6,7,16)            66.1171         estimate D2E/DX2                !
 ! D19   D(5,6,7,17)           -52.4111         estimate D2E/DX2                !
 ! D20   D(8,6,7,15)            63.5183         estimate D2E/DX2                !
 ! D21   D(8,6,7,16)           -57.2195         estimate D2E/DX2                !
 ! D22   D(8,6,7,17)          -175.7476         estimate D2E/DX2                !
 ! D23   D(14,6,7,15)          -54.5354         estimate D2E/DX2                !
 ! D24   D(14,6,7,16)         -175.2732         estimate D2E/DX2                !
 ! D25   D(14,6,7,17)           66.1986         estimate D2E/DX2                !
 ! D26   D(5,6,8,18)           179.2743         estimate D2E/DX2                !
 ! D27   D(5,6,8,19)            58.9472         estimate D2E/DX2                !
 ! D28   D(5,6,8,20)           -60.7239         estimate D2E/DX2                !
 ! D29   D(7,6,8,18)           -57.9129         estimate D2E/DX2                !
 ! D30   D(7,6,8,19)          -178.24           estimate D2E/DX2                !
 ! D31   D(7,6,8,20)            62.0889         estimate D2E/DX2                !
 ! D32   D(14,6,8,18)           59.5785         estimate D2E/DX2                !
 ! D33   D(14,6,8,19)          -60.7486         estimate D2E/DX2                !
 ! D34   D(14,6,8,20)          179.5802         estimate D2E/DX2                !
 ! D35   D(2,9,10,11)         -106.1953         estimate D2E/DX2                !
 ! D36   D(2,9,10,21)           14.5606         estimate D2E/DX2                !
 ! D37   D(2,9,10,22)          132.8032         estimate D2E/DX2                !
 ! D38   D(9,10,11,23)          61.233          estimate D2E/DX2                !
 ! D39   D(9,10,11,24)         -58.0495         estimate D2E/DX2                !
 ! D40   D(9,10,11,25)        -178.6736         estimate D2E/DX2                !
 ! D41   D(21,10,11,23)        -58.7191         estimate D2E/DX2                !
 ! D42   D(21,10,11,24)       -178.0016         estimate D2E/DX2                !
 ! D43   D(21,10,11,25)         61.3743         estimate D2E/DX2                !
 ! D44   D(22,10,11,23)       -178.8697         estimate D2E/DX2                !
 ! D45   D(22,10,11,24)         61.8479         estimate D2E/DX2                !
 ! D46   D(22,10,11,25)        -58.7762         estimate D2E/DX2                !
 --------------------------------------------------------------------------------
 Trust Radius=3.00D-01 FncErr=1.00D-07 GrdErr=1.00D-06 EigMax=2.50D+02 EigMin=1.00D-04
 Number of steps in this run=    121 maximum allowed number of steps=    150.
 GradGradGradGradGradGradGradGradGradGradGradGradGradGradGradGradGradGrad

                          Input orientation:                          
 ---------------------------------------------------------------------
 Center     Atomic      Atomic             Coordinates (Angstroms)
 Number     Number       Type             X           Y           Z
 ---------------------------------------------------------------------
      1          8           0        1.595810    0.017500   -1.461560
      2          6           0        1.395210    0.223540   -0.263960
      3          6           0        0.227290    0.339780    0.469490
      4          7           0       -0.984920    0.240870   -0.094110
      5          6           0       -2.071870    0.343620    0.571770
      6          6           0       -3.404670    0.227510   -0.124580
      7          6           0       -3.462860   -1.066000   -0.941940
      8          6           0       -4.555540    0.287230    0.877760
      9          8           0        2.532500    0.396960    0.606070
     10          6           0        3.782170    0.234980    0.001340
     11          6           0        4.441290   -1.086360    0.401770
     12          1           0        0.328680    0.523380    1.546860
     13          1           0       -2.097230    0.526240    1.660620
     14          1           0       -3.515940    1.066550   -0.828790
     15          1           0       -4.368930   -1.112900   -1.548900
     16          1           0       -3.440740   -1.930190   -0.279520
     17          1           0       -2.590250   -1.106410   -1.586810
     18          1           0       -5.518200    0.215840    0.369750
     19          1           0       -4.529510    1.222030    1.435970
     20          1           0       -4.479670   -0.536150    1.587040
     21          1           0        3.641620    0.260890   -1.090150
     22          1           0        4.419310    1.078530    0.306980
     23          1           0        3.814910   -1.914040    0.078310
     24          1           0        4.552930   -1.137610    1.483480
     25          1           0        5.421760   -1.175340   -0.064470
 ---------------------------------------------------------------------
                    Distance matrix (angstroms):
                    1          2          3          4          5
     1  O    0.000000
     2  C    1.231641   0.000000
     3  C    2.388653   1.384015   0.000000
     4  N    2.929160   2.386246   1.340478   0.000000
     5  C    4.206265   3.568404   2.301437   1.278833   0.000000
     6  C    5.180388   4.801905   3.681937   2.419979   1.508224
     7  C    5.199435   5.071826   4.193514   2.926929   2.492629
     8  C    6.586674   6.059621   4.800511   3.700812   2.503083
     9  O    2.301406   1.442378   2.309960   3.589827   4.604807
    10  C    2.639611   2.401685   3.587105   4.768049   5.882770
    11  C    3.575928   3.381958   4.449299   5.608136   6.670457
    12  H    3.303350   2.122842   1.097595   2.120882   2.597259
    13  H    4.862650   3.999096   2.618578   2.097081   1.104349
    14  H    5.256509   5.014887   4.028088   2.761805   2.137647
    15  H    6.071537   6.054953   5.225841   3.924364   3.448938
    16  H    5.527888   5.293884   4.378153   3.283128   2.787241
    17  H    4.336123   4.404837   3.776025   2.573014   2.651560
    18  H    7.348617   6.942398   5.747692   4.557019   3.454610
    19  H    6.882305   6.244121   4.933517   3.983458   2.749262
    20  H    6.819967   6.206250   4.916467   3.955162   2.757221
    21  H    2.093448   2.393813   3.754511   4.732586   5.950865
    22  H    3.496523   3.194082   4.259717   5.483452   6.538014
    23  H    3.320610   3.246744   4.254849   5.264194   6.324137
    24  H    4.330369   3.857133   4.682096   5.920877   6.849324
    25  H    4.244128   4.267290   5.437207   6.561408   7.672453
                    6          7          8          9         10
     6  C    0.000000
     7  C    1.531219   0.000000
     8  C    1.527335   2.517238   0.000000
     9  O    5.984359   6.362462   7.094094   0.000000
    10  C    7.187947   7.421104   8.383809   1.397716   0.000000
    11  C    7.972602   8.017578   9.113521   2.425996   1.529942
    12  H    4.101116   4.805833   4.935491   2.399560   3.794522
    13  H    2.232841   3.342677   2.591001   4.750073   6.115994
    14  H    1.101036   2.136209   2.144859   6.252264   7.392093
    15  H    2.180638   1.091587   2.807822   7.386021   8.405977
    16  H    2.163557   1.089089   2.738435   6.471437   7.545679
    17  H    2.140266   1.085789   3.446549   5.771604   6.702931
    18  H    2.170601   2.754645   1.090818   8.056204   9.307684
    19  H    2.165560   3.468037   1.089095   7.158314   8.492141
    20  H    2.160658   2.776758   1.089398   7.141675   8.447904
    21  H    7.112218   7.228848   8.430112   2.031213   1.100807
    22  H    7.881950   8.263620   9.027728   2.028311   1.100427
    23  H    7.533242   7.397704   8.691901   2.695149   2.150647
    24  H    8.232424   8.375003   9.239117   2.684565   2.162132
    25  H    8.937420   8.928515  10.127854   3.357019   2.163698
                   11         12         13         14         15
    11  C    0.000000
    12  H    4.562462   0.000000
    13  H    6.851089   2.428578   0.000000
    14  H    8.334675   4.551906   2.915791   0.000000
    15  H    9.023624   5.859068   4.260096   2.448704   0.000000
    16  H    7.956293   4.854297   3.406349   3.047590   1.772237
    17  H    7.307353   4.582167   3.668026   2.480575   1.779096
    18  H   10.044311   5.972116   3.669568   2.483798   2.601459
    19  H    9.320595   4.909421   2.539799   2.486089   3.793037
    20  H    9.016159   4.923865   2.609618   3.055103   3.190458
    21  H    2.163419   4.242440   6.369580   7.207500   8.140434
    22  H    2.167076   4.310307   6.678522   8.016128   9.245530
    23  H    1.087213   4.500162   6.588784   7.965432   8.382415
    24  H    1.088663   4.539515   6.857434   8.678224   9.423138
    25  H    1.089320   5.605488   7.899780   9.246228   9.902780
                   16         17         18         19         20
    16  H    0.000000
    17  H    1.763790   0.000000
    18  H    3.056605   3.761564   0.000000
    19  H    3.750309   4.280136   1.768262   0.000000
    20  H    2.550837   3.737436   1.768001   1.765362   0.000000
    21  H    7.457733   6.399405   9.275540   8.606535   8.588246
    22  H    8.436632   7.582502   9.975083   9.020897   9.134418
    23  H    7.264486   6.667156   9.577488   9.017068   8.542535
    24  H    8.224057   7.775132  10.222518   9.384076   9.053195
    25  H    8.897188   8.155647  11.036605  10.345360  10.058547
                   21         22         23         24         25
    21  H    0.000000
    22  H    1.795915   0.000000
    23  H    2.475005   3.061546   0.000000
    24  H    3.067549   2.512625   1.766924   0.000000
    25  H    2.506726   2.494556   1.774269   1.775511   0.000000
 Stoichiometry    C8H14NO2(1-)
 Framework group  C1[X(C8H14NO2)]
 Deg. of freedom    69
 Full point group                 C1      NOp   1
 Largest Abelian subgroup         C1      NOp   1
 Largest concise Abelian subgroup C1      NOp   1
                         Standard orientation:                         
 ---------------------------------------------------------------------
 Center     Atomic      Atomic             Coordinates (Angstroms)
 Number     Number       Type             X           Y           Z
 ---------------------------------------------------------------------
      1          8           0       -1.653777    1.281332   -0.719257
      2          6           0       -1.439876    0.119670   -0.370361
      3          6           0       -0.264320   -0.570199   -0.130266
      4          7           0        0.941228   -0.001184   -0.270831
      5          6           0        2.035041   -0.625830   -0.049915
      6          6           0        3.359791    0.071803   -0.231816
      7          6           0        3.383150    1.378009    0.566877
      8          6           0        4.519009   -0.834426    0.177716
      9          8           0       -2.566622   -0.755834   -0.159665
     10          6           0       -3.823983   -0.162479   -0.303132
     11          6           0       -4.509446    0.052373    1.047683
     12          1           0       -0.353706   -1.619092    0.180455
     13          1           0        2.072432   -1.682500    0.268891
     14          1           0        3.484581    0.333746   -1.293934
     15          1           0        4.283484    1.957856    0.355361
     16          1           0        3.346619    1.166128    1.634531
     17          1           0        2.505161    1.959752    0.302967
     18          1           0        5.476096   -0.331531    0.032913
     19          1           0        4.517909   -1.749013   -0.413602
     20          1           0        4.429996   -1.107263    1.228632
     21          1           0       -3.690881    0.807006   -0.807272
     22          1           0       -4.439907   -0.820270   -0.934708
     23          1           0       -3.904056    0.718942    1.656962
     24          1           0       -4.614283   -0.896655    1.570694
     25          1           0       -5.495041    0.493676    0.904599
 ---------------------------------------------------------------------
 Rotational constants (GHZ):           3.5494090           0.3502980           0.3378245
 Standard basis: def2SVP (5D, 7F)
 There are   235 symmetry adapted cartesian basis functions of A   symmetry.
 There are   224 symmetry adapted basis functions of A   symmetry.
   224 basis functions,   373 primitive gaussians,   235 cartesian basis functions
    43 alpha electrons       43 beta electrons
       nuclear repulsion energy       591.9155372488 Hartrees.
 NAtoms=   25 NActive=   25 NUniq=   25 SFac= 1.00D+00 NAtFMM=   60 NAOKFM=F Big=F
 Integral buffers will be    131072 words long.
 Raffenetti 2 integral format.
 Two-electron integral symmetry is turned on.
 Nuclear repulsion after empirical dispersion term =      591.9147557964 Hartrees.
 One-electron integrals computed using PRISM.
   1 Symmetry operations used in ECPInt.
 ECPInt:  NShTT=    5886 NPrTT=   20688 LenC2=    5302 LenP2D=   13912.
 LDataN:  DoStor=T MaxTD1= 4 Len=   56
 NBasis=   224 RedAO= T EigKep=  1.15D-03  NBF=   224
 NBsUse=   224 1.00D-06 EigRej= -1.00D+00 NBFU=   224
 ExpMin= 1.22D-01 ExpMax= 2.27D+03 ExpMxC= 3.41D+02 IAcc=3 IRadAn=         5 AccDes= 0.00D+00
 Harris functional with IExCor= 1009 and IRadAn=       5 diagonalized for initial guess.
 HarFok:  IExCor= 1009 AccDes= 0.00D+00 IRadAn=         5 IDoV= 1 UseB2=F ITyADJ=14
 ICtDFT=  3500011 ScaDFX=  1.000000  1.000000  1.000000  1.000000
 FoFCou: FMM=F IPFlag=           0 FMFlag=      100000 FMFlg1=           0
         NFxFlg=           0 DoJE=T BraDBF=F KetDBF=T FulRan=T
         wScrn=  0.000000 ICntrl=       500 IOpCl=  0 I1Cent=   200000004 NGrid=           0
         NMat0=    1 NMatS0=      1 NMatT0=    0 NMatD0=    1 NMtDS0=    0 NMtDT0=    0
 Petite list used in FoFCou.
 Requested convergence on RMS density matrix=1.00D-08 within 128 cycles.
 Requested convergence on MAX density matrix=1.00D-06.
 Requested convergence on             energy=1.00D-06.
 No special actions if energy rises.
 Integral accuracy reduced to 1.0D-05 until final iterations.
 Initial convergence to 1.0D-05 achieved.  Increase integral accuracy.
 SCF Done:  E(RM062X) =  -517.864500440     A.U. after   15 cycles
            NFock= 15  Conv=0.47D-08     -V/T= 2.0096

 **********************************************************************

            Population analysis using the SCF Density.

 **********************************************************************

 Orbital symmetries:
       Occupied  (A) (A) (A) (A) (A) (A) (A) (A) (A) (A) (A) (A)
                 (A) (A) (A) (A) (A) (A) (A) (A) (A) (A) (A) (A)
                 (A) (A) (A) (A) (A) (A) (A) (A) (A) (A) (A) (A)
                 (A) (A) (A) (A) (A) (A) (A)
       Virtual   (A) (A) (A) (A) (A) (A) (A) (A) (A) (A) (A) (A)
                 (A) (A) (A) (A) (A) (A) (A) (A) (A) (A) (A) (A)
                 (A) (A) (A) (A) (A) (A) (A) (A) (A) (A) (A) (A)
                 (A) (A) (A) (A) (A) (A) (A) (A) (A) (A) (A) (A)
                 (A) (A) (A) (A) (A) (A) (A) (A) (A) (A) (A) (A)
                 (A) (A) (A) (A) (A) (A) (A) (A) (A) (A) (A) (A)
                 (A) (A) (A) (A) (A) (A) (A) (A) (A) (A) (A) (A)
                 (A) (A) (A) (A) (A) (A) (A) (A) (A) (A) (A) (A)
                 (A) (A) (A) (A) (A) (A) (A) (A) (A) (A) (A) (A)
                 (A) (A) (A) (A) (A) (A) (A) (A) (A) (A) (A) (A)
                 (A) (A) (A) (A) (A) (A) (A) (A) (A) (A) (A) (A)
                 (A) (A) (A) (A) (A) (A) (A) (A) (A) (A) (A) (A)
                 (A) (A) (A) (A) (A) (A) (A) (A) (A) (A) (A) (A)
                 (A) (A) (A) (A) (A) (A) (A) (A) (A) (A) (A) (A)
                 (A) (A) (A) (A) (A) (A) (A) (A) (A) (A) (A) (A)
                 (A)
 The electronic state is 1-A.
 Alpha  occ. eigenvalues --  -19.47080 -19.40346 -14.57724 -10.46675 -10.44908
 Alpha  occ. eigenvalues --  -10.42323 -10.41786 -10.41282 -10.40600 -10.39047
 Alpha  occ. eigenvalues --  -10.35195  -0.99886  -0.90689  -0.84132  -0.75067
 Alpha  occ. eigenvalues --   -0.70673  -0.64335  -0.63068  -0.57332  -0.52783
 Alpha  occ. eigenvalues --   -0.47411  -0.44491  -0.41317  -0.39712  -0.38790
 Alpha  occ. eigenvalues --   -0.37568  -0.36250  -0.34412  -0.33914  -0.32899
 Alpha  occ. eigenvalues --   -0.32528  -0.31099  -0.29669  -0.29029  -0.27480
 Alpha  occ. eigenvalues --   -0.26272  -0.25443  -0.22941  -0.22280  -0.17828
 Alpha  occ. eigenvalues --   -0.15213  -0.13490  -0.03729
 Alpha virt. eigenvalues --    0.20043   0.22116   0.22930   0.25993   0.26784
 Alpha virt. eigenvalues --    0.27495   0.28076   0.28502   0.28787   0.30142
 Alpha virt. eigenvalues --    0.30699   0.32397   0.33231   0.33283   0.34105
 Alpha virt. eigenvalues --    0.34214   0.36615   0.39157   0.39927   0.42263
 Alpha virt. eigenvalues --    0.43927   0.45000   0.47102   0.51412   0.56501
 Alpha virt. eigenvalues --    0.58046   0.59103   0.59600   0.60380   0.61790
 Alpha virt. eigenvalues --    0.63070   0.64575   0.67131   0.68214   0.70438
 Alpha virt. eigenvalues --    0.71324   0.73929   0.76424   0.76661   0.78967
 Alpha virt. eigenvalues --    0.79205   0.79885   0.80988   0.82116   0.83243
 Alpha virt. eigenvalues --    0.83411   0.83756   0.84207   0.84970   0.85589
 Alpha virt. eigenvalues --    0.86013   0.86703   0.86893   0.87215   0.87578
 Alpha virt. eigenvalues --    0.88817   0.88841   0.89448   0.90398   0.90603
 Alpha virt. eigenvalues --    0.91847   0.92714   0.95147   0.97104   1.01785
 Alpha virt. eigenvalues --    1.04567   1.05609   1.07971   1.09183   1.09478
 Alpha virt. eigenvalues --    1.17078   1.20098   1.21244   1.24213   1.26159
 Alpha virt. eigenvalues --    1.31960   1.33252   1.34202   1.35896   1.40265
 Alpha virt. eigenvalues --    1.41833   1.44890   1.46266   1.49293   1.50868
 Alpha virt. eigenvalues --    1.56217   1.57168   1.59752   1.61491   1.63352
 Alpha virt. eigenvalues --    1.66715   1.69965   1.70473   1.70772   1.73592
 Alpha virt. eigenvalues --    1.74508   1.76277   1.78149   1.79282   1.87144
 Alpha virt. eigenvalues --    1.88617   1.90458   1.91616   1.92139   1.95025
 Alpha virt. eigenvalues --    1.95282   1.96295   1.97453   1.98198   1.98307
 Alpha virt. eigenvalues --    1.99156   1.99534   2.00485   2.01977   2.02675
 Alpha virt. eigenvalues --    2.04598   2.06096   2.06477   2.07379   2.09593
 Alpha virt. eigenvalues --    2.09797   2.12643   2.13246   2.14192   2.16310
 Alpha virt. eigenvalues --    2.17197   2.19964   2.21712   2.24201   2.28200
 Alpha virt. eigenvalues --    2.29200   2.30649   2.31990   2.36416   2.40523
 Alpha virt. eigenvalues --    2.42721   2.43415   2.47117   2.49615   2.52672
 Alpha virt. eigenvalues --    2.54227   2.54995   2.56930   2.60041   2.65692
 Alpha virt. eigenvalues --    2.67242   2.70124   2.70946   2.72056   2.78056
 Alpha virt. eigenvalues --    2.78898   2.84333   2.85080   2.86652   2.89916
 Alpha virt. eigenvalues --    2.93671   2.94127   2.95723   2.97643   2.99967
 Alpha virt. eigenvalues --    3.02461   3.02761   3.05199   3.05766   3.07185
 Alpha virt. eigenvalues --    3.09764   3.10412   3.12344   3.15723   3.16293
 Alpha virt. eigenvalues --    3.19265   3.22769   3.25035   3.29498   3.37843
 Alpha virt. eigenvalues --    3.44134   3.56727   3.58619   3.67906   3.82610
 Alpha virt. eigenvalues --    3.95238
          Condensed to atoms (all electrons):
               1          2          3          4          5          6
     1  O    7.858316   0.690284  -0.107189   0.001090   0.000338   0.000016
     2  C    0.690284   4.618969   0.301160  -0.065644   0.015134  -0.000296
     3  C   -0.107189   0.301160   5.396860   0.440343  -0.116008   0.016019
     4  N    0.001090  -0.065644   0.440343   6.286351   0.598014  -0.103002
     5  C    0.000338   0.015134  -0.116008   0.598014   5.116033   0.233154
     6  C    0.000016  -0.000296   0.016019  -0.103002   0.233154   5.157765
     7  C   -0.000028   0.000064   0.000922  -0.015745  -0.074699   0.419330
     8  C   -0.000000  -0.000018  -0.000585   0.006952  -0.041379   0.340885
     9  O   -0.090140   0.272411  -0.115015   0.002019  -0.000104   0.000000
    10  C   -0.022659  -0.036346   0.005200  -0.000184   0.000014  -0.000000
    11  C   -0.004314  -0.003061   0.000212   0.000007  -0.000002   0.000000
    12  H    0.004083  -0.061651   0.374129  -0.046958  -0.016603  -0.001580
    13  H   -0.000018  -0.001236  -0.015466  -0.040403   0.417981  -0.149962
    14  H   -0.000006   0.000043   0.000370  -0.001558  -0.017314   0.332691
    15  H    0.000000  -0.000003  -0.000014   0.000557   0.011411  -0.026675
    16  H    0.000002  -0.000024  -0.000594   0.000057   0.006621  -0.034992
    17  H    0.000159  -0.000329  -0.000811   0.029541  -0.011266  -0.029374
    18  H    0.000000  -0.000000   0.000013  -0.000236   0.007844  -0.019065
    19  H    0.000000  -0.000001  -0.000051   0.000313  -0.004480  -0.019710
    20  H    0.000000   0.000000  -0.000077   0.000177  -0.002577  -0.024218
    21  H    0.052499  -0.016499   0.005580  -0.000018   0.000002  -0.000000
    22  H    0.000437   0.005897   0.000081   0.000006  -0.000001  -0.000000
    23  H    0.002961   0.003431  -0.000669  -0.000000   0.000001  -0.000000
    24  H    0.000085  -0.000586  -0.000155   0.000000   0.000000  -0.000000
    25  H   -0.000014  -0.000040   0.000002  -0.000000   0.000000  -0.000000
               7          8          9         10         11         12
     1  O   -0.000028  -0.000000  -0.090140  -0.022659  -0.004314   0.004083
     2  C    0.000064  -0.000018   0.272411  -0.036346  -0.003061  -0.061651
     3  C    0.000922  -0.000585  -0.115015   0.005200   0.000212   0.374129
     4  N   -0.015745   0.006952   0.002019  -0.000184   0.000007  -0.046958
     5  C   -0.074699  -0.041379  -0.000104   0.000014  -0.000002  -0.016603
     6  C    0.419330   0.340885   0.000000  -0.000000   0.000000  -0.001580
     7  C    4.658293  -0.051026  -0.000000  -0.000000   0.000000  -0.000124
     8  C   -0.051026   4.667502  -0.000000   0.000000   0.000000   0.000204
     9  O   -0.000000  -0.000000   8.191744   0.298820  -0.060621   0.011827
    10  C   -0.000000   0.000000   0.298820   4.505747   0.394983  -0.000089
    11  C    0.000000   0.000000  -0.060621   0.394983   4.745831  -0.000047
    12  H   -0.000124   0.000204   0.011827  -0.000089  -0.000047   0.784269
    13  H    0.006226   0.011049  -0.000010   0.000003  -0.000000   0.017760
    14  H   -0.043088  -0.032691  -0.000000   0.000000  -0.000000   0.000114
    15  H    0.357120  -0.007027   0.000000   0.000000  -0.000000   0.000003
    16  H    0.376721  -0.010157   0.000000   0.000000  -0.000000   0.000017
    17  H    0.383629   0.010905   0.000002   0.000000   0.000000   0.000349
    18  H   -0.006587   0.375527   0.000000   0.000000  -0.000000   0.000000
    19  H    0.010721   0.382120   0.000000  -0.000000   0.000000   0.000000
    20  H   -0.012311   0.380958   0.000000   0.000000  -0.000000  -0.000005
    21  H    0.000000   0.000000  -0.039312   0.369809  -0.031892  -0.000140
    22  H   -0.000000  -0.000000  -0.035296   0.380244  -0.059139  -0.000173
    23  H   -0.000000  -0.000000  -0.000858  -0.008019   0.372047  -0.000080
    24  H   -0.000000  -0.000000   0.003592  -0.018201   0.373525   0.000125
    25  H   -0.000000  -0.000000   0.005221  -0.013441   0.344999   0.000002
              13         14         15         16         17         18
     1  O   -0.000018  -0.000006   0.000000   0.000002   0.000159   0.000000
     2  C   -0.001236   0.000043  -0.000003  -0.000024  -0.000329  -0.000000
     3  C   -0.015466   0.000370  -0.000014  -0.000594  -0.000811   0.000013
     4  N   -0.040403  -0.001558   0.000557   0.000057   0.029541  -0.000236
     5  C    0.417981  -0.017314   0.011411   0.006621  -0.011266   0.007844
     6  C   -0.149962   0.332691  -0.026675  -0.034992  -0.029374  -0.019065
     7  C    0.006226  -0.043088   0.357120   0.376721   0.383629  -0.006587
     8  C    0.011049  -0.032691  -0.007027  -0.010157   0.010905   0.375527
     9  O   -0.000010  -0.000000   0.000000   0.000000   0.000002   0.000000
    10  C    0.000003   0.000000   0.000000   0.000000   0.000000   0.000000
    11  C   -0.000000  -0.000000  -0.000000  -0.000000   0.000000  -0.000000
    12  H    0.017760   0.000114   0.000003   0.000017   0.000349   0.000000
    13  H    0.796132   0.008729  -0.000528   0.001752   0.002163   0.000068
    14  H    0.008729   0.747601  -0.005240   0.011075  -0.003319  -0.006356
    15  H   -0.000528  -0.005240   0.738252  -0.029556  -0.025463   0.005397
    16  H    0.001752   0.011075  -0.029556   0.691587  -0.017947  -0.000874
    17  H    0.002163  -0.003319  -0.025463  -0.017947   0.607528  -0.000141
    18  H    0.000068  -0.006356   0.005397  -0.000874  -0.000141   0.699699
    19  H    0.002994  -0.009509  -0.000374  -0.000168  -0.000449  -0.027519
    20  H    0.002263   0.010867  -0.000252   0.009026  -0.000077  -0.027286
    21  H   -0.000001  -0.000000  -0.000000  -0.000000  -0.000001  -0.000000
    22  H    0.000000   0.000000   0.000000   0.000000  -0.000000   0.000000
    23  H    0.000000   0.000000   0.000000   0.000000  -0.000000   0.000000
    24  H   -0.000000   0.000000   0.000000   0.000000  -0.000000   0.000000
    25  H    0.000000   0.000000   0.000000   0.000000  -0.000000   0.000000
              19         20         21         22         23         24
     1  O    0.000000   0.000000   0.052499   0.000437   0.002961   0.000085
     2  C   -0.000001   0.000000  -0.016499   0.005897   0.003431  -0.000586
     3  C   -0.000051  -0.000077   0.005580   0.000081  -0.000669  -0.000155
     4  N    0.000313   0.000177  -0.000018   0.000006  -0.000000   0.000000
     5  C   -0.004480  -0.002577   0.000002  -0.000001   0.000001   0.000000
     6  C   -0.019710  -0.024218  -0.000000  -0.000000  -0.000000  -0.000000
     7  C    0.010721  -0.012311   0.000000  -0.000000  -0.000000  -0.000000
     8  C    0.382120   0.380958   0.000000  -0.000000  -0.000000  -0.000000
     9  O    0.000000   0.000000  -0.039312  -0.035296  -0.000858   0.003592
    10  C   -0.000000   0.000000   0.369809   0.380244  -0.008019  -0.018201
    11  C    0.000000  -0.000000  -0.031892  -0.059139   0.372047   0.373525
    12  H    0.000000  -0.000005  -0.000140  -0.000173  -0.000080   0.000125
    13  H    0.002994   0.002263  -0.000001   0.000000   0.000000  -0.000000
    14  H   -0.009509   0.010867  -0.000000   0.000000   0.000000   0.000000
    15  H   -0.000374  -0.000252  -0.000000   0.000000   0.000000   0.000000
    16  H   -0.000168   0.009026  -0.000000   0.000000   0.000000   0.000000
    17  H   -0.000449  -0.000077  -0.000001  -0.000000  -0.000000  -0.000000
    18  H   -0.027519  -0.027286  -0.000000   0.000000   0.000000   0.000000
    19  H    0.678656  -0.028674   0.000000  -0.000000  -0.000000  -0.000000
    20  H   -0.028674   0.681379  -0.000000   0.000000   0.000000   0.000000
    21  H    0.000000  -0.000000   0.662055  -0.034508  -0.009804   0.008655
    22  H   -0.000000   0.000000  -0.034508   0.758026   0.009755  -0.011326
    23  H   -0.000000   0.000000  -0.009804   0.009755   0.643738  -0.027524
    24  H   -0.000000   0.000000   0.008655  -0.011326  -0.027524   0.678818
    25  H   -0.000000   0.000000  -0.000866   0.001141  -0.019638  -0.023877
              25
     1  O   -0.000014
     2  C   -0.000040
     3  C    0.000002
     4  N   -0.000000
     5  C    0.000000
     6  C   -0.000000
     7  C   -0.000000
     8  C   -0.000000
     9  O    0.005221
    10  C   -0.013441
    11  C    0.344999
    12  H    0.000002
    13  H    0.000000
    14  H    0.000000
    15  H    0.000000
    16  H    0.000000
    17  H   -0.000000
    18  H    0.000000
    19  H   -0.000000
    20  H    0.000000
    21  H   -0.000866
    22  H    0.001141
    23  H   -0.019638
    24  H   -0.023877
    25  H    0.709263
 Mulliken charges:
               1
     1  O   -0.385902
     2  C    0.278338
     3  C   -0.184258
     4  N   -0.091680
     5  C   -0.122115
     6  C   -0.090986
     7  C   -0.009416
     8  C   -0.033220
     9  O   -0.444281
    10  C    0.144118
    11  C   -0.072530
    12  H   -0.065432
    13  H   -0.059494
    14  H    0.007591
    15  H   -0.017607
    16  H   -0.002547
    17  H    0.054901
    18  H   -0.000484
    19  H    0.016132
    20  H    0.010806
    21  H    0.034439
    22  H   -0.015143
    23  H    0.034658
    24  H    0.016868
    25  H   -0.002753
 Sum of Mulliken charges =  -1.00000
 Mulliken charges with hydrogens summed into heavy atoms:
               1
     1  O   -0.385902
     2  C    0.278338
     3  C   -0.249690
     4  N   -0.091680
     5  C   -0.181609
     6  C   -0.083395
     7  C    0.025330
     8  C   -0.006766
     9  O   -0.444281
    10  C    0.163413
    11  C   -0.023757
 Electronic spatial extent (au):  <R**2>=           3392.9378
 Charge=             -1.0000 electrons
 Dipole moment (field-independent basis, Debye):
    X=              1.1512    Y=             -1.2920    Z=              1.3915  Tot=              2.2205
 Quadrupole moment (field-independent basis, Debye-Ang):
   XX=            -94.4994   YY=            -78.7469   ZZ=            -73.8664
   XY=              1.0745   XZ=             -1.5565   YZ=              1.7647
 Traceless Quadrupole moment (field-independent basis, Debye-Ang):
   XX=            -12.1285   YY=              3.6240   ZZ=              8.5045
   XY=              1.0745   XZ=             -1.5565   YZ=              1.7647
 Octapole moment (field-independent basis, Debye-Ang**2):
  XXX=            -40.4014  YYY=             -2.3582  ZZZ=             -3.5729  XYY=             -2.3556
  XXY=              3.2457  XXZ=             -9.8698  XZZ=             -3.8262  YZZ=             -0.2309
  YYZ=              2.0527  XYZ=             -4.3731
 Hexadecapole moment (field-independent basis, Debye-Ang**3):
 XXXX=          -4550.7651 YYYY=           -380.3484 ZZZZ=           -219.6433 XXXY=             11.5455
 XXXZ=             18.5656 YYYX=              3.2896 YYYZ=             -1.2956 ZZZX=              9.5977
 ZZZY=             -2.4576 XXYY=           -799.8894 XXZZ=           -757.0175 YYZZ=           -101.2735
 XXYZ=             -0.9092 YYXZ=            -10.2785 ZZXY=              1.9338
 N-N= 5.919147557964D+02 E-N=-2.403334333772D+03  KE= 5.129603844565D+02
   1 Symmetry operations used in ECPInt.
 ECPInt:  NShTT=    5886 NPrTT=   20688 LenC2=    5302 LenP2D=   13912.
 LDataN:  DoStor=T MaxTD1= 5 Len=  102
 Calling FoFJK, ICntrl=      2127 FMM=F ISym2X=0 I1Cent= 0 IOpClX= 0 NMat=1 NMatS=1 NMatT=0.
 ***** Axes restored to original set *****
 -------------------------------------------------------------------
 Center     Atomic                   Forces (Hartrees/Bohr)
 Number     Number              X              Y              Z
 -------------------------------------------------------------------
      1        8          -0.001972894    0.000941309    0.011405528
      2        6           0.024929125   -0.001863446   -0.016034079
      3        6          -0.003654582    0.002920458    0.015928461
      4        7          -0.003650082   -0.001734882   -0.004146129
      5        6          -0.006464001    0.001111070   -0.002386941
      6        6          -0.002994620   -0.007501560    0.002352147
      7        6          -0.001742784    0.009551517    0.001606687
      8        6           0.005775812    0.002069864   -0.008713469
      9        8          -0.006006438   -0.003275140   -0.007213464
     10        6          -0.003221432   -0.003303547   -0.001290510
     11        6          -0.006272275    0.011930794   -0.001933706
     12        1           0.000157964    0.000327343    0.001909087
     13        1           0.002765542    0.001218549    0.004149951
     14        1          -0.001180144    0.003224852   -0.002572761
     15        1          -0.006769912   -0.001151838   -0.004923013
     16        1           0.000588109   -0.006755644    0.005303427
     17        1           0.006884797   -0.001110915   -0.004875455
     18        1          -0.006953854   -0.000562010   -0.002332242
     19        1          -0.000354825    0.006498471    0.005206466
     20        1           0.000703511   -0.006226947    0.005901248
     21        1           0.002612252    0.001095797    0.000073797
     22        1           0.002605568    0.002191758    0.000442091
     23        1          -0.004299268   -0.006423713   -0.002671971
     24        1           0.001030506   -0.001331433    0.007691069
     25        1           0.007483926   -0.001840707   -0.002876217
 -------------------------------------------------------------------
 Cartesian Forces:  Max     0.024929125 RMS     0.005937032

 GradGradGradGradGradGradGradGradGradGradGradGradGradGradGradGradGradGrad
 Berny optimization.
 FormGI is forming the generalized inverse of G from B-inverse, IUseBI=4.
 Internal  Forces:  Max     0.020983283 RMS     0.004090130
 Search for a local minimum.
 Step number   1 out of a maximum of  121
 All quantities printed in internal units (Hartrees-Bohrs-Radians)
 Mixed Optimization -- RFO/linear search
 Second derivative matrix not updated -- first step.
 ITU=  0
     Eigenvalues ---    0.00353   0.00370   0.00404   0.00657   0.01131
     Eigenvalues ---    0.01383   0.01722   0.01991   0.02300   0.02363
     Eigenvalues ---    0.02479   0.03295   0.04027   0.04862   0.05012
     Eigenvalues ---    0.05543   0.05590   0.05663   0.05666   0.05710
     Eigenvalues ---    0.05780   0.05811   0.05833   0.11698   0.13938
     Eigenvalues ---    0.16000   0.16000   0.16000   0.16000   0.16000
     Eigenvalues ---    0.16000   0.16000   0.16000   0.16000   0.16000
     Eigenvalues ---    0.16000   0.16667   0.18005   0.22000   0.22000
     Eigenvalues ---    0.22105   0.25000   0.25000   0.25000   0.25000
     Eigenvalues ---    0.29311   0.29429   0.29671   0.31530   0.33206
     Eigenvalues ---    0.33568   0.33593   0.33635   0.33949   0.34630
     Eigenvalues ---    0.34718   0.34882   0.34891   0.34917   0.34918
     Eigenvalues ---    0.34968   0.35137   0.35304   0.39261   0.46001
     Eigenvalues ---    0.48376   0.57098   0.73432   0.90406
 RFO step:  Lambda=-5.27721792D-03 EMin= 3.52980266D-03
 Linear search not attempted -- first point.
 Iteration  1 RMS(Cart)=  0.04874409 RMS(Int)=  0.00105650
 Iteration  2 RMS(Cart)=  0.00187604 RMS(Int)=  0.00004531
 Iteration  3 RMS(Cart)=  0.00000262 RMS(Int)=  0.00004529
 Iteration  4 RMS(Cart)=  0.00000000 RMS(Int)=  0.00004529
 Variable       Old X    -DE/DX   Delta X   Delta X   Delta X     New X
                                 (Linear)    (Quad)   (Total)
    R1        2.32746  -0.01157   0.00000  -0.01272  -0.01272   2.31474
    R2        2.61541   0.02098   0.00000   0.04291   0.04291   2.65832
    R3        2.72570  -0.00959   0.00000  -0.02410  -0.02410   2.70160
    R4        2.53314   0.01450   0.00000   0.02516   0.02516   2.55829
    R5        2.07415   0.00194   0.00000   0.00564   0.00564   2.07979
    R6        2.41664   0.00764   0.00000   0.01033   0.01033   2.42697
    R7        2.85013   0.00690   0.00000   0.02153   0.02153   2.87166
    R8        2.08692   0.00423   0.00000   0.01254   0.01254   2.09946
    R9        2.89358   0.00113   0.00000   0.00378   0.00378   2.89737
   R10        2.88625   0.00073   0.00000   0.00243   0.00243   2.88868
   R11        2.08066   0.00422   0.00000   0.01239   0.01239   2.09304
   R12        2.06280   0.00841   0.00000   0.02391   0.02391   2.08671
   R13        2.05808   0.00860   0.00000   0.02425   0.02425   2.08233
   R14        2.05184   0.00847   0.00000   0.02364   0.02364   2.07548
   R15        2.06135   0.00726   0.00000   0.02060   0.02060   2.08195
   R16        2.05809   0.00824   0.00000   0.02324   0.02324   2.08133
   R17        2.05866   0.00860   0.00000   0.02428   0.02428   2.08294
   R18        2.64130  -0.00008   0.00000  -0.00017  -0.00017   2.64113
   R19        2.89117  -0.00284   0.00000  -0.00950  -0.00950   2.88168
   R20        2.08022  -0.00038   0.00000  -0.00112  -0.00112   2.07911
   R21        2.07951   0.00331   0.00000   0.00969   0.00969   2.08920
   R22        2.05454   0.00816   0.00000   0.02289   0.02289   2.07742
   R23        2.05727   0.00781   0.00000   0.02200   0.02200   2.07928
   R24        2.05852   0.00812   0.00000   0.02292   0.02292   2.08143
    A1        2.30069  -0.00036   0.00000  -0.00134  -0.00149   2.29919
    A2        2.06941  -0.00012   0.00000  -0.00039  -0.00055   2.06887
    A3        1.91306   0.00048   0.00000   0.00196   0.00181   1.91487
    A4        2.13425  -0.00320   0.00000  -0.01422  -0.01422   2.12003
    A5        2.04460   0.00162   0.00000   0.00725   0.00725   2.05185
    A6        2.10433   0.00158   0.00000   0.00698   0.00698   2.11131
    A7        2.14572   0.00647   0.00000   0.02536   0.02536   2.17108
    A8        2.09960   0.00362   0.00000   0.01607   0.01607   2.11567
    A9        2.14861  -0.00480   0.00000  -0.02611  -0.02611   2.12249
   A10        2.03494   0.00118   0.00000   0.01003   0.01002   2.04497
   A11        1.92311   0.00156   0.00000   0.01599   0.01595   1.93906
   A12        1.93892  -0.00137   0.00000  -0.00257  -0.00276   1.93616
   A13        1.90280   0.00008   0.00000  -0.00314  -0.00313   1.89967
   A14        1.93340   0.00086   0.00000   0.00903   0.00896   1.94236
   A15        1.87391  -0.00101   0.00000  -0.01023  -0.01018   1.86374
   A16        1.88998  -0.00015   0.00000  -0.01004  -0.01003   1.87995
   A17        1.94405   0.00130   0.00000   0.00962   0.00960   1.95365
   A18        1.92290  -0.00064   0.00000  -0.00544  -0.00543   1.91746
   A19        1.89434   0.00069   0.00000   0.00405   0.00402   1.89836
   A20        1.89754  -0.00029   0.00000  -0.00138  -0.00137   1.89618
   A21        1.91266  -0.00061   0.00000  -0.00055  -0.00060   1.91206
   A22        1.89166  -0.00051   0.00000  -0.00674  -0.00674   1.88492
   A23        1.93563   0.00158   0.00000   0.01155   0.01151   1.94714
   A24        1.93042   0.00130   0.00000   0.00801   0.00797   1.93838
   A25        1.92330  -0.00048   0.00000  -0.00506  -0.00504   1.91826
   A26        1.89227  -0.00101   0.00000  -0.00206  -0.00216   1.89011
   A27        1.89148  -0.00060   0.00000  -0.00389  -0.00388   1.88760
   A28        1.88953  -0.00089   0.00000  -0.00922  -0.00921   1.88032
   A29        2.01535   0.00588   0.00000   0.02302   0.02302   2.03837
   A30        1.95199  -0.00479   0.00000  -0.01946  -0.01946   1.93253
   A31        1.88821   0.00330   0.00000   0.02715   0.02717   1.91538
   A32        1.88458   0.00147   0.00000   0.00328   0.00316   1.88774
   A33        1.91224   0.00036   0.00000   0.00155   0.00163   1.91387
   A34        1.91762   0.00089   0.00000  -0.00215  -0.00220   1.91543
   A35        1.90845  -0.00116   0.00000  -0.00999  -0.01005   1.89841
   A36        1.90860  -0.00014   0.00000  -0.00193  -0.00192   1.90667
   A37        1.92292   0.00111   0.00000   0.00744   0.00740   1.93033
   A38        1.92441   0.00166   0.00000   0.01047   0.01044   1.93484
   A39        1.89532  -0.00058   0.00000  -0.00426  -0.00425   1.89107
   A40        1.90608  -0.00094   0.00000  -0.00710  -0.00709   1.89900
   A41        1.90618  -0.00117   0.00000  -0.00497  -0.00504   1.90114
    D1       -0.00912  -0.00029   0.00000  -0.01221  -0.01220  -0.02132
    D2        3.13712  -0.00039   0.00000  -0.01564  -0.01563   3.12148
    D3        3.12412   0.00056   0.00000   0.02168   0.02167  -3.13740
    D4       -0.01283   0.00046   0.00000   0.01825   0.01824   0.00541
    D5       -0.06184   0.00125   0.00000   0.06792   0.06793   0.00609
    D6        3.08684   0.00053   0.00000   0.03917   0.03916   3.12601
    D7        3.13915  -0.00004   0.00000  -0.00139  -0.00139   3.13776
    D8       -0.00724   0.00006   0.00000   0.00216   0.00216  -0.00509
    D9        3.13767  -0.00026   0.00000  -0.00759  -0.00757   3.13010
   D10        0.00511  -0.00023   0.00000  -0.00520  -0.00522  -0.00011
   D11        0.92516  -0.00084   0.00000  -0.03835  -0.03834   0.88682
   D12        3.07457   0.00040   0.00000  -0.01741  -0.01740   3.05717
   D13       -1.12718  -0.00057   0.00000  -0.03336  -0.03336  -1.16054
   D14       -2.22489  -0.00090   0.00000  -0.04077  -0.04077  -2.26566
   D15       -0.07548   0.00035   0.00000  -0.01983  -0.01983  -0.09531
   D16        2.00595  -0.00063   0.00000  -0.03578  -0.03579   1.97016
   D17       -3.02195  -0.00028   0.00000   0.00398   0.00403  -3.01792
   D18        1.15396  -0.00034   0.00000   0.00304   0.00311   1.15707
   D19       -0.91475   0.00022   0.00000   0.01194   0.01202  -0.90272
   D20        1.10860  -0.00022   0.00000  -0.01010  -0.01017   1.09843
   D21       -0.99867  -0.00028   0.00000  -0.01105  -0.01110  -1.00977
   D22       -3.06738   0.00029   0.00000  -0.00214  -0.00218  -3.06955
   D23       -0.95182   0.00009   0.00000   0.00308   0.00305  -0.94877
   D24       -3.05909   0.00003   0.00000   0.00213   0.00212  -3.05697
   D25        1.15538   0.00059   0.00000   0.01104   0.01104   1.16643
   D26        3.12893  -0.00061   0.00000  -0.00960  -0.00954   3.11939
   D27        1.02882  -0.00124   0.00000  -0.01993  -0.01993   1.00889
   D28       -1.05983  -0.00065   0.00000  -0.01031  -0.01029  -1.07012
   D29       -1.01077   0.00104   0.00000   0.01543   0.01545  -0.99532
   D30       -3.11087   0.00041   0.00000   0.00509   0.00506  -3.10582
   D31        1.08366   0.00100   0.00000   0.01471   0.01470   1.09836
   D32        1.03984   0.00021   0.00000   0.00216   0.00217   1.04201
   D33       -1.06026  -0.00042   0.00000  -0.00817  -0.00822  -1.06849
   D34        3.13427   0.00017   0.00000   0.00144   0.00142   3.13569
   D35       -1.85346   0.00108   0.00000   0.04902   0.04908  -1.80438
   D36        0.25413   0.00073   0.00000   0.05683   0.05672   0.31085
   D37        2.31785   0.00196   0.00000   0.06157   0.06162   2.37947
   D38        1.06872   0.00082   0.00000   0.02656   0.02653   1.09525
   D39       -1.01315   0.00094   0.00000   0.02845   0.02844  -0.98471
   D40       -3.11844   0.00061   0.00000   0.02308   0.02304  -3.09541
   D41       -1.02484  -0.00048   0.00000   0.00397   0.00398  -1.02087
   D42       -3.10671  -0.00036   0.00000   0.00586   0.00588  -3.10083
   D43        1.07118  -0.00070   0.00000   0.00049   0.00048   1.07166
   D44       -3.12187   0.00017   0.00000   0.01665   0.01667  -3.10519
   D45        1.07945   0.00028   0.00000   0.01853   0.01858   1.09803
   D46       -1.02584  -0.00005   0.00000   0.01317   0.01317  -1.01267
         Item               Value     Threshold  Converged?
 Maximum Force            0.020983     0.000450     NO 
 RMS     Force            0.004090     0.000300     NO 
 Maximum Displacement     0.201458     0.001800     NO 
 RMS     Displacement     0.049266     0.001200     NO 
 Predicted change in Energy=-2.749444D-03
 GradGradGradGradGradGradGradGradGradGradGradGradGradGradGradGradGradGrad

                          Input orientation:                          
 ---------------------------------------------------------------------
 Center     Atomic      Atomic             Coordinates (Angstroms)
 Number     Number       Type             X           Y           Z
 ---------------------------------------------------------------------
      1          8           0        1.603639   -0.063149   -1.422934
      2          6           0        1.421378    0.210941   -0.243080
      3          6           0        0.244152    0.366173    0.511179
      4          7           0       -0.979322    0.235600   -0.053452
      5          6           0       -2.088543    0.361328    0.581563
      6          6           0       -3.423835    0.214070   -0.128748
      7          6           0       -3.474587   -1.082589   -0.945366
      8          6           0       -4.582553    0.289564    0.865416
      9          8           0        2.561658    0.395292    0.599297
     10          6           0        3.816606    0.253637    0.000633
     11          6           0        4.439506   -1.089882    0.364399
     12          1           0        0.352034    0.599754    1.581260
     13          1           0       -2.114624    0.592228    1.667975
     14          1           0       -3.541019    1.049117   -0.846885
     15          1           0       -4.386078   -1.144032   -1.565653
     16          1           0       -3.449461   -1.952198   -0.269065
     17          1           0       -2.587041   -1.128769   -1.590649
     18          1           0       -5.557139    0.206479    0.358404
     19          1           0       -4.563357    1.238420    1.424318
     20          1           0       -4.504401   -0.532075    1.595997
     21          1           0        3.717976    0.332043   -1.092343
     22          1           0        4.464103    1.074867    0.359218
     23          1           0        3.808591   -1.899976   -0.028297
     24          1           0        4.507195   -1.202098    1.456874
     25          1           0        5.448275   -1.184294   -0.067642
 ---------------------------------------------------------------------
                    Distance matrix (angstroms):
                    1          2          3          4          5
     1  O    0.000000
     2  C    1.224908   0.000000
     3  C    2.402772   1.406721   0.000000
     4  N    2.938778   2.408304   1.353790   0.000000
     5  C    4.222606   3.608628   2.333762   1.284299   0.000000
     6  C    5.198776   4.846563   3.726496   2.445767   1.519616
     7  C    5.201510   5.112426   4.248466   2.959642   2.517445
     8  C    6.605295   6.105909   4.840293   3.718938   2.511136
     9  O    2.284160   1.429624   2.319363   3.604182   4.650359
    10  C    2.650306   2.407974   3.610505   4.796267   5.934633
    11  C    3.505835   3.342195   4.443268   5.594211   6.690934
    12  H    3.321316   2.150091   1.100578   2.139486   2.648142
    13  H    4.879418   4.037428   2.636874   2.092704   1.110985
    14  H    5.294948   5.068777   4.079004   2.802434   2.150163
    15  H    6.088135   6.108330   5.294619   3.974434   3.486447
    16  H    5.516678   5.329627   4.430170   3.306741   2.815683
    17  H    4.327294   4.436010   3.829907   2.609451   2.680931
    18  H    7.383942   7.004392   5.805499   4.596399   3.479215
    19  H    6.916124   6.297062   4.970592   4.004343   2.757577
    20  H    6.829493   6.248930   4.953023   3.966886   2.768323
    21  H    2.176210   2.451587   3.826212   4.811778   6.043053
    22  H    3.557162   3.219830   4.281743   5.523182   6.595131
    23  H    3.190729   3.193882   4.258132   5.242654   6.345204
    24  H    4.245131   3.795891   4.639757   5.869406   6.834781
    25  H    4.227884   4.265367   5.460940   6.582575   7.721013
                    6          7          8          9         10
     6  C    0.000000
     7  C    1.533221   0.000000
     8  C    1.528623   2.527712   0.000000
     9  O    6.032332   6.403622   7.149947   0.000000
    10  C    7.241705   7.472745   8.443637   1.397626   0.000000
    11  C    7.985964   8.021746   9.140647   2.405666   1.524917
    12  H    4.162940   4.884378   4.995877   2.426623   3.823799
    13  H    2.255050   3.388815   2.612733   4.800883   6.170427
    14  H    1.107590   2.135013   2.143290   6.305680   7.448874
    15  H    2.198875   1.104241   2.829116   7.438251   8.467040
    16  H    2.170959   1.101923   2.756165   6.511399   7.598301
    17  H    2.154204   1.098299   3.467851   5.798942   6.741655
    18  H    2.188232   2.774623   1.101718   8.124564   9.380689
    19  H    2.181700   3.491119   1.101393   7.222006   8.556895
    20  H    2.167740   2.796803   1.102246   7.196013   8.508918
    21  H    7.207490   7.331832   8.528388   2.050054   1.100215
    22  H    7.949758   8.329427   9.094774   2.034393   1.105556
    23  H    7.535733   7.386055   8.718033   2.686442   2.153822
    24  H    8.211028   8.336299   9.230298   2.659362   2.171800
    25  H    8.981842   8.966505  10.181373   3.357447   2.175925
                   11         12         13         14         15
    11  C    0.000000
    12  H    4.587270   0.000000
    13  H    6.890967   2.468193   0.000000
    14  H    8.350527   4.610171   2.927093   0.000000
    15  H    9.034322   5.949249   4.316301   2.457774   0.000000
    16  H    7.961197   4.938373   3.465259   3.057801   1.792073
    17  H    7.293564   4.656925   3.715325   2.491273   1.799276
    18  H   10.080352   6.047178   3.703335   2.495496   2.626263
    19  H    9.359271   4.959193   2.544253   2.497875   3.827197
    20  H    9.045520   4.986603   2.642020   3.065281   3.222503
    21  H    2.159762   4.306901   6.458040   7.298455   8.250971
    22  H    2.164895   4.316044   6.724986   8.095512   9.324932
    23  H    1.099325   4.559288   6.646269   7.961406   8.371829
    24  H    1.100307   4.530730   6.863867   8.668853   9.393048
    25  H    1.101448   5.645651   7.960266   9.295307   9.947872
                   16         17         18         19         20
    16  H    0.000000
    17  H    1.779997   0.000000
    18  H    3.081543   3.795151   0.000000
    19  H    3.779995   4.312706   1.785688   0.000000
    20  H    2.570623   3.766567   1.784757   1.779776   0.000000
    21  H    7.567543   6.491188   9.388727   8.702619   8.693754
    22  H    8.496020   7.640459  10.058797   9.091547   9.194887
    23  H    7.262232   6.628711   9.607475   9.058097   8.579936
    24  H    8.176178   7.721461  10.221621   9.393195   9.037541
    25  H    8.933082   8.178565  11.101121  10.408086  10.111816
                   21         22         23         24         25
    21  H    0.000000
    22  H    1.793188   0.000000
    23  H    2.474331   3.070758   0.000000
    24  H    3.078143   2.528097   1.783483   0.000000
    25  H    2.518576   2.500922   1.789500   1.791674   0.000000
 Stoichiometry    C8H14NO2(1-)
 Framework group  C1[X(C8H14NO2)]
 Deg. of freedom    69
 Full point group                 C1      NOp   1
 Largest Abelian subgroup         C1      NOp   1
 Largest concise Abelian subgroup C1      NOp   1
                         Standard orientation:                         
 ---------------------------------------------------------------------
 Center     Atomic      Atomic             Coordinates (Angstroms)
 Number     Number       Type             X           Y           Z
 ---------------------------------------------------------------------
      1          8           0       -1.660784    1.243340   -0.713597
      2          6           0       -1.462835    0.086330   -0.363534
      3          6           0       -0.276319   -0.624216   -0.106303
      4          7           0        0.939295   -0.047088   -0.254465
      5          6           0        2.056195   -0.640703   -0.031801
      6          6           0        3.382033    0.073209   -0.236043
      7          6           0        3.397360    1.426020    0.485369
      8          6           0        4.550245   -0.806440    0.209136
      9          8           0       -2.591812   -0.757110   -0.123026
     10          6           0       -3.854453   -0.189799   -0.316042
     11          6           0       -4.503955    0.149167    1.021351
     12          1           0       -0.370229   -1.671083    0.220076
     13          1           0        2.096285   -1.697995    0.307039
     14          1           0        3.511794    0.284865   -1.315451
     15          1           0        4.302153    2.011551    0.244851
     16          1           0        3.358522    1.269491    1.575426
     17          1           0        2.503751    1.993123    0.191912
     18          1           0        5.518565   -0.307388    0.044553
     19          1           0        4.556651   -1.762481   -0.337684
     20          1           0        4.459903   -1.034840    1.283667
     21          1           0       -3.763070    0.722103   -0.924775
     22          1           0       -4.480641   -0.920011   -0.860957
     23          1           0       -3.894376    0.903176    1.539425
     24          1           0       -4.565159   -0.744977    1.659657
     25          1           0       -5.518074    0.552840    0.873706
 ---------------------------------------------------------------------
 Rotational constants (GHZ):           3.5614767           0.3471767           0.3340675
 Standard basis: def2SVP (5D, 7F)
 There are   235 symmetry adapted cartesian basis functions of A   symmetry.
 There are   224 symmetry adapted basis functions of A   symmetry.
   224 basis functions,   373 primitive gaussians,   235 cartesian basis functions
    43 alpha electrons       43 beta electrons
       nuclear repulsion energy       589.5091032229 Hartrees.
 NAtoms=   25 NActive=   25 NUniq=   25 SFac= 1.00D+00 NAtFMM=   60 NAOKFM=F Big=F
 Integral buffers will be    131072 words long.
 Raffenetti 2 integral format.
 Two-electron integral symmetry is turned on.
 Nuclear repulsion after empirical dispersion term =      589.5083219349 Hartrees.
 One-electron integrals computed using PRISM.
   1 Symmetry operations used in ECPInt.
 ECPInt:  NShTT=    5886 NPrTT=   20688 LenC2=    5292 LenP2D=   13872.
 LDataN:  DoStor=T MaxTD1= 4 Len=   56
 NBasis=   224 RedAO= T EigKep=  1.28D-03  NBF=   224
 NBsUse=   224 1.00D-06 EigRej= -1.00D+00 NBFU=   224
 Initial guess from the checkpoint file:  "A18_crest_conformers_censo-14.chk"
 B after Tr=     0.000000    0.000000    0.000000
         Rot=    0.999653    0.026348   -0.000543   -0.000106 Ang=   3.02 deg.
 ExpMin= 1.22D-01 ExpMax= 2.27D+03 ExpMxC= 3.41D+02 IAcc=3 IRadAn=         5 AccDes= 0.00D+00
 Harris functional with IExCor= 1009 and IRadAn=       5 diagonalized for initial guess.
 HarFok:  IExCor= 1009 AccDes= 0.00D+00 IRadAn=         5 IDoV= 1 UseB2=F ITyADJ=14
 ICtDFT=  3500011 ScaDFX=  1.000000  1.000000  1.000000  1.000000
 FoFCou: FMM=F IPFlag=           0 FMFlag=      100000 FMFlg1=           0
         NFxFlg=           0 DoJE=T BraDBF=F KetDBF=T FulRan=T
         wScrn=  0.000000 ICntrl=       500 IOpCl=  0 I1Cent=   200000004 NGrid=           0
         NMat0=    1 NMatS0=      1 NMatT0=    0 NMatD0=    1 NMtDS0=    0 NMtDT0=    0
 Petite list used in FoFCou.
 Requested convergence on RMS density matrix=1.00D-08 within 128 cycles.
 Requested convergence on MAX density matrix=1.00D-06.
 Requested convergence on             energy=1.00D-06.
 No special actions if energy rises.
 Integral accuracy reduced to 1.0D-05 until final iterations.
 Initial convergence to 1.0D-05 achieved.  Increase integral accuracy.
 SCF Done:  E(RM062X) =  -517.867282215     A.U. after   13 cycles
            NFock= 13  Conv=0.65D-08     -V/T= 2.0101
   1 Symmetry operations used in ECPInt.
 ECPInt:  NShTT=    5886 NPrTT=   20688 LenC2=    5292 LenP2D=   13872.
 LDataN:  DoStor=T MaxTD1= 5 Len=  102
 Calling FoFJK, ICntrl=      2127 FMM=F ISym2X=0 I1Cent= 0 IOpClX= 0 NMat=1 NMatS=1 NMatT=0.
 ***** Axes restored to original set *****
 -------------------------------------------------------------------
 Center     Atomic                   Forces (Hartrees/Bohr)
 Number     Number              X              Y              Z
 -------------------------------------------------------------------
      1        8          -0.000704749    0.001613034    0.003027431
      2        6           0.008044272   -0.004200091   -0.001396796
      3        6          -0.004471044    0.001547627    0.002639100
      4        7           0.001369420   -0.000769847   -0.000302925
      5        6           0.000357923   -0.000371169   -0.000721504
      6        6           0.000394199   -0.001530985   -0.000060305
      7        6           0.000240981    0.002219231    0.000698974
      8        6           0.001573759    0.000017862   -0.001372248
      9        8          -0.004331185    0.001943412   -0.003093351
     10        6          -0.001591018   -0.001734059    0.000872145
     11        6          -0.000436550    0.001237504   -0.001311714
     12        1          -0.000075511    0.000047189   -0.000505615
     13        1          -0.000220374    0.000712638    0.000217268
     14        1          -0.000235395    0.000687723   -0.000028237
     15        1           0.000220400    0.000021074    0.000162453
     16        1           0.000138469   -0.000474162   -0.000172607
     17        1           0.000152080   -0.000292486    0.000235293
     18        1          -0.000089630   -0.000030752    0.000277194
     19        1          -0.000028033   -0.000262732    0.000245507
     20        1          -0.000242755   -0.000033706    0.000512050
     21        1          -0.000018369    0.000399871    0.000027100
     22        1          -0.000448952    0.000106680    0.000134132
     23        1           0.000142257   -0.000043403   -0.000158281
     24        1          -0.000130358    0.000017527   -0.000221762
     25        1           0.000390163   -0.000827979    0.000296696
 -------------------------------------------------------------------
 Cartesian Forces:  Max     0.008044272 RMS     0.001580391

 GradGradGradGradGradGradGradGradGradGradGradGradGradGradGradGradGradGrad
 Berny optimization.
 Using GEDIIS/GDIIS optimizer.
 FormGI is forming the generalized inverse of G from B-inverse, IUseBI=4.
 Internal  Forces:  Max     0.007015379 RMS     0.001085752
 Search for a local minimum.
 Step number   2 out of a maximum of  121
 All quantities printed in internal units (Hartrees-Bohrs-Radians)
 Mixed Optimization -- RFO/linear search
 Update second derivatives using D2CorX and points    1    2
 DE= -2.78D-03 DEPred=-2.75D-03 R= 1.01D+00
 TightC=F SS=  1.41D+00  RLast= 2.05D-01 DXNew= 5.0454D-01 6.1398D-01
 Trust test= 1.01D+00 RLast= 2.05D-01 DXMaxT set to 5.05D-01
 ITU=  1  0
 Use linear search instead of GDIIS.
     Eigenvalues ---    0.00353   0.00370   0.00404   0.00643   0.01115
     Eigenvalues ---    0.01361   0.01625   0.02046   0.02299   0.02363
     Eigenvalues ---    0.02479   0.03295   0.03926   0.04910   0.05127
     Eigenvalues ---    0.05480   0.05484   0.05567   0.05666   0.05731
     Eigenvalues ---    0.05760   0.05829   0.05866   0.11585   0.13800
     Eigenvalues ---    0.15697   0.16000   0.16000   0.16000   0.16000
     Eigenvalues ---    0.16000   0.16000   0.16000   0.16000   0.16000
     Eigenvalues ---    0.16139   0.16892   0.18132   0.21369   0.22026
     Eigenvalues ---    0.22367   0.24905   0.24996   0.25000   0.25988
     Eigenvalues ---    0.29103   0.29429   0.29664   0.31683   0.33028
     Eigenvalues ---    0.33382   0.33593   0.33653   0.33895   0.34142
     Eigenvalues ---    0.34668   0.34752   0.34887   0.34908   0.34928
     Eigenvalues ---    0.34999   0.35108   0.35268   0.39751   0.45931
     Eigenvalues ---    0.48217   0.60045   0.74456   0.89314
 RFO step:  Lambda=-9.98691969D-04 EMin= 3.52879372D-03
 Quartic linear search produced a step of  0.07061.
 Iteration  1 RMS(Cart)=  0.05787520 RMS(Int)=  0.00121956
 Iteration  2 RMS(Cart)=  0.00319789 RMS(Int)=  0.00008390
 Iteration  3 RMS(Cart)=  0.00000649 RMS(Int)=  0.00008386
 Iteration  4 RMS(Cart)=  0.00000000 RMS(Int)=  0.00008386
 Variable       Old X    -DE/DX   Delta X   Delta X   Delta X     New X
                                 (Linear)    (Quad)   (Total)
    R1        2.31474  -0.00338  -0.00090  -0.00517  -0.00606   2.30868
    R2        2.65832   0.00191   0.00303   0.00819   0.01122   2.66953
    R3        2.70160  -0.00702  -0.00170  -0.02122  -0.02292   2.67868
    R4        2.55829  -0.00314   0.00178  -0.00350  -0.00172   2.55657
    R5        2.07979  -0.00049   0.00040  -0.00100  -0.00061   2.07919
    R6        2.42697  -0.00189   0.00073  -0.00178  -0.00105   2.42592
    R7        2.87166  -0.00213   0.00152  -0.00516  -0.00364   2.86802
    R8        2.09946   0.00037   0.00089   0.00234   0.00322   2.10268
    R9        2.89737  -0.00176   0.00027  -0.00603  -0.00576   2.89161
   R10        2.88868  -0.00116   0.00017  -0.00391  -0.00373   2.88494
   R11        2.09304   0.00056   0.00087   0.00293   0.00380   2.09685
   R12        2.08671  -0.00027   0.00169   0.00139   0.00307   2.08979
   R13        2.08233   0.00027   0.00171   0.00308   0.00479   2.08713
   R14        2.07548  -0.00000   0.00167   0.00219   0.00386   2.07935
   R15        2.08195  -0.00005   0.00145   0.00178   0.00323   2.08518
   R16        2.08133  -0.00010   0.00164   0.00185   0.00349   2.08483
   R17        2.08294   0.00035   0.00171   0.00332   0.00503   2.08797
   R18        2.64113  -0.00164  -0.00001  -0.00380  -0.00382   2.63731
   R19        2.88168  -0.00068  -0.00067  -0.00335  -0.00402   2.87765
   R20        2.07911   0.00000  -0.00008  -0.00010  -0.00017   2.07893
   R21        2.08920  -0.00014   0.00068   0.00046   0.00115   2.09034
   R22        2.07742   0.00001   0.00162   0.00215   0.00377   2.08119
   R23        2.07928  -0.00023   0.00155   0.00135   0.00291   2.08218
   R24        2.08143   0.00031   0.00162   0.00308   0.00470   2.08614
    A1        2.29919  -0.00021  -0.00011  -0.00062  -0.00123   2.29796
    A2        2.06887   0.00022  -0.00004   0.00128   0.00073   2.06959
    A3        1.91487   0.00002   0.00013   0.00064   0.00026   1.91512
    A4        2.12003  -0.00237  -0.00100  -0.01274  -0.01375   2.10628
    A5        2.05185   0.00121   0.00051   0.00657   0.00708   2.05893
    A6        2.11131   0.00116   0.00049   0.00617   0.00667   2.11797
    A7        2.17108  -0.00121   0.00179  -0.00277  -0.00098   2.17010
    A8        2.11567  -0.00106   0.00113  -0.00360  -0.00246   2.11321
    A9        2.12249   0.00075  -0.00184   0.00162  -0.00022   2.12227
   A10        2.04497   0.00030   0.00071   0.00199   0.00270   2.04767
   A11        1.93906  -0.00042   0.00113  -0.00252  -0.00139   1.93767
   A12        1.93616  -0.00036  -0.00019  -0.00386  -0.00406   1.93209
   A13        1.89967   0.00022  -0.00022   0.00042   0.00020   1.89987
   A14        1.94236   0.00067   0.00063   0.00418   0.00481   1.94717
   A15        1.86374  -0.00004  -0.00072   0.00103   0.00031   1.86404
   A16        1.87995  -0.00005  -0.00071   0.00100   0.00028   1.88023
   A17        1.95365  -0.00009   0.00068   0.00082   0.00149   1.95514
   A18        1.91746   0.00057  -0.00038   0.00308   0.00269   1.92016
   A19        1.89836   0.00008   0.00028   0.00054   0.00082   1.89918
   A20        1.89618  -0.00019  -0.00010  -0.00073  -0.00083   1.89535
   A21        1.91206   0.00005  -0.00004   0.00069   0.00064   1.91270
   A22        1.88492  -0.00043  -0.00048  -0.00461  -0.00508   1.87984
   A23        1.94714   0.00032   0.00081   0.00381   0.00461   1.95175
   A24        1.93838   0.00014   0.00056   0.00134   0.00189   1.94027
   A25        1.91826   0.00047  -0.00036   0.00226   0.00190   1.92016
   A26        1.89011  -0.00017  -0.00015  -0.00070  -0.00087   1.88924
   A27        1.88760  -0.00035  -0.00027  -0.00205  -0.00233   1.88527
   A28        1.88032  -0.00045  -0.00065  -0.00509  -0.00573   1.87459
   A29        2.03837  -0.00352   0.00163  -0.01280  -0.01118   2.02719
   A30        1.93253   0.00072  -0.00137   0.00176   0.00039   1.93292
   A31        1.91538  -0.00015   0.00192   0.00055   0.00247   1.91785
   A32        1.88774  -0.00076   0.00022  -0.00418  -0.00397   1.88377
   A33        1.91387  -0.00050   0.00012  -0.00333  -0.00321   1.91066
   A34        1.91543   0.00078  -0.00016   0.00747   0.00731   1.92274
   A35        1.89841  -0.00010  -0.00071  -0.00230  -0.00301   1.89539
   A36        1.90667  -0.00014  -0.00014  -0.00161  -0.00175   1.90492
   A37        1.93033  -0.00031   0.00052  -0.00169  -0.00118   1.92915
   A38        1.93484   0.00138   0.00074   0.01091   0.01164   1.94648
   A39        1.89107   0.00004  -0.00030  -0.00182  -0.00212   1.88895
   A40        1.89900  -0.00055  -0.00050  -0.00362  -0.00412   1.89488
   A41        1.90114  -0.00046  -0.00036  -0.00249  -0.00286   1.89828
    D1       -0.02132   0.00074  -0.00086   0.03605   0.03517   0.01385
    D2        3.12148   0.00078  -0.00110   0.03760   0.03647  -3.12523
    D3       -3.13740  -0.00057   0.00153  -0.02747  -0.02592   3.11986
    D4        0.00541  -0.00052   0.00129  -0.02592  -0.02462  -0.01921
    D5        0.00609  -0.00001   0.00480   0.02420   0.02898   0.03506
    D6        3.12601   0.00109   0.00277   0.07813   0.08091  -3.07626
    D7        3.13776   0.00002  -0.00010   0.00074   0.00064   3.13840
    D8       -0.00509  -0.00002   0.00015  -0.00086  -0.00071  -0.00580
    D9        3.13010   0.00002  -0.00053   0.00053  -0.00000   3.13010
   D10       -0.00011  -0.00001  -0.00037  -0.00141  -0.00178  -0.00189
   D11        0.88682  -0.00059  -0.00271  -0.06317  -0.06588   0.82094
   D12        3.05717  -0.00029  -0.00123  -0.06240  -0.06363   2.99354
   D13       -1.16054  -0.00043  -0.00236  -0.06321  -0.06557  -1.22611
   D14       -2.26566  -0.00056  -0.00288  -0.06131  -0.06420  -2.32986
   D15       -0.09531  -0.00026  -0.00140  -0.06054  -0.06194  -0.15726
   D16        1.97016  -0.00041  -0.00253  -0.06136  -0.06388   1.90627
   D17       -3.01792  -0.00004   0.00028   0.01064   0.01093  -3.00699
   D18        1.15707  -0.00013   0.00022   0.00892   0.00914   1.16621
   D19       -0.90272   0.00002   0.00085   0.01240   0.01325  -0.88947
   D20        1.09843   0.00025  -0.00072   0.01445   0.01372   1.11216
   D21       -1.00977   0.00016  -0.00078   0.01272   0.01193  -0.99783
   D22       -3.06955   0.00031  -0.00015   0.01620   0.01604  -3.05351
   D23       -0.94877  -0.00003   0.00022   0.01038   0.01059  -0.93818
   D24       -3.05697  -0.00012   0.00015   0.00865   0.00880  -3.04817
   D25        1.16643   0.00003   0.00078   0.01213   0.01291   1.17933
   D26        3.11939   0.00011  -0.00067  -0.00156  -0.00223   3.11716
   D27        1.00889   0.00002  -0.00141  -0.00420  -0.00561   1.00328
   D28       -1.07012   0.00019  -0.00073  -0.00017  -0.00089  -1.07101
   D29       -0.99532  -0.00022   0.00109  -0.00461  -0.00352  -0.99884
   D30       -3.10582  -0.00031   0.00036  -0.00725  -0.00690  -3.11272
   D31        1.09836  -0.00014   0.00104  -0.00322  -0.00219   1.09617
   D32        1.04201   0.00008   0.00015  -0.00046  -0.00030   1.04171
   D33       -1.06849  -0.00001  -0.00058  -0.00310  -0.00369  -1.07217
   D34        3.13569   0.00016   0.00010   0.00093   0.00103   3.13672
   D35       -1.80438   0.00153   0.00347   0.07513   0.07860  -1.72578
   D36        0.31085   0.00128   0.00400   0.07247   0.07646   0.38731
   D37        2.37947   0.00063   0.00435   0.06755   0.07190   2.45138
   D38        1.09525  -0.00004   0.00187   0.01740   0.01927   1.11452
   D39       -0.98471   0.00019   0.00201   0.02168   0.02369  -0.96103
   D40       -3.09541   0.00005   0.00163   0.01868   0.02030  -3.07511
   D41       -1.02087   0.00001   0.00028   0.01777   0.01805  -1.00281
   D42       -3.10083   0.00024   0.00042   0.02205   0.02247  -3.07836
   D43        1.07166   0.00010   0.00003   0.01905   0.01908   1.09074
   D44       -3.10519  -0.00004   0.00118   0.01807   0.01925  -3.08594
   D45        1.09803   0.00018   0.00131   0.02235   0.02367   1.12169
   D46       -1.01267   0.00005   0.00093   0.01934   0.02028  -0.99239
         Item               Value     Threshold  Converged?
 Maximum Force            0.007015     0.000450     NO 
 RMS     Force            0.001086     0.000300     NO 
 Maximum Displacement     0.253930     0.001800     NO 
 RMS     Displacement     0.058777     0.001200     NO 
 Predicted change in Energy=-5.305377D-04
 GradGradGradGradGradGradGradGradGradGradGradGradGradGradGradGradGradGrad

                          Input orientation:                          
 ---------------------------------------------------------------------
 Center     Atomic      Atomic             Coordinates (Angstroms)
 Number     Number       Type             X           Y           Z
 ---------------------------------------------------------------------
      1          8           0        1.599094   -0.197523   -1.344485
      2          6           0        1.419375    0.127201   -0.180525
      3          6           0        0.237607    0.356726    0.558623
      4          7           0       -0.977150    0.207635   -0.017936
      5          6           0       -2.093775    0.394157    0.587337
      6          6           0       -3.416119    0.219885   -0.136831
      7          6           0       -3.435442   -1.083526   -0.938189
      8          6           0       -4.582790    0.292170    0.845159
      9          8           0        2.550691    0.376842    0.636234
     10          6           0        3.794901    0.268595    0.013383
     11          6           0        4.428214   -1.085196    0.305014
     12          1           0        0.338222    0.661114    1.611140
     13          1           0       -2.133440    0.697691    1.657090
     14          1           0       -3.537002    1.046921   -0.866637
     15          1           0       -4.332965   -1.162796   -1.579369
     16          1           0       -3.414818   -1.949179   -0.252587
     17          1           0       -2.530665   -1.129591   -1.562698
     18          1           0       -5.555762    0.192320    0.334363
     19          1           0       -4.579413    1.246724    1.398294
     20          1           0       -4.502151   -0.521042    1.588803
     21          1           0        3.681330    0.393816   -1.073673
     22          1           0        4.439548    1.081663    0.396716
     23          1           0        3.802515   -1.878549   -0.133160
     24          1           0        4.491015   -1.256425    1.391659
     25          1           0        5.442129   -1.159185   -0.125306
 ---------------------------------------------------------------------
                    Distance matrix (angstroms):
                    1          2          3          4          5
     1  O    0.000000
     2  C    1.221699   0.000000
     3  C    2.404717   1.412656   0.000000
     4  N    2.925905   2.403380   1.352880   0.000000
     5  C    4.209431   3.605981   2.331859   1.283744   0.000000
     6  C    5.175425   4.836579   3.721840   2.441896   1.517690
     7  C    5.128024   5.060549   4.219723   2.925263   2.512140
     8  C    6.576476   6.091406   4.829337   3.708466   2.504410
     9  O    2.271272   1.417495   2.314473   3.591967   4.644756
    10  C    2.623478   2.387617   3.599916   4.772543   5.917913
    11  C    3.393041   3.280057   4.438992   5.567196   6.693619
    12  H    3.326075   2.159634   1.100258   2.142367   2.652178
    13  H    4.872646   4.040394   2.635289   2.093532   1.112689
    14  H    5.306267   5.087466   4.093337   2.824454   2.150127
    15  H    6.014670   6.058900   5.269733   3.946853   3.483201
    16  H    5.422163   5.261745   4.394936   3.263301   2.818129
    17  H    4.239255   4.369524   3.791104   2.566685   2.671204
    18  H    7.359516   6.994417   5.800038   4.592171   3.477080
    19  H    6.912499   6.303289   4.969992   4.007707   2.750076
    20  H    6.777465   6.214113   4.929204   3.941854   2.764199
    21  H    2.181451   2.446475   3.811167   4.780239   6.009226
    22  H    3.568792   3.219574   4.267090   5.502407   6.572162
    23  H    3.024602   3.115226   4.264222   5.216381   6.360074
    24  H    4.119583   3.717682   4.624682   5.833632   6.835994
    25  H    4.144889   4.223789   5.463771   6.564059   7.727262
                    6          7          8          9         10
     6  C    0.000000
     7  C    1.530173   0.000000
     8  C    1.526647   2.527702   0.000000
     9  O    6.018727   6.359659   7.137042   0.000000
    10  C    7.212748   7.416979   8.418914   1.395607   0.000000
    11  C    7.964422   7.961322   9.131653   2.402573   1.522789
    12  H    4.164752   4.876822   4.993917   2.434393   3.828253
    13  H    2.256483   3.406379   2.612086   4.804807   6.166938
    14  H    1.109604   2.134066   2.143261   6.306159   7.425431
    15  H    2.198484   1.105868   2.838605   7.393517   8.405233
    16  H    2.172151   1.104460   2.755513   6.464338   7.547801
    17  H    2.153651   1.100343   3.468486   5.738015   6.667214
    18  H    2.191085   2.782611   1.103429   8.114169   9.356481
    19  H    2.182719   3.492547   1.103242   7.223282   8.544229
    20  H    2.169389   2.799990   1.104909   7.173295   8.482130
    21  H    7.161125   7.269755   8.484570   2.049979   1.100122
    22  H    7.920785   8.275596   9.067910   2.030252   1.106162
    23  H    7.517454   7.325855   8.716792   2.691805   2.152152
    24  H    8.187706   8.263583   9.221212   2.646334   2.170232
    25  H    8.964961   8.915031  10.175816   3.361508   2.184297
                   11         12         13         14         15
    11  C    0.000000
    12  H    4.635040   0.000000
    13  H    6.932684   2.472360   0.000000
    14  H    8.328467   4.615798   2.908806   0.000000
    15  H    8.961874   5.943567   4.332896   2.454464   0.000000
    16  H    7.910154   4.936843   3.506382   3.060817   1.794922
    17  H    7.205298   4.637929   3.723410   2.496882   1.802683
    18  H   10.065420   6.048882   3.703686   2.499627   2.644606
    19  H    9.368589   4.956952   2.520158   2.501291   3.838359
    20  H    9.039790   4.982690   2.664725   3.069073   3.236941
    21  H    2.155479   4.296049   6.431249   7.250775   8.179713
    22  H    2.168829   4.297972   6.703742   8.076053   9.268199
    23  H    1.101319   4.636140   6.713983   7.935041   8.293965
    24  H    1.101845   4.579390   6.911760   8.651842   9.311198
    25  H    1.103935   5.690220   8.000886   9.275844   9.882651
                   16         17         18         19         20
    16  H    0.000000
    17  H    1.780405   0.000000
    18  H    3.084504   3.807558   0.000000
    19  H    3.780937   4.314130   1.788009   0.000000
    20  H    2.571495   3.766835   1.786785   1.779679   0.000000
    21  H    7.517920   6.414733   9.345963   8.664753   8.654196
    22  H    8.443854   7.570523  10.034991   9.075906   9.162080
    23  H    7.218666   6.535571   9.596062   9.075759   8.589264
    24  H    8.104668   7.618944  10.205609   9.409487   9.025335
    25  H    8.893020   8.101384  11.090151  10.418304  10.111088
                   21         22         23         24         25
    21  H    0.000000
    22  H    1.791668   0.000000
    23  H    2.462294   3.073993   0.000000
    24  H    3.075183   2.541499   1.784977   0.000000
    25  H    2.532118   2.509796   1.790497   1.793114   0.000000
 Stoichiometry    C8H14NO2(1-)
 Framework group  C1[X(C8H14NO2)]
 Deg. of freedom    69
 Full point group                 C1      NOp   1
 Largest Abelian subgroup         C1      NOp   1
 Largest concise Abelian subgroup C1      NOp   1
                         Standard orientation:                         
 ---------------------------------------------------------------------
 Center     Atomic      Atomic             Coordinates (Angstroms)
 Number     Number       Type             X           Y           Z
 ---------------------------------------------------------------------
      1          8           0       -1.659518    1.204273   -0.662995
      2          6           0       -1.462098    0.057337   -0.291363
      3          6           0       -0.268880   -0.661250   -0.055859
      4          7           0        0.936923   -0.072035   -0.226587
      5          6           0        2.062830   -0.656539   -0.029896
      6          6           0        3.374349    0.072093   -0.258798
      7          6           0        3.352855    1.457817    0.389841
      8          6           0        4.550230   -0.763328    0.241230
      9          8           0       -2.579938   -0.786004   -0.071132
     10          6           0       -3.831448   -0.232502   -0.345132
     11          6           0       -4.498046    0.254003    0.934651
     12          1           0       -0.353105   -1.709838    0.266531
     13          1           0        2.118945   -1.716094    0.305174
     14          1           0        3.511320    0.230121   -1.348517
     15          1           0        4.242884    2.055968    0.119642
     16          1           0        3.314736    1.360045    1.489304
     17          1           0        2.442281    1.985726    0.069026
     18          1           0        5.516161   -0.261206    0.061215
     19          1           0        4.576474   -1.749750   -0.252152
     20          1           0        4.453963   -0.939658    1.327721
     21          1           0       -3.723176    0.609269   -1.045110
     22          1           0       -4.451311   -1.012911   -0.825054
     23          1           0       -3.897035    1.068999    1.367630
     24          1           0       -4.556788   -0.561083    1.673734
     25          1           0       -5.516925    0.632714    0.741938
 ---------------------------------------------------------------------
 Rotational constants (GHZ):           3.6579270           0.3507074           0.3358229
 Standard basis: def2SVP (5D, 7F)
 There are   235 symmetry adapted cartesian basis functions of A   symmetry.
 There are   224 symmetry adapted basis functions of A   symmetry.
   224 basis functions,   373 primitive gaussians,   235 cartesian basis functions
    43 alpha electrons       43 beta electrons
       nuclear repulsion energy       591.3745867440 Hartrees.
 NAtoms=   25 NActive=   25 NUniq=   25 SFac= 1.00D+00 NAtFMM=   60 NAOKFM=F Big=F
 Integral buffers will be    131072 words long.
 Raffenetti 2 integral format.
 Two-electron integral symmetry is turned on.
 Nuclear repulsion after empirical dispersion term =      591.3738049215 Hartrees.
 One-electron integrals computed using PRISM.
   1 Symmetry operations used in ECPInt.
 ECPInt:  NShTT=    5886 NPrTT=   20688 LenC2=    5296 LenP2D=   13897.
 LDataN:  DoStor=T MaxTD1= 4 Len=   56
 NBasis=   224 RedAO= T EigKep=  1.27D-03  NBF=   224
 NBsUse=   224 1.00D-06 EigRej= -1.00D+00 NBFU=   224
 Initial guess from the checkpoint file:  "A18_crest_conformers_censo-14.chk"
 B after Tr=    -0.000000   -0.000000   -0.000000
         Rot=    0.999648    0.026493    0.000328   -0.001061 Ang=   3.04 deg.
 ExpMin= 1.22D-01 ExpMax= 2.27D+03 ExpMxC= 3.41D+02 IAcc=3 IRadAn=         5 AccDes= 0.00D+00
 Harris functional with IExCor= 1009 and IRadAn=       5 diagonalized for initial guess.
 HarFok:  IExCor= 1009 AccDes= 0.00D+00 IRadAn=         5 IDoV= 1 UseB2=F ITyADJ=14
 ICtDFT=  3500011 ScaDFX=  1.000000  1.000000  1.000000  1.000000
 FoFCou: FMM=F IPFlag=           0 FMFlag=      100000 FMFlg1=           0
         NFxFlg=           0 DoJE=T BraDBF=F KetDBF=T FulRan=T
         wScrn=  0.000000 ICntrl=       500 IOpCl=  0 I1Cent=   200000004 NGrid=           0
         NMat0=    1 NMatS0=      1 NMatT0=    0 NMatD0=    1 NMtDS0=    0 NMtDT0=    0
 Petite list used in FoFCou.
 Requested convergence on RMS density matrix=1.00D-08 within 128 cycles.
 Requested convergence on MAX density matrix=1.00D-06.
 Requested convergence on             energy=1.00D-06.
 No special actions if energy rises.
 Integral accuracy reduced to 1.0D-05 until final iterations.
 Initial convergence to 1.0D-05 achieved.  Increase integral accuracy.
 SCF Done:  E(RM062X) =  -517.867865785     A.U. after   13 cycles
            NFock= 13  Conv=0.50D-08     -V/T= 2.0101
   1 Symmetry operations used in ECPInt.
 ECPInt:  NShTT=    5886 NPrTT=   20688 LenC2=    5296 LenP2D=   13897.
 LDataN:  DoStor=T MaxTD1= 5 Len=  102
 Calling FoFJK, ICntrl=      2127 FMM=F ISym2X=0 I1Cent= 0 IOpClX= 0 NMat=1 NMatS=1 NMatT=0.
 ***** Axes restored to original set *****
 -------------------------------------------------------------------
 Center     Atomic                   Forces (Hartrees/Bohr)
 Number     Number              X              Y              Z
 -------------------------------------------------------------------
      1        8          -0.000679190   -0.002978209   -0.002038856
      2        6           0.000169157    0.005652931    0.003180846
      3        6          -0.001514620   -0.001542935   -0.001764708
      4        7           0.002021450   -0.001266825    0.001402107
      5        6           0.000139079   -0.000483480    0.000522794
      6        6           0.000395628    0.000215973   -0.000252503
      7        6           0.000369093   -0.000403359   -0.000597905
      8        6          -0.000598055   -0.000465773    0.000730158
      9        8          -0.001323645    0.001194376   -0.000083869
     10        6           0.001647604   -0.000946402    0.000251572
     11        6           0.001068553   -0.001793764   -0.000864851
     12        1          -0.000038481   -0.000135307   -0.000479065
     13        1          -0.000362304    0.000590884   -0.000973828
     14        1          -0.000630700    0.000084097    0.000489149
     15        1           0.001002026    0.000172312    0.000852669
     16        1          -0.000005744    0.000932809   -0.000888738
     17        1          -0.001052557   -0.000038518    0.000943223
     18        1           0.000868921    0.000178123    0.000517086
     19        1           0.000007584   -0.001001992   -0.000628595
     20        1          -0.000119420    0.000945420   -0.000833685
     21        1           0.000075118    0.000246082    0.000163158
     22        1          -0.000797838   -0.000758488    0.000564826
     23        1           0.000548893    0.001206688    0.000276910
     24        1          -0.000075419    0.000410898   -0.001068533
     25        1          -0.001115134   -0.000015540    0.000580637
 -------------------------------------------------------------------
 Cartesian Forces:  Max     0.005652931 RMS     0.001175944

 GradGradGradGradGradGradGradGradGradGradGradGradGradGradGradGradGradGrad
 Berny optimization.
 Using GEDIIS/GDIIS optimizer.
 FormGI is forming the generalized inverse of G from B-inverse, IUseBI=4.
 Internal  Forces:  Max     0.002633584 RMS     0.000774027
 Search for a local minimum.
 Step number   3 out of a maximum of  121
 All quantities printed in internal units (Hartrees-Bohrs-Radians)
 Mixed Optimization -- En-DIIS/RFO-DIIS
 Update second derivatives using D2CorX and points    1    2    3
 DE= -5.84D-04 DEPred=-5.31D-04 R= 1.10D+00
 TightC=F SS=  1.41D+00  RLast= 2.45D-01 DXNew= 8.4853D-01 7.3646D-01
 Trust test= 1.10D+00 RLast= 2.45D-01 DXMaxT set to 7.36D-01
 ITU=  1  1  0
 Use linear search instead of GDIIS.
     Eigenvalues ---    0.00278   0.00357   0.00397   0.00407   0.00982
     Eigenvalues ---    0.01290   0.01362   0.02292   0.02360   0.02478
     Eigenvalues ---    0.03282   0.03875   0.03952   0.04935   0.05120
     Eigenvalues ---    0.05448   0.05459   0.05505   0.05658   0.05752
     Eigenvalues ---    0.05775   0.05821   0.05862   0.11591   0.13617
     Eigenvalues ---    0.15748   0.16000   0.16000   0.16000   0.16000
     Eigenvalues ---    0.16000   0.16000   0.16000   0.16000   0.16072
     Eigenvalues ---    0.16182   0.16971   0.18087   0.21552   0.22239
     Eigenvalues ---    0.22548   0.24763   0.24999   0.25167   0.26846
     Eigenvalues ---    0.29311   0.29449   0.29720   0.32178   0.33257
     Eigenvalues ---    0.33497   0.33596   0.33671   0.33953   0.34659
     Eigenvalues ---    0.34751   0.34886   0.34906   0.34924   0.34967
     Eigenvalues ---    0.35095   0.35256   0.38515   0.40282   0.47092
     Eigenvalues ---    0.49808   0.61200   0.74414   0.93796
 RFO step:  Lambda=-1.53308963D-03 EMin= 2.77689781D-03
 Quartic linear search produced a step of  0.19270.
 Iteration  1 RMS(Cart)=  0.14350661 RMS(Int)=  0.00686965
 Iteration  2 RMS(Cart)=  0.01131591 RMS(Int)=  0.00017550
 Iteration  3 RMS(Cart)=  0.00007747 RMS(Int)=  0.00017231
 Iteration  4 RMS(Cart)=  0.00000001 RMS(Int)=  0.00017231
 Variable       Old X    -DE/DX   Delta X   Delta X   Delta X     New X
                                 (Linear)    (Quad)   (Total)
    R1        2.30868   0.00263  -0.00117  -0.00686  -0.00803   2.30065
    R2        2.66953  -0.00127   0.00216   0.01901   0.02117   2.69070
    R3        2.67868  -0.00016  -0.00442  -0.03287  -0.03729   2.64139
    R4        2.55657  -0.00231  -0.00033  -0.00152  -0.00185   2.55472
    R5        2.07919  -0.00050  -0.00012  -0.00117  -0.00129   2.07790
    R6        2.42592   0.00003  -0.00020   0.00067   0.00047   2.42639
    R7        2.86802  -0.00043  -0.00070  -0.00185  -0.00255   2.86546
    R8        2.10268  -0.00076   0.00062   0.00395   0.00457   2.10725
    R9        2.89161  -0.00073  -0.00111  -0.00883  -0.00994   2.88167
   R10        2.88494  -0.00028  -0.00072  -0.00504  -0.00576   2.87918
   R11        2.09685  -0.00019   0.00073   0.00636   0.00710   2.10394
   R12        2.08979  -0.00132   0.00059   0.00435   0.00495   2.09473
   R13        2.08713  -0.00128   0.00092   0.00665   0.00757   2.09470
   R14        2.07935  -0.00140   0.00074   0.00512   0.00586   2.08521
   R15        2.08518  -0.00102   0.00062   0.00480   0.00543   2.09061
   R16        2.08483  -0.00118   0.00067   0.00516   0.00584   2.09066
   R17        2.08797  -0.00127   0.00097   0.00700   0.00797   2.09594
   R18        2.63731   0.00138  -0.00074  -0.00171  -0.00244   2.63487
   R19        2.87765   0.00014  -0.00077  -0.00618  -0.00695   2.87070
   R20        2.07893  -0.00014  -0.00003  -0.00084  -0.00088   2.07805
   R21        2.09034  -0.00083   0.00022   0.00073   0.00095   2.09129
   R22        2.08119  -0.00129   0.00073   0.00515   0.00587   2.08707
   R23        2.08218  -0.00112   0.00056   0.00440   0.00496   2.08714
   R24        2.08614  -0.00125   0.00091   0.00639   0.00729   2.09343
    A1        2.29796  -0.00163  -0.00024  -0.00736  -0.00861   2.28935
    A2        2.06959   0.00081   0.00014   0.00485   0.00397   2.07356
    A3        1.91512   0.00092   0.00005   0.00521   0.00424   1.91936
    A4        2.10628   0.00011  -0.00265  -0.01885  -0.02152   2.08476
    A5        2.05893  -0.00006   0.00136   0.00967   0.01101   2.06994
    A6        2.11797  -0.00005   0.00128   0.00921   0.01048   2.12845
    A7        2.17010   0.00001  -0.00019   0.00351   0.00332   2.17342
    A8        2.11321   0.00017  -0.00047   0.00071   0.00021   2.11342
    A9        2.12227   0.00034  -0.00004  -0.00284  -0.00291   2.11936
   A10        2.04767  -0.00052   0.00052   0.00202   0.00251   2.05018
   A11        1.93767  -0.00028  -0.00027  -0.00048  -0.00073   1.93694
   A12        1.93209   0.00010  -0.00078  -0.00529  -0.00607   1.92602
   A13        1.89987   0.00021   0.00004   0.00313   0.00316   1.90302
   A14        1.94717   0.00011   0.00093   0.00716   0.00809   1.95526
   A15        1.86404   0.00008   0.00006  -0.00068  -0.00062   1.86343
   A16        1.88023  -0.00023   0.00005  -0.00382  -0.00377   1.87646
   A17        1.95514  -0.00019   0.00029   0.00251   0.00278   1.95792
   A18        1.92016   0.00018   0.00052   0.00318   0.00370   1.92386
   A19        1.89918   0.00002   0.00016   0.00192   0.00207   1.90125
   A20        1.89535  -0.00001  -0.00016  -0.00151  -0.00168   1.89367
   A21        1.91270   0.00014   0.00012   0.00190   0.00201   1.91472
   A22        1.87984  -0.00013  -0.00098  -0.00846  -0.00943   1.87041
   A23        1.95175   0.00009   0.00089   0.00824   0.00910   1.96085
   A24        1.94027  -0.00009   0.00036   0.00299   0.00334   1.94361
   A25        1.92016   0.00006   0.00037   0.00198   0.00233   1.92249
   A26        1.88924  -0.00004  -0.00017  -0.00217  -0.00237   1.88687
   A27        1.88527  -0.00003  -0.00045  -0.00333  -0.00380   1.88146
   A28        1.87459   0.00001  -0.00110  -0.00861  -0.00971   1.86488
   A29        2.02719   0.00086  -0.00215  -0.00598  -0.00814   2.01905
   A30        1.93292   0.00151   0.00007   0.00349   0.00356   1.93647
   A31        1.91785  -0.00025   0.00048   0.00729   0.00778   1.92563
   A32        1.88377  -0.00102  -0.00077  -0.01086  -0.01164   1.87213
   A33        1.91066  -0.00082  -0.00062  -0.00794  -0.00855   1.90211
   A34        1.92274   0.00024   0.00141   0.01141   0.01284   1.93558
   A35        1.89539   0.00032  -0.00058  -0.00342  -0.00397   1.89142
   A36        1.90492  -0.00055  -0.00034  -0.00607  -0.00641   1.89851
   A37        1.92915  -0.00027  -0.00023  -0.00174  -0.00200   1.92715
   A38        1.94648   0.00033   0.00224   0.01820   0.02043   1.96691
   A39        1.88895   0.00038  -0.00041  -0.00119  -0.00162   1.88733
   A40        1.89488   0.00012  -0.00079  -0.00562  -0.00639   1.88849
   A41        1.89828   0.00000  -0.00055  -0.00417  -0.00476   1.89352
    D1        0.01385  -0.00122   0.00678  -0.02157  -0.01468  -0.00083
    D2       -3.12523  -0.00153   0.00703  -0.03295  -0.02580   3.13216
    D3        3.11986   0.00219  -0.00500   0.07339   0.06827  -3.09505
    D4       -0.01921   0.00188  -0.00474   0.06202   0.05715   0.03794
    D5        0.03506   0.00150   0.00558   0.11497   0.12079   0.15585
    D6       -3.07626  -0.00134   0.01559   0.03447   0.04983  -3.02643
    D7        3.13840   0.00003   0.00012   0.00118   0.00130   3.13970
    D8       -0.00580   0.00034  -0.00014   0.01294   0.01280   0.00701
    D9        3.13010  -0.00036  -0.00000  -0.01647  -0.01645   3.11364
   D10       -0.00189  -0.00012  -0.00034  -0.00204  -0.00240  -0.00429
   D11        0.82094  -0.00031  -0.01270  -0.11836  -0.13105   0.68989
   D12        2.99354  -0.00029  -0.01226  -0.11329  -0.12554   2.86801
   D13       -1.22611  -0.00038  -0.01263  -0.11916  -0.13179  -1.35790
   D14       -2.32986  -0.00054  -0.01237  -0.13222  -0.14459  -2.47445
   D15       -0.15726  -0.00052  -0.01194  -0.12714  -0.13908  -0.29633
   D16        1.90627  -0.00061  -0.01231  -0.13301  -0.14533   1.76094
   D17       -3.00699  -0.00005   0.00211   0.01286   0.01497  -2.99202
   D18        1.16621  -0.00003   0.00176   0.01091   0.01267   1.17888
   D19       -0.88947   0.00001   0.00255   0.01818   0.02074  -0.86873
   D20        1.11216  -0.00006   0.00264   0.01486   0.01750   1.12966
   D21       -0.99783  -0.00004   0.00230   0.01291   0.01520  -0.98263
   D22       -3.05351   0.00000   0.00309   0.02017   0.02327  -3.03024
   D23       -0.93818   0.00011   0.00204   0.01596   0.01800  -0.92019
   D24       -3.04817   0.00012   0.00169   0.01401   0.01570  -3.03247
   D25        1.17933   0.00017   0.00249   0.02128   0.02376   1.20310
   D26        3.11716   0.00008  -0.00043  -0.00446  -0.00488   3.11229
   D27        1.00328   0.00013  -0.00108  -0.00950  -0.01058   0.99270
   D28       -1.07101   0.00014  -0.00017  -0.00195  -0.00210  -1.07312
   D29       -0.99884  -0.00013  -0.00068  -0.00377  -0.00444  -1.00329
   D30       -3.11272  -0.00007  -0.00133  -0.00881  -0.01015  -3.12287
   D31        1.09617  -0.00007  -0.00042  -0.00126  -0.00167   1.09449
   D32        1.04171  -0.00010  -0.00006  -0.00290  -0.00296   1.03874
   D33       -1.07217  -0.00005  -0.00071  -0.00794  -0.00867  -1.08084
   D34        3.13672  -0.00004   0.00020  -0.00039  -0.00019   3.13652
   D35       -1.72578   0.00165   0.01515   0.17377   0.18890  -1.53688
   D36        0.38731   0.00144   0.01473   0.17091   0.18566   0.57297
   D37        2.45138   0.00109   0.01386   0.16455   0.17841   2.62979
   D38        1.11452   0.00010   0.00371   0.02522   0.02893   1.14346
   D39       -0.96103   0.00014   0.00456   0.03149   0.03604  -0.92498
   D40       -3.07511   0.00010   0.00391   0.02568   0.02956  -3.04555
   D41       -1.00281  -0.00002   0.00348   0.01910   0.02259  -0.98022
   D42       -3.07836   0.00002   0.00433   0.02537   0.02970  -3.04866
   D43        1.09074  -0.00002   0.00368   0.01956   0.02321   1.11395
   D44       -3.08594  -0.00006   0.00371   0.02125   0.02498  -3.06096
   D45        1.12169  -0.00002   0.00456   0.02751   0.03209   1.15379
   D46       -0.99239  -0.00006   0.00391   0.02170   0.02561  -0.96678
         Item               Value     Threshold  Converged?
 Maximum Force            0.002634     0.000450     NO 
 RMS     Force            0.000774     0.000300     NO 
 Maximum Displacement     0.506149     0.001800     NO 
 RMS     Displacement     0.146316     0.001200     NO 
 Predicted change in Energy=-9.422614D-04
 GradGradGradGradGradGradGradGradGradGradGradGradGradGradGradGradGradGrad

                          Input orientation:                          
 ---------------------------------------------------------------------
 Center     Atomic      Atomic             Coordinates (Angstroms)
 Number     Number       Type             X           Y           Z
 ---------------------------------------------------------------------
      1          8           0        1.600249   -0.359339   -1.198150
      2          6           0        1.430791    0.145695   -0.103430
      3          6           0        0.238974    0.479827    0.600346
      4          7           0       -0.961400    0.229524    0.031066
      5          6           0       -2.094137    0.488597    0.577346
      6          6           0       -3.395764    0.207690   -0.148009
      7          6           0       -3.320227   -1.107927   -0.915344
      8          6           0       -4.563565    0.232423    0.830245
      9          8           0        2.547819    0.430995    0.686880
     10          6           0        3.784785    0.283473    0.060567
     11          6           0        4.294688   -1.141277    0.193909
     12          1           0        0.326488    0.928957    1.600193
     13          1           0       -2.159176    0.948124    1.591285
     14          1           0       -3.572222    1.008847   -0.900724
     15          1           0       -4.199561   -1.259945   -1.572916
     16          1           0       -3.257368   -1.960271   -0.209470
     17          1           0       -2.397339   -1.117184   -1.520143
     18          1           0       -5.535146    0.060357    0.329920
     19          1           0       -4.619368    1.198314    1.366816
     20          1           0       -4.434159   -0.555804    1.599730
     21          1           0        3.705273    0.536537   -1.006619
     22          1           0        4.481823    0.998523    0.537586
     23          1           0        3.619277   -1.814210   -0.363531
     24          1           0        4.293421   -1.453394    1.253357
     25          1           0        5.318995   -1.268083   -0.208489
 ---------------------------------------------------------------------
                    Distance matrix (angstroms):
                    1          2          3          4          5
     1  O    0.000000
     2  C    1.217451   0.000000
     3  C    2.406628   1.423859   0.000000
     4  N    2.901685   2.397436   1.351899   0.000000
     5  C    4.185674   3.606405   2.333241   1.283991   0.000000
     6  C    5.136581   4.827160   3.720943   2.441039   1.516339
     7  C    4.985122   4.980255   4.181649   2.872025   2.506054
     8  C    6.515917   6.067255   4.814400   3.689754   2.495528
     9  O    2.252966   1.397762   2.310983   3.575655   4.643606
    10  C    2.601879   2.363718   3.592032   4.746584   5.905155
    11  C    3.131974   3.153825   4.386569   5.434343   6.604589
    12  H    3.333601   2.176078   1.099577   2.147096   2.664500
    13  H    4.860420   4.050163   2.636738   2.094119   1.115109
    14  H    5.358624   5.139149   4.130168   2.879577   2.154086
    15  H    5.881270   5.986324   5.239319   3.908575   3.480493
    16  H    5.209310   5.140541   4.339848   3.181906   2.822966
    17  H    4.081509   4.272765   3.741265   2.506350   2.658933
    18  H    7.309241   6.979925   5.795649   4.586620   3.476371
    19  H    6.905720   6.314591   4.970633   4.012918   2.739298
    20  H    6.654382   6.147397   4.889731   3.890694   2.758939
    21  H    2.295737   2.478261   3.821098   4.790500   6.012022
    22  H    3.627677   3.232184   4.274898   5.520562   6.595821
    23  H    2.624827   2.949297   4.197394   5.031418   6.231474
    24  H    3.802633   3.548606   4.538976   5.651491   6.710381
    25  H    3.954025   4.138591   5.432865   6.460927   7.658850
                    6          7          8          9         10
     6  C    0.000000
     7  C    1.524912   0.000000
     8  C    1.523598   2.527748   0.000000
     9  O    6.006088   6.274502   7.115601   0.000000
    10  C    7.183978   7.305449   8.383911   1.394315   0.000000
    11  C    7.815349   7.695355   8.986692   2.401377   1.519110
    12  H    4.175117   4.875997   4.999060   2.452839   3.840171
    13  H    2.258879   3.443628   2.621544   4.820911   6.173778
    14  H    1.113359   2.131771   2.140525   6.348961   7.454918
    15  H    2.197817   1.108485   2.852165   7.313898   8.294588
    16  H    2.173243   1.108467   2.755915   6.342065   7.395892
    17  H    2.152881   1.103444   3.469625   5.632264   6.532927
    18  H    2.197061   2.796683   1.106301   8.099329   9.326492
    19  H    2.184774   3.494964   1.106331   7.240143   8.554122
    20  H    2.171585   2.805581   1.109124   7.110210   8.403835
    21  H    7.160314   7.215972   8.475863   2.053966   1.099659
    22  H    7.946813   8.210976   9.082489   2.021076   1.106665
    23  H    7.303789   6.997146   8.518962   2.700432   2.146515
    24  H    7.990406   7.924029   9.025918   2.630388   2.167525
    25  H    8.839038   8.669570  10.049651   3.371641   2.198526
                   11         12         13         14         15
    11  C    0.000000
    12  H    4.691494   0.000000
    13  H    6.926083   2.485754   0.000000
    14  H    8.228580   4.632592   2.865395   0.000000
    15  H    8.676868   5.945169   4.364734   2.448022   0.000000
    16  H    7.607037   4.946366   3.592702   3.064739   1.799213
    17  H    6.908096   4.619786   3.742085   2.506798   1.808638
    18  H    9.903942   6.060265   3.711650   2.503435   2.673530
    19  H    9.290307   4.958681   2.483047   2.504825   3.855035
    20  H    8.860693   4.986810   2.727162   3.073001   3.258302
    21  H    2.145633   4.285516   6.427307   7.293575   8.126159
    22  H    2.175288   4.289613   6.724262   8.181472   9.215277
    23  H    1.104427   4.714195   6.696441   7.744410   7.931208
    24  H    1.104467   4.640306   6.893293   8.518863   8.952987
    25  H    1.107794   5.746602   8.004612   9.204202   9.615854
                   16         17         18         19         20
    16  H    0.000000
    17  H    1.779974   0.000000
    18  H    3.092273   3.828207   0.000000
    19  H    3.783700   4.316651   1.791298   0.000000
    20  H    2.574990   3.767942   1.790041   1.779180   0.000000
    21  H    7.439615   6.343531   9.348713   8.681636   8.616068
    22  H    8.319112   7.485542  10.062950   9.141073   9.112563
    23  H    6.879921   6.166301   9.370077   8.941179   8.384260
    24  H    7.707865   7.250628   9.987237   9.299582   8.780449
    25  H    8.604250   7.828475  10.948379  10.360297   9.944898
                   21         22         23         24         25
    21  H    0.000000
    22  H    1.789143   0.000000
    23  H    2.438641   3.076925   0.000000
    24  H    3.068099   2.561195   1.788571   0.000000
    25  H    2.549071   2.528832   1.792019   1.795310   0.000000
 Stoichiometry    C8H14NO2(1-)
 Framework group  C1[X(C8H14NO2)]
 Deg. of freedom    69
 Full point group                 C1      NOp   1
 Largest Abelian subgroup         C1      NOp   1
 Largest concise Abelian subgroup C1      NOp   1
                         Standard orientation:                         
 ---------------------------------------------------------------------
 Center     Atomic      Atomic             Coordinates (Angstroms)
 Number     Number       Type             X           Y           Z
 ---------------------------------------------------------------------
      1          8           0       -1.663270    1.115240   -0.612925
      2          6           0       -1.470030   -0.038649   -0.276198
      3          6           0       -0.263123   -0.759596   -0.050398
      4          7           0        0.924676   -0.135420   -0.215226
      5          6           0        2.069028   -0.689656   -0.036584
      6          6           0        3.355788    0.075101   -0.278818
      7          6           0        3.236787    1.513601    0.213027
      8          6           0        4.532529   -0.651790    0.360137
      9          8           0       -2.571567   -0.850795    0.008010
     10          6           0       -3.817713   -0.311551   -0.308927
     11          6           0       -4.365878    0.506222    0.847990
     12          1           0       -0.329150   -1.811603    0.262638
     13          1           0        2.155905   -1.755307    0.280128
     14          1           0        3.547745    0.125098   -1.374364
     15          1           0        4.105630    2.132288   -0.088763
     16          1           0        3.156535    1.535330    1.318372
     17          1           0        2.308626    1.954034   -0.189621
     18          1           0        5.494428   -0.136625    0.177769
     19          1           0        4.620003   -1.687631   -0.018478
     20          1           0        4.388113   -0.721749    1.457591
     21          1           0       -3.740736    0.332161   -1.197161
     22          1           0       -4.490276   -1.157181   -0.548254
     23          1           0       -3.714479    1.384605    1.002531
     24          1           0       -4.363824   -0.091018    1.777048
     25          1           0       -5.396876    0.867880    0.665087
 ---------------------------------------------------------------------
 Rotational constants (GHZ):           3.6401514           0.3605723           0.3426373
 Standard basis: def2SVP (5D, 7F)
 There are   235 symmetry adapted cartesian basis functions of A   symmetry.
 There are   224 symmetry adapted basis functions of A   symmetry.
   224 basis functions,   373 primitive gaussians,   235 cartesian basis functions
    43 alpha electrons       43 beta electrons
       nuclear repulsion energy       594.8671417342 Hartrees.
 NAtoms=   25 NActive=   25 NUniq=   25 SFac= 1.00D+00 NAtFMM=   60 NAOKFM=F Big=F
 Integral buffers will be    131072 words long.
 Raffenetti 2 integral format.
 Two-electron integral symmetry is turned on.
 Nuclear repulsion after empirical dispersion term =      594.8663565263 Hartrees.
 One-electron integrals computed using PRISM.
   1 Symmetry operations used in ECPInt.
 ECPInt:  NShTT=    5886 NPrTT=   20688 LenC2=    5320 LenP2D=   13958.
 LDataN:  DoStor=T MaxTD1= 4 Len=   56
 NBasis=   224 RedAO= T EigKep=  1.29D-03  NBF=   224
 NBsUse=   224 1.00D-06 EigRej= -1.00D+00 NBFU=   224
 Initial guess from the checkpoint file:  "A18_crest_conformers_censo-14.chk"
 B after Tr=     0.000000    0.000000    0.000000
         Rot=    0.998340    0.057569   -0.001032   -0.001652 Ang=   6.60 deg.
 ExpMin= 1.22D-01 ExpMax= 2.27D+03 ExpMxC= 3.41D+02 IAcc=3 IRadAn=         5 AccDes= 0.00D+00
 Harris functional with IExCor= 1009 and IRadAn=       5 diagonalized for initial guess.
 HarFok:  IExCor= 1009 AccDes= 0.00D+00 IRadAn=         5 IDoV= 1 UseB2=F ITyADJ=14
 ICtDFT=  3500011 ScaDFX=  1.000000  1.000000  1.000000  1.000000
 FoFCou: FMM=F IPFlag=           0 FMFlag=      100000 FMFlg1=           0
         NFxFlg=           0 DoJE=T BraDBF=F KetDBF=T FulRan=T
         wScrn=  0.000000 ICntrl=       500 IOpCl=  0 I1Cent=   200000004 NGrid=           0
         NMat0=    1 NMatS0=      1 NMatT0=    0 NMatD0=    1 NMtDS0=    0 NMtDT0=    0
 Petite list used in FoFCou.
 Requested convergence on RMS density matrix=1.00D-08 within 128 cycles.
 Requested convergence on MAX density matrix=1.00D-06.
 Requested convergence on             energy=1.00D-06.
 No special actions if energy rises.
 Integral accuracy reduced to 1.0D-05 until final iterations.
 EnCoef did     1 forward-backward iterations
 Initial convergence to 1.0D-05 achieved.  Increase integral accuracy.
 SCF Done:  E(RM062X) =  -517.868360157     A.U. after   14 cycles
            NFock= 14  Conv=0.55D-08     -V/T= 2.0101
   1 Symmetry operations used in ECPInt.
 ECPInt:  NShTT=    5886 NPrTT=   20688 LenC2=    5320 LenP2D=   13958.
 LDataN:  DoStor=T MaxTD1= 5 Len=  102
 Calling FoFJK, ICntrl=      2127 FMM=F ISym2X=0 I1Cent= 0 IOpClX= 0 NMat=1 NMatS=1 NMatT=0.
 ***** Axes restored to original set *****
 -------------------------------------------------------------------
 Center     Atomic                   Forces (Hartrees/Bohr)
 Number     Number              X              Y              Z
 -------------------------------------------------------------------
      1        8           0.001427437   -0.002060458   -0.011767937
      2        6          -0.013819681   -0.000799288    0.015916243
      3        6           0.003438094   -0.003179791   -0.009165014
      4        7           0.002139785    0.001655080    0.002822359
      5        6           0.000790614   -0.000437922    0.001646819
      6        6           0.000719813    0.003038014   -0.000568601
      7        6           0.001024819   -0.004848968   -0.002332031
      8        6          -0.003994618   -0.001574139    0.004621744
      9        8           0.003979478    0.007112908    0.003809367
     10        6           0.004399847   -0.000251026   -0.000468157
     11        6           0.002620315   -0.008034755   -0.000978027
     12        1           0.000007530    0.000176719   -0.000414871
     13        1          -0.000781456   -0.000042618   -0.002555936
     14        1          -0.000592637   -0.000853150    0.001519302
     15        1           0.002225330    0.000727716    0.002018601
     16        1          -0.000340068    0.003053329   -0.002138131
     17        1          -0.002995256    0.000105794    0.001911946
     18        1           0.002464394    0.000683367    0.000705352
     19        1           0.000260129   -0.002218639   -0.002027499
     20        1          -0.000140519    0.002367838   -0.002970285
     21        1          -0.000168605    0.000488537   -0.000896309
     22        1          -0.001297352   -0.001824748    0.000319939
     23        1           0.001434580    0.003254593    0.001959039
     24        1           0.000286929    0.001468554   -0.002266551
     25        1          -0.003088899    0.001993052    0.001298639
 -------------------------------------------------------------------
 Cartesian Forces:  Max     0.015916243 RMS     0.003812376

 GradGradGradGradGradGradGradGradGradGradGradGradGradGradGradGradGradGrad
 Berny optimization.
 Using GEDIIS/GDIIS optimizer.
 FormGI is forming the generalized inverse of G from B-inverse, IUseBI=4.
 Internal  Forces:  Max     0.011634794 RMS     0.002108925
 Search for a local minimum.
 Step number   4 out of a maximum of  121
 All quantities printed in internal units (Hartrees-Bohrs-Radians)
 Mixed Optimization -- RFO/linear search
 Update second derivatives using D2CorX and points    3    4
 DE= -4.94D-04 DEPred=-9.42D-04 R= 5.25D-01
 TightC=F SS=  1.41D+00  RLast= 5.05D-01 DXNew= 1.2386D+00 1.5164D+00
 Trust test= 5.25D-01 RLast= 5.05D-01 DXMaxT set to 1.24D+00
 ITU=  1  1  1  0
 Use linear search instead of GDIIS.
     Eigenvalues ---    0.00297   0.00357   0.00379   0.00405   0.01088
     Eigenvalues ---    0.01223   0.01365   0.02291   0.02360   0.02478
     Eigenvalues ---    0.03287   0.03910   0.04879   0.05081   0.05363
     Eigenvalues ---    0.05379   0.05414   0.05632   0.05774   0.05796
     Eigenvalues ---    0.05804   0.05820   0.06493   0.11627   0.13742
     Eigenvalues ---    0.15821   0.15999   0.16000   0.16000   0.16000
     Eigenvalues ---    0.16000   0.16000   0.16000   0.16006   0.16120
     Eigenvalues ---    0.16281   0.17034   0.18122   0.21656   0.22319
     Eigenvalues ---    0.22751   0.24694   0.25070   0.25278   0.26767
     Eigenvalues ---    0.29391   0.29467   0.29813   0.32206   0.33252
     Eigenvalues ---    0.33531   0.33640   0.33674   0.33970   0.34661
     Eigenvalues ---    0.34752   0.34886   0.34906   0.34925   0.34970
     Eigenvalues ---    0.35097   0.35259   0.38455   0.41928   0.47334
     Eigenvalues ---    0.51843   0.60412   0.74441   0.97324
 RFO step:  Lambda=-1.09509844D-03 EMin= 2.96925449D-03
 Quartic linear search produced a step of -0.27830.
 Iteration  1 RMS(Cart)=  0.04101826 RMS(Int)=  0.00074686
 Iteration  2 RMS(Cart)=  0.00118758 RMS(Int)=  0.00003461
 Iteration  3 RMS(Cart)=  0.00000199 RMS(Int)=  0.00003461
 Iteration  4 RMS(Cart)=  0.00000000 RMS(Int)=  0.00003461
 Variable       Old X    -DE/DX   Delta X   Delta X   Delta X     New X
                                 (Linear)    (Quad)   (Total)
    R1        2.30065   0.01163   0.00223   0.00503   0.00726   2.30791
    R2        2.69070  -0.00728  -0.00589   0.00054  -0.00535   2.68536
    R3        2.64139   0.00896   0.01038  -0.00169   0.00869   2.65007
    R4        2.55472  -0.00212   0.00052  -0.00266  -0.00214   2.55258
    R5        2.07790  -0.00030   0.00036  -0.00110  -0.00074   2.07716
    R6        2.42639   0.00113  -0.00013   0.00172   0.00159   2.42799
    R7        2.86546   0.00073   0.00071   0.00134   0.00205   2.86752
    R8        2.10725  -0.00230  -0.00127  -0.00241  -0.00369   2.10356
    R9        2.88167   0.00110   0.00277  -0.00190   0.00086   2.88253
   R10        2.87918   0.00128   0.00160   0.00040   0.00201   2.88119
   R11        2.10394  -0.00155  -0.00198   0.00044  -0.00154   2.10241
   R12        2.09473  -0.00306  -0.00138  -0.00321  -0.00459   2.09014
   R13        2.09470  -0.00373  -0.00211  -0.00329  -0.00540   2.08930
   R14        2.08521  -0.00355  -0.00163  -0.00368  -0.00531   2.07990
   R15        2.09061  -0.00259  -0.00151  -0.00212  -0.00363   2.08697
   R16        2.09066  -0.00293  -0.00162  -0.00252  -0.00414   2.08652
   R17        2.09594  -0.00376  -0.00222  -0.00319  -0.00540   2.09054
   R18        2.63487   0.00449   0.00068   0.00592   0.00659   2.64147
   R19        2.87070   0.00166   0.00193   0.00041   0.00235   2.87305
   R20        2.07805   0.00099   0.00024   0.00142   0.00166   2.07972
   R21        2.09129  -0.00186  -0.00026  -0.00317  -0.00343   2.08786
   R22        2.08707  -0.00385  -0.00163  -0.00423  -0.00587   2.08120
   R23        2.08714  -0.00259  -0.00138  -0.00226  -0.00364   2.08350
   R24        2.09343  -0.00356  -0.00203  -0.00314  -0.00517   2.08826
    A1        2.28935  -0.00142   0.00240  -0.00817  -0.00592   2.28343
    A2        2.07356  -0.00078  -0.00110   0.00049  -0.00075   2.07281
    A3        1.91936   0.00232  -0.00118   0.00888   0.00756   1.92693
    A4        2.08476   0.00370   0.00599   0.00144   0.00744   2.09220
    A5        2.06994  -0.00188  -0.00306  -0.00075  -0.00381   2.06614
    A6        2.12845  -0.00182  -0.00292  -0.00071  -0.00362   2.12483
    A7        2.17342   0.00061  -0.00092   0.00430   0.00337   2.17679
    A8        2.11342   0.00153  -0.00006   0.00555   0.00547   2.11889
    A9        2.11936   0.00023   0.00081  -0.00055   0.00023   2.11959
   A10        2.05018  -0.00177  -0.00070  -0.00539  -0.00612   2.04406
   A11        1.93694   0.00001   0.00020   0.00113   0.00133   1.93827
   A12        1.92602   0.00086   0.00169   0.00102   0.00272   1.92873
   A13        1.90302  -0.00007  -0.00088   0.00395   0.00307   1.90610
   A14        1.95526  -0.00094  -0.00225  -0.00013  -0.00239   1.95287
   A15        1.86343   0.00040   0.00017   0.00015   0.00031   1.86373
   A16        1.87646  -0.00028   0.00105  -0.00625  -0.00520   1.87126
   A17        1.95792  -0.00055  -0.00077  -0.00106  -0.00184   1.95609
   A18        1.92386  -0.00035  -0.00103  -0.00021  -0.00124   1.92261
   A19        1.90125   0.00014  -0.00058   0.00213   0.00156   1.90281
   A20        1.89367   0.00033   0.00047  -0.00035   0.00011   1.89378
   A21        1.91472   0.00024  -0.00056   0.00232   0.00176   1.91648
   A22        1.87041   0.00023   0.00262  -0.00291  -0.00028   1.87013
   A23        1.96085  -0.00055  -0.00253   0.00152  -0.00101   1.95984
   A24        1.94361  -0.00052  -0.00093  -0.00054  -0.00147   1.94214
   A25        1.92249  -0.00038  -0.00065   0.00005  -0.00060   1.92189
   A26        1.88687   0.00031   0.00066  -0.00150  -0.00083   1.88603
   A27        1.88146   0.00053   0.00106   0.00059   0.00165   1.88311
   A28        1.86488   0.00072   0.00270  -0.00017   0.00253   1.86741
   A29        2.01905   0.00120   0.00226   0.00171   0.00398   2.02303
   A30        1.93647   0.00263  -0.00099   0.00930   0.00831   1.94478
   A31        1.92563  -0.00090  -0.00216   0.00339   0.00121   1.92683
   A32        1.87213  -0.00100   0.00324  -0.01057  -0.00731   1.86482
   A33        1.90211  -0.00042   0.00238  -0.00389  -0.00153   1.90059
   A34        1.93558  -0.00103  -0.00357   0.00107  -0.00249   1.93308
   A35        1.89142   0.00065   0.00110   0.00055   0.00165   1.89307
   A36        1.89851  -0.00117   0.00178  -0.00723  -0.00546   1.89306
   A37        1.92715  -0.00033   0.00056  -0.00242  -0.00186   1.92528
   A38        1.96691  -0.00188  -0.00569   0.00116  -0.00453   1.96237
   A39        1.88733   0.00094   0.00045   0.00446   0.00491   1.89224
   A40        1.88849   0.00170   0.00178   0.00464   0.00641   1.89490
   A41        1.89352   0.00090   0.00133  -0.00025   0.00108   1.89460
    D1       -0.00083   0.00153   0.00408   0.02850   0.03251   0.03168
    D2        3.13216   0.00174   0.00718   0.02656   0.03367  -3.11735
    D3       -3.09505  -0.00175  -0.01900  -0.00313  -0.02206  -3.11711
    D4        0.03794  -0.00154  -0.01591  -0.00506  -0.02090   0.01704
    D5        0.15585  -0.00240  -0.03361  -0.02093  -0.05470   0.10115
    D6       -3.02643   0.00039  -0.01387   0.00592  -0.00779  -3.03422
    D7        3.13970  -0.00019  -0.00036  -0.00407  -0.00443   3.13527
    D8        0.00701  -0.00041  -0.00356  -0.00207  -0.00563   0.00137
    D9        3.11364  -0.00003   0.00458  -0.01390  -0.00934   3.10430
   D10       -0.00429   0.00023   0.00067   0.00608   0.00677   0.00247
   D11        0.68989   0.00002   0.03647  -0.10363  -0.06717   0.62272
   D12        2.86801  -0.00055   0.03494  -0.10225  -0.06733   2.80068
   D13       -1.35790  -0.00043   0.03668  -0.10688  -0.07021  -1.42811
   D14       -2.47445  -0.00019   0.04024  -0.12278  -0.08253  -2.55699
   D15       -0.29633  -0.00077   0.03871  -0.12141  -0.08269  -0.37903
   D16        1.76094  -0.00065   0.04045  -0.12603  -0.08558   1.67536
   D17       -2.99202   0.00000  -0.00417   0.00546   0.00130  -2.99072
   D18        1.17888   0.00020  -0.00353   0.00678   0.00325   1.18213
   D19       -0.86873   0.00005  -0.00577   0.00916   0.00339  -0.86534
   D20        1.12966  -0.00044  -0.00487   0.00339  -0.00148   1.12818
   D21       -0.98263  -0.00025  -0.00423   0.00471   0.00048  -0.98215
   D22       -3.03024  -0.00040  -0.00648   0.00709   0.00062  -3.02963
   D23       -0.92019   0.00017  -0.00501   0.01093   0.00593  -0.91426
   D24       -3.03247   0.00036  -0.00437   0.01225   0.00789  -3.02459
   D25        1.20310   0.00021  -0.00661   0.01464   0.00802   1.21112
   D26        3.11229  -0.00007   0.00136  -0.00671  -0.00536   3.10692
   D27        0.99270   0.00029   0.00294  -0.00545  -0.00251   0.99019
   D28       -1.07312  -0.00003   0.00059  -0.00493  -0.00435  -1.07747
   D29       -1.00329  -0.00009   0.00124  -0.00459  -0.00336  -1.00664
   D30       -3.12287   0.00027   0.00282  -0.00333  -0.00051  -3.12338
   D31        1.09449  -0.00005   0.00047  -0.00281  -0.00235   1.09215
   D32        1.03874  -0.00030   0.00082  -0.00832  -0.00749   1.03126
   D33       -1.08084   0.00006   0.00241  -0.00706  -0.00464  -1.08548
   D34        3.13652  -0.00026   0.00005  -0.00654  -0.00648   3.13005
   D35       -1.53688   0.00034  -0.05257   0.12078   0.06820  -1.46868
   D36        0.57297   0.00096  -0.05167   0.12429   0.07263   0.64560
   D37        2.62979   0.00067  -0.04965   0.12065   0.07100   2.70079
   D38        1.14346   0.00009  -0.00805   0.00643  -0.00162   1.14184
   D39       -0.92498  -0.00016  -0.01003   0.00682  -0.00320  -0.92818
   D40       -3.04555   0.00023  -0.00823   0.00808  -0.00013  -3.04568
   D41       -0.98022  -0.00021  -0.00629  -0.00118  -0.00747  -0.98769
   D42       -3.04866  -0.00045  -0.00827  -0.00078  -0.00905  -3.05771
   D43        1.11395  -0.00007  -0.00646   0.00048  -0.00598   1.10798
   D44       -3.06096  -0.00012  -0.00695  -0.00006  -0.00703  -3.06798
   D45        1.15379  -0.00037  -0.00893   0.00033  -0.00860   1.14518
   D46       -0.96678   0.00002  -0.00713   0.00159  -0.00554  -0.97232
         Item               Value     Threshold  Converged?
 Maximum Force            0.011635     0.000450     NO 
 RMS     Force            0.002109     0.000300     NO 
 Maximum Displacement     0.144804     0.001800     NO 
 RMS     Displacement     0.040945     0.001200     NO 
 Predicted change in Energy=-6.343307D-04
 GradGradGradGradGradGradGradGradGradGradGradGradGradGradGradGradGradGrad

                          Input orientation:                          
 ---------------------------------------------------------------------
 Center     Atomic      Atomic             Coordinates (Angstroms)
 Number     Number       Type             X           Y           Z
 ---------------------------------------------------------------------
      1          8           0        1.598922   -0.411452   -1.174288
      2          6           0        1.431446    0.125559   -0.090253
      3          6           0        0.239461    0.497428    0.588133
      4          7           0       -0.962397    0.224603    0.035258
      5          6           0       -2.095448    0.512096    0.568498
      6          6           0       -3.402375    0.213187   -0.142255
      7          6           0       -3.310044   -1.086487   -0.935394
      8          6           0       -4.558225    0.191618    0.851794
      9          8           0        2.556331    0.472689    0.671813
     10          6           0        3.795502    0.280330    0.054309
     11          6           0        4.275484   -1.154157    0.207075
     12          1           0        0.327443    0.998401    1.562554
     13          1           0       -2.159819    1.024751    1.554482
     14          1           0       -3.613787    1.022721   -0.875547
     15          1           0       -4.194717   -1.243584   -1.580403
     16          1           0       -3.220161   -1.947186   -0.247287
     17          1           0       -2.398151   -1.066827   -1.551397
     18          1           0       -5.530396    0.010979    0.359957
     19          1           0       -4.627073    1.143575    1.406917
     20          1           0       -4.401879   -0.608297    1.599800
     21          1           0        3.731809    0.522632   -1.017333
     22          1           0        4.502993    0.982779    0.530454
     23          1           0        3.586172   -1.813151   -0.343823
     24          1           0        4.265887   -1.449868    1.269177
     25          1           0        5.296171   -1.301889   -0.189821
 ---------------------------------------------------------------------
                    Distance matrix (angstroms):
                    1          2          3          4          5
     1  O    0.000000
     2  C    1.221294   0.000000
     3  C    2.404231   1.421029   0.000000
     4  N    2.903089   2.399177   1.350765   0.000000
     5  C    4.187913   3.608648   2.335037   1.284835   0.000000
     6  C    5.144729   4.834895   3.725215   2.446453   1.517424
     7  C    4.960916   4.966392   4.174794   2.858770   2.508467
     8  C    6.509927   6.063660   4.814646   3.687518   2.499646
     9  O    2.259740   1.402359   2.318513   3.584438   4.653093
    10  C    2.610168   2.373524   3.602434   4.758264   5.917888
    11  C    3.102219   3.132831   4.377490   5.419031   6.595134
    12  H    3.330863   2.170818   1.099187   2.143615   2.663651
    13  H    4.861789   4.051035   2.639780   2.093346   1.113159
    14  H    5.414650   5.184203   4.155214   2.914863   2.156701
    15  H    5.867164   5.979030   5.234080   3.900490   3.479529
    16  H    5.142117   5.094936   4.317759   3.145472   2.824634
    17  H    4.067963   4.268787   3.739182   2.499331   2.660561
    18  H    7.304760   6.977324   5.794820   4.584503   3.477567
    19  H    6.916916   6.323252   4.977053   4.019428   2.740590
    20  H    6.613919   6.117393   4.877308   3.869308   2.763782
    21  H    2.333744   2.511736   3.843782   4.819995   6.039197
    22  H    3.644675   3.248770   4.291457   5.539905   6.615316
    23  H    2.569746   2.909594   4.172265   4.998562   6.206441
    24  H    3.763182   3.516260   4.524146   5.626844   6.693791
    25  H    3.928321   4.121119   5.423382   6.445969   7.648635
                    6          7          8          9         10
     6  C    0.000000
     7  C    1.525368   0.000000
     8  C    1.524660   2.526965   0.000000
     9  O    6.019653   6.279212   7.122380   0.000000
    10  C    7.200873   7.303183   8.392175   1.397805   0.000000
    11  C    7.806483   7.671379   8.958860   2.412073   1.520353
    12  H    4.175461   4.880350   5.002582   2.457181   3.849398
    13  H    2.254218   3.461189   2.634432   4.829694   6.186318
    14  H    1.112546   2.131807   2.136914   6.384921   7.504222
    15  H    2.195053   1.106057   2.847372   7.320841   8.296878
    16  H    2.170586   1.105609   2.751887   6.329960   7.366974
    17  H    2.152344   1.100634   3.467698   5.644437   6.538690
    18  H    2.195809   2.795054   1.104378   8.105897   9.334792
    19  H    2.182989   3.492014   1.104139   7.252017   8.574060
    20  H    2.169931   2.801424   1.106265   7.102561   8.388996
    21  H    7.194311   7.223828   8.504579   2.058509   1.100538
    22  H    7.971176   8.214264   9.101366   2.017342   1.104850
    23  H    7.279180   6.959583   8.472296   2.705023   2.141259
    24  H    7.972461   7.898539   8.985190   2.641146   2.165815
    25  H    8.829633   8.641135  10.021209   3.376131   2.194316
                   11         12         13         14         15
    11  C    0.000000
    12  H    4.696580   0.000000
    13  H    6.926490   2.487414   0.000000
    14  H    8.255390   4.634460   2.831796   0.000000
    15  H    8.657215   5.945974   4.371917   2.443449   0.000000
    16  H    7.551161   4.953534   3.633608   3.061046   1.794997
    17  H    6.901975   4.625011   3.752064   2.510131   1.805473
    18  H    9.876041   6.060983   3.716909   2.494690   2.668888
    19  H    9.272255   4.959085   2.474518   2.500198   3.848317
    20  H    8.805354   4.994932   2.774119   3.067353   3.249646
    21  H    2.146248   4.297893   6.448072   7.363965   8.140417
    22  H    2.173207   4.301244   6.741176   8.237752   9.222937
    23  H    1.101323   4.707273   6.683835   7.756565   7.899099
    24  H    1.102541   4.646659   6.891650   8.532456   8.929976
    25  H    1.105058   5.748949   8.002976   9.233709   9.592396
                   16         17         18         19         20
    16  H    0.000000
    17  H    1.775228   0.000000
    18  H    3.088744   3.824382   0.000000
    19  H    3.777380   4.313420   1.787426   0.000000
    20  H    2.569205   3.762342   1.787250   1.776788   0.000000
    21  H    7.417740   6.355157   9.378015   8.725449   8.618891
    22  H    8.296788   7.494050  10.081783   9.173448   9.108884
    23  H    6.808337   6.150395   9.323870   8.903073   8.308929
    24  H    7.654274   7.246501   9.946251   9.264430   8.714799
    25  H    8.540938   7.817400  10.919726  10.344111   9.886151
                   21         22         23         24         25
    21  H    0.000000
    22  H    1.789442   0.000000
    23  H    2.435305   3.069551   0.000000
    24  H    3.066615   2.553371   1.787668   0.000000
    25  H    2.541827   2.523417   1.791425   1.792222   0.000000
 Stoichiometry    C8H14NO2(1-)
 Framework group  C1[X(C8H14NO2)]
 Deg. of freedom    69
 Full point group                 C1      NOp   1
 Largest Abelian subgroup         C1      NOp   1
 Largest concise Abelian subgroup C1      NOp   1
                         Standard orientation:                         
 ---------------------------------------------------------------------
 Center     Atomic      Atomic             Coordinates (Angstroms)
 Number     Number       Type             X           Y           Z
 ---------------------------------------------------------------------
      1          8           0       -1.662392    1.124391   -0.574321
      2          6           0       -1.470556   -0.038469   -0.254140
      3          6           0       -0.262794   -0.762766   -0.064332
      4          7           0        0.926125   -0.138226   -0.209213
      5          6           0        2.071360   -0.699463   -0.053491
      6          6           0        3.363191    0.063101   -0.282060
      7          6           0        3.227868    1.516007    0.162351
      8          6           0        4.526694   -0.637316    0.410950
      9          8           0       -2.578633   -0.866848   -0.024871
     10          6           0       -3.828046   -0.308319   -0.309248
     11          6           0       -4.346278    0.516716    0.857896
     12          1           0       -0.328271   -1.826113    0.206255
     13          1           0        2.158597   -1.775400    0.218304
     14          1           0        3.590524    0.080069   -1.371000
     15          1           0        4.102135    2.124795   -0.134962
     16          1           0        3.120195    1.569808    1.261389
     17          1           0        2.311490    1.940987   -0.274729
     18          1           0        5.489116   -0.125310    0.234194
     19          1           0        4.626804   -1.682164    0.068323
     20          1           0        4.354800   -0.670294    1.503281
     21          1           0       -3.767082    0.334231   -1.200650
     22          1           0       -4.511562   -1.148020   -0.529246
     23          1           0       -3.680385    1.383064    0.995516
     24          1           0       -4.335550   -0.081448    1.784008
     25          1           0       -5.374121    0.886083    0.689791
 ---------------------------------------------------------------------
 Rotational constants (GHZ):           3.6233917           0.3611012           0.3428005
 Standard basis: def2SVP (5D, 7F)
 There are   235 symmetry adapted cartesian basis functions of A   symmetry.
 There are   224 symmetry adapted basis functions of A   symmetry.
   224 basis functions,   373 primitive gaussians,   235 cartesian basis functions
    43 alpha electrons       43 beta electrons
       nuclear repulsion energy       594.7188401658 Hartrees.
 NAtoms=   25 NActive=   25 NUniq=   25 SFac= 1.00D+00 NAtFMM=   60 NAOKFM=F Big=F
 Integral buffers will be    131072 words long.
 Raffenetti 2 integral format.
 Two-electron integral symmetry is turned on.
 Nuclear repulsion after empirical dispersion term =      594.7180553987 Hartrees.
 One-electron integrals computed using PRISM.
   1 Symmetry operations used in ECPInt.
 ECPInt:  NShTT=    5886 NPrTT=   20688 LenC2=    5318 LenP2D=   13950.
 LDataN:  DoStor=T MaxTD1= 4 Len=   56
 NBasis=   224 RedAO= T EigKep=  1.28D-03  NBF=   224
 NBsUse=   224 1.00D-06 EigRej= -1.00D+00 NBFU=   224
 Initial guess from the checkpoint file:  "A18_crest_conformers_censo-14.chk"
 B after Tr=    -0.000000   -0.000000    0.000000
         Rot=    0.999995    0.003073   -0.000080    0.000117 Ang=   0.35 deg.
 ExpMin= 1.22D-01 ExpMax= 2.27D+03 ExpMxC= 3.41D+02 IAcc=3 IRadAn=         5 AccDes= 0.00D+00
 Harris functional with IExCor= 1009 and IRadAn=       5 diagonalized for initial guess.
 HarFok:  IExCor= 1009 AccDes= 0.00D+00 IRadAn=         5 IDoV= 1 UseB2=F ITyADJ=14
 ICtDFT=  3500011 ScaDFX=  1.000000  1.000000  1.000000  1.000000
 FoFCou: FMM=F IPFlag=           0 FMFlag=      100000 FMFlg1=           0
         NFxFlg=           0 DoJE=T BraDBF=F KetDBF=T FulRan=T
         wScrn=  0.000000 ICntrl=       500 IOpCl=  0 I1Cent=   200000004 NGrid=           0
         NMat0=    1 NMatS0=      1 NMatT0=    0 NMatD0=    1 NMtDS0=    0 NMtDT0=    0
 Petite list used in FoFCou.
 Requested convergence on RMS density matrix=1.00D-08 within 128 cycles.
 Requested convergence on MAX density matrix=1.00D-06.
 Requested convergence on             energy=1.00D-06.
 No special actions if energy rises.
 Integral accuracy reduced to 1.0D-05 until final iterations.
 Initial convergence to 1.0D-05 achieved.  Increase integral accuracy.
 SCF Done:  E(RM062X) =  -517.869273137     A.U. after   13 cycles
            NFock= 13  Conv=0.45D-08     -V/T= 2.0101
   1 Symmetry operations used in ECPInt.
 ECPInt:  NShTT=    5886 NPrTT=   20688 LenC2=    5318 LenP2D=   13950.
 LDataN:  DoStor=T MaxTD1= 5 Len=  102
 Calling FoFJK, ICntrl=      2127 FMM=F ISym2X=0 I1Cent= 0 IOpClX= 0 NMat=1 NMatS=1 NMatT=0.
 ***** Axes restored to original set *****
 -------------------------------------------------------------------
 Center     Atomic                   Forces (Hartrees/Bohr)
 Number     Number              X              Y              Z
 -------------------------------------------------------------------
      1        8           0.001599868   -0.002589169   -0.005247209
      2        6          -0.009130353    0.003758755    0.006416796
      3        6           0.003456577   -0.003550010   -0.004924102
      4        7           0.000231193    0.000544880    0.001852067
      5        6           0.001221058   -0.000345268   -0.000051106
      6        6           0.000936865    0.001953858   -0.000447712
      7        6           0.000790897   -0.002843462   -0.001466592
      8        6          -0.002346031   -0.001377029    0.003425919
      9        8           0.002476782    0.003663620    0.002655435
     10        6           0.001502899   -0.000599092   -0.000486215
     11        6           0.001072244   -0.005233231   -0.000286457
     12        1           0.000052304    0.000064297    0.000214855
     13        1          -0.000594963    0.000218567   -0.001327444
     14        1          -0.000316158   -0.000266329    0.000999863
     15        1           0.001150982    0.000600269    0.001200111
     16        1          -0.000145356    0.001747931   -0.001068689
     17        1          -0.001522213   -0.000116182    0.001004079
     18        1           0.001383637    0.000479449    0.000086084
     19        1           0.000157650   -0.001021937   -0.001185835
     20        1          -0.000072505    0.001279750   -0.001667293
     21        1          -0.000381329    0.000487491   -0.000624611
     22        1          -0.000904347   -0.000952213    0.000364168
     23        1           0.000775638    0.001643950    0.001139535
     24        1           0.000251286    0.000862262   -0.001162304
     25        1          -0.001646626    0.001588842    0.000586654
 -------------------------------------------------------------------
 Cartesian Forces:  Max     0.009130353 RMS     0.002193079

 GradGradGradGradGradGradGradGradGradGradGradGradGradGradGradGradGradGrad
 Berny optimization.
 Using GEDIIS/GDIIS optimizer.
 FormGI is forming the generalized inverse of G from B-inverse, IUseBI=4.
 Internal  Forces:  Max     0.006015005 RMS     0.001199695
 Search for a local minimum.
 Step number   5 out of a maximum of  121
 All quantities printed in internal units (Hartrees-Bohrs-Radians)
 Mixed Optimization -- RFO/linear search
 Update second derivatives using D2CorX and points    4    5
 DE= -9.13D-04 DEPred=-6.34D-04 R= 1.44D+00
 TightC=F SS=  1.41D+00  RLast= 2.41D-01 DXNew= 2.0830D+00 7.2281D-01
 Trust test= 1.44D+00 RLast= 2.41D-01 DXMaxT set to 1.24D+00
 ITU=  1  1  1  1  0
 Use linear search instead of GDIIS.
     Eigenvalues ---    0.00235   0.00354   0.00370   0.00405   0.01015
     Eigenvalues ---    0.01179   0.01372   0.02296   0.02361   0.02478
     Eigenvalues ---    0.03292   0.03904   0.04904   0.05022   0.05358
     Eigenvalues ---    0.05413   0.05426   0.05617   0.05753   0.05781
     Eigenvalues ---    0.05805   0.05833   0.08237   0.11684   0.13582
     Eigenvalues ---    0.15128   0.15908   0.15998   0.16000   0.16000
     Eigenvalues ---    0.16000   0.16000   0.16000   0.16004   0.16066
     Eigenvalues ---    0.16119   0.17005   0.18052   0.20975   0.21709
     Eigenvalues ---    0.22335   0.24803   0.24944   0.25176   0.27188
     Eigenvalues ---    0.29282   0.29419   0.29647   0.32412   0.33269
     Eigenvalues ---    0.33464   0.33546   0.33657   0.33901   0.34662
     Eigenvalues ---    0.34750   0.34880   0.34893   0.34911   0.34953
     Eigenvalues ---    0.35096   0.35241   0.36702   0.39034   0.46360
     Eigenvalues ---    0.49027   0.59320   0.74923   0.90098
 RFO step:  Lambda=-8.89468943D-04 EMin= 2.34942750D-03
 Quartic linear search produced a step of  0.83069.
 Iteration  1 RMS(Cart)=  0.13249054 RMS(Int)=  0.00487534
 Iteration  2 RMS(Cart)=  0.00974998 RMS(Int)=  0.00006816
 Iteration  3 RMS(Cart)=  0.00005034 RMS(Int)=  0.00006448
 Iteration  4 RMS(Cart)=  0.00000000 RMS(Int)=  0.00006448
 Variable       Old X    -DE/DX   Delta X   Delta X   Delta X     New X
                                 (Linear)    (Quad)   (Total)
    R1        2.30791   0.00602   0.00603   0.00550   0.01153   2.31945
    R2        2.68536  -0.00597  -0.00444  -0.01275  -0.01720   2.66816
    R3        2.65007   0.00408   0.00722   0.00590   0.01311   2.66319
    R4        2.55258  -0.00150  -0.00178  -0.00199  -0.00377   2.54881
    R5        2.07716   0.00022  -0.00061   0.00190   0.00129   2.07845
    R6        2.42799  -0.00071   0.00132  -0.00204  -0.00071   2.42727
    R7        2.86752  -0.00051   0.00170  -0.00319  -0.00148   2.86603
    R8        2.10356  -0.00104  -0.00306  -0.00174  -0.00480   2.09876
    R9        2.88253   0.00071   0.00072   0.00274   0.00346   2.88598
   R10        2.88119   0.00110   0.00167   0.00484   0.00651   2.88770
   R11        2.10241  -0.00079  -0.00128  -0.00139  -0.00266   2.09974
   R12        2.09014  -0.00171  -0.00381  -0.00356  -0.00737   2.08277
   R13        2.08930  -0.00204  -0.00449  -0.00429  -0.00877   2.08053
   R14        2.07990  -0.00182  -0.00441  -0.00343  -0.00784   2.07205
   R15        2.08697  -0.00133  -0.00302  -0.00237  -0.00539   2.08158
   R16        2.08652  -0.00149  -0.00344  -0.00256  -0.00600   2.08052
   R17        2.09054  -0.00206  -0.00449  -0.00435  -0.00884   2.08170
   R18        2.64147   0.00110   0.00548  -0.00024   0.00524   2.64671
   R19        2.87305   0.00124   0.00195   0.00447   0.00642   2.87947
   R20        2.07972   0.00074   0.00138   0.00308   0.00446   2.08418
   R21        2.08786  -0.00103  -0.00285  -0.00253  -0.00538   2.08249
   R22        2.08120  -0.00204  -0.00487  -0.00443  -0.00931   2.07189
   R23        2.08350  -0.00135  -0.00302  -0.00238  -0.00540   2.07810
   R24        2.08826  -0.00194  -0.00430  -0.00405  -0.00835   2.07991
    A1        2.28343   0.00069  -0.00492   0.00819   0.00292   2.28635
    A2        2.07281  -0.00112  -0.00063  -0.00766  -0.00865   2.06416
    A3        1.92693   0.00043   0.00628  -0.00035   0.00558   1.93250
    A4        2.09220   0.00214   0.00618   0.00855   0.01472   2.10692
    A5        2.06614  -0.00110  -0.00316  -0.00455  -0.00771   2.05843
    A6        2.12483  -0.00103  -0.00301  -0.00399  -0.00700   2.11783
    A7        2.17679  -0.00057   0.00280  -0.00401  -0.00121   2.17558
    A8        2.11889   0.00085   0.00454   0.00469   0.00919   2.12808
    A9        2.11959   0.00030   0.00019   0.00216   0.00231   2.12190
   A10        2.04406  -0.00115  -0.00508  -0.00669  -0.01181   2.03225
   A11        1.93827  -0.00004   0.00110   0.00002   0.00112   1.93939
   A12        1.92873   0.00047   0.00226   0.00120   0.00346   1.93219
   A13        1.90610  -0.00007   0.00255   0.00069   0.00325   1.90935
   A14        1.95287  -0.00055  -0.00199  -0.00346  -0.00545   1.94741
   A15        1.86373   0.00032   0.00026   0.00370   0.00391   1.86765
   A16        1.87126  -0.00013  -0.00432  -0.00206  -0.00638   1.86488
   A17        1.95609  -0.00065  -0.00153  -0.00551  -0.00705   1.94904
   A18        1.92261  -0.00030  -0.00103  -0.00298  -0.00403   1.91858
   A19        1.90281   0.00032   0.00129   0.00444   0.00574   1.90855
   A20        1.89378   0.00038   0.00009   0.00185   0.00191   1.89570
   A21        1.91648   0.00021   0.00146   0.00250   0.00398   1.92045
   A22        1.87013   0.00006  -0.00023  -0.00008  -0.00030   1.86982
   A23        1.95984  -0.00068  -0.00084  -0.00673  -0.00760   1.95224
   A24        1.94214  -0.00032  -0.00122  -0.00186  -0.00310   1.93904
   A25        1.92189  -0.00022  -0.00050  -0.00004  -0.00053   1.92136
   A26        1.88603   0.00031  -0.00069  -0.00033  -0.00107   1.88497
   A27        1.88311   0.00050   0.00137   0.00402   0.00539   1.88851
   A28        1.86741   0.00052   0.00210   0.00570   0.00780   1.87521
   A29        2.02303  -0.00196   0.00330  -0.01783  -0.01453   2.00850
   A30        1.94478   0.00160   0.00690   0.00617   0.01305   1.95784
   A31        1.92683  -0.00083   0.00100  -0.00428  -0.00337   1.92346
   A32        1.86482  -0.00068  -0.00607  -0.00699  -0.01304   1.85178
   A33        1.90059   0.00009  -0.00127   0.00621   0.00491   1.90550
   A34        1.93308  -0.00061  -0.00207  -0.00418  -0.00620   1.92689
   A35        1.89307   0.00038   0.00137   0.00270   0.00406   1.89713
   A36        1.89306  -0.00034  -0.00453   0.00099  -0.00357   1.88949
   A37        1.92528  -0.00019  -0.00155  -0.00168  -0.00329   1.92199
   A38        1.96237  -0.00177  -0.00377  -0.01520  -0.01905   1.94333
   A39        1.89224   0.00049   0.00408   0.00548   0.00956   1.90179
   A40        1.89490   0.00115   0.00532   0.00932   0.01461   1.90950
   A41        1.89460   0.00076   0.00090   0.00197   0.00274   1.89734
    D1        0.03168  -0.00029   0.02701  -0.02177   0.00522   0.03690
    D2       -3.11735  -0.00029   0.02797  -0.02037   0.00758  -3.10977
    D3       -3.11711   0.00021  -0.01832   0.00960  -0.00871  -3.12582
    D4        0.01704   0.00022  -0.01736   0.01100  -0.00635   0.01069
    D5        0.10115  -0.00073  -0.04544  -0.08120  -0.12668  -0.02552
    D6       -3.03422  -0.00118  -0.00647  -0.10835  -0.11478   3.13418
    D7        3.13527  -0.00000  -0.00368   0.00197  -0.00171   3.13356
    D8        0.00137  -0.00000  -0.00468   0.00052  -0.00416  -0.00278
    D9        3.10430   0.00008  -0.00776   0.00877   0.00097   3.10527
   D10        0.00247   0.00015   0.00562   0.00410   0.00976   0.01224
   D11        0.62272  -0.00016  -0.05579  -0.08063  -0.13644   0.48629
   D12        2.80068  -0.00056  -0.05593  -0.08421  -0.14015   2.66053
   D13       -1.42811  -0.00049  -0.05832  -0.08559  -0.14392  -1.57204
   D14       -2.55699  -0.00019  -0.06856  -0.07598  -0.14452  -2.70151
   D15       -0.37903  -0.00060  -0.06869  -0.07956  -0.14824  -0.52727
   D16        1.67536  -0.00052  -0.07109  -0.08094  -0.15201   1.52335
   D17       -2.99072  -0.00007   0.00108  -0.00873  -0.00764  -2.99837
   D18        1.18213   0.00009   0.00270  -0.00532  -0.00263   1.17951
   D19       -0.86534  -0.00000   0.00282  -0.00612  -0.00331  -0.86865
   D20        1.12818  -0.00024  -0.00123  -0.00776  -0.00898   1.11920
   D21       -0.98215  -0.00008   0.00040  -0.00435  -0.00396  -0.98611
   D22       -3.02963  -0.00017   0.00051  -0.00515  -0.00465  -3.03427
   D23       -0.91426   0.00003   0.00493  -0.00564  -0.00069  -0.91495
   D24       -3.02459   0.00018   0.00655  -0.00222   0.00433  -3.02026
   D25        1.21112   0.00009   0.00667  -0.00303   0.00364   1.21477
   D26        3.10692  -0.00007  -0.00445  -0.00963  -0.01407   3.09285
   D27        0.99019   0.00025  -0.00209  -0.00312  -0.00522   0.98496
   D28       -1.07747  -0.00005  -0.00361  -0.00902  -0.01263  -1.09010
   D29       -1.00664  -0.00018  -0.00279  -0.01123  -0.01402  -1.02067
   D30       -3.12338   0.00014  -0.00042  -0.00473  -0.00517  -3.12856
   D31        1.09215  -0.00016  -0.00195  -0.01062  -0.01258   1.07956
   D32        1.03126  -0.00017  -0.00622  -0.00990  -0.01609   1.01516
   D33       -1.08548   0.00015  -0.00385  -0.00340  -0.00725  -1.09273
   D34        3.13005  -0.00015  -0.00538  -0.00929  -0.01465   3.11539
   D35       -1.46868  -0.00003   0.05666   0.00937   0.06601  -1.40268
   D36        0.64560   0.00060   0.06033   0.01846   0.07877   0.72437
   D37        2.70079   0.00021   0.05898   0.01534   0.07436   2.77515
   D38        1.14184   0.00004  -0.00135  -0.01925  -0.02058   1.12125
   D39       -0.92818  -0.00023  -0.00266  -0.02552  -0.02812  -0.95630
   D40       -3.04568   0.00014  -0.00011  -0.01644  -0.01655  -3.06223
   D41       -0.98769  -0.00002  -0.00620  -0.02209  -0.02833  -1.01602
   D42       -3.05771  -0.00029  -0.00752  -0.02835  -0.03586  -3.09357
   D43        1.10798   0.00009  -0.00497  -0.01928  -0.02429   1.08368
   D44       -3.06798  -0.00017  -0.00584  -0.02677  -0.03262  -3.10060
   D45        1.14518  -0.00045  -0.00715  -0.03304  -0.04016   1.10503
   D46       -0.97232  -0.00007  -0.00460  -0.02396  -0.02859  -1.00090
         Item               Value     Threshold  Converged?
 Maximum Force            0.006015     0.000450     NO 
 RMS     Force            0.001200     0.000300     NO 
 Maximum Displacement     0.341260     0.001800     NO 
 RMS     Displacement     0.132967     0.001200     NO 
 Predicted change in Energy=-7.148569D-04
 GradGradGradGradGradGradGradGradGradGradGradGradGradGradGradGradGradGrad

                          Input orientation:                          
 ---------------------------------------------------------------------
 Center     Atomic      Atomic             Coordinates (Angstroms)
 Number     Number       Type             X           Y           Z
 ---------------------------------------------------------------------
      1          8           0        1.611029   -0.410779   -1.202100
      2          6           0        1.434827    0.182101   -0.141934
      3          6           0        0.247428    0.571295    0.515453
      4          7           0       -0.959355    0.259842   -0.000156
      5          6           0       -2.084655    0.567654    0.537230
      6          6           0       -3.407819    0.226039   -0.120594
      7          6           0       -3.280106   -1.014768   -1.001740
      8          6           0       -4.505904    0.059409    0.928951
      9          8           0        2.567376    0.596644    0.587181
     10          6           0        3.799286    0.248101    0.019257
     11          6           0        4.178307   -1.198650    0.310926
     12          1           0        0.339797    1.129236    1.458787
     13          1           0       -2.138081    1.139298    1.487934
     14          1           0       -3.718421    1.063473   -0.781543
     15          1           0       -4.192070   -1.187532   -1.596065
     16          1           0       -3.094949   -1.901704   -0.376287
     17          1           0       -2.414908   -0.901407   -1.665710
     18          1           0       -5.486353   -0.140602    0.468434
     19          1           0       -4.600110    0.962988    1.550877
     20          1           0       -4.263418   -0.779671    1.600250
     21          1           0        3.772825    0.402650   -1.072438
     22          1           0        4.542214    0.935286    0.455430
     23          1           0        3.441769   -1.850965   -0.172898
     24          1           0        4.161474   -1.382969    1.394921
     25          1           0        5.182967   -1.434520   -0.071746
 ---------------------------------------------------------------------
                    Distance matrix (angstroms):
                    1          2          3          4          5
     1  O    0.000000
     2  C    1.227398   0.000000
     3  C    2.402887   1.411930   0.000000
     4  N    2.915695   2.399636   1.348770   0.000000
     5  C    4.200081   3.605089   2.332188   1.284458   0.000000
     6  C    5.173396   4.842892   3.726203   2.451657   1.516640
     7  C    4.932357   4.939874   4.154632   2.830845   2.510297
     8  C    6.494561   6.037725   4.798664   3.671706   2.504836
     9  O    2.265177   1.409299   2.321195   3.591133   4.652390
    10  C    2.591198   2.370866   3.600883   4.758695   5.915334
    11  C    3.082354   3.104552   4.315826   5.349724   6.511202
    12  H    3.326860   2.158347   1.099868   2.138261   2.653792
    13  H    4.867736   4.042075   2.637992   2.092188   1.110617
    14  H    5.545568   5.267055   4.201475   2.978058   2.157356
    15  H    5.868092   5.970960   5.221218   3.884876   3.474597
    16  H    5.005103   4.991597   4.252342   3.061784   2.820096
    17  H    4.082134   4.279759   3.743575   2.498240   2.668362
    18  H    7.296336   6.955531   5.777997   4.568768   3.475329
    19  H    6.931404   6.316316   4.972338   4.019355   2.740671
    20  H    6.519077   6.035744   4.832145   3.815589   2.773500
    21  H    2.313405   2.526008   3.870176   4.854247   6.076869
    22  H    3.626450   3.252689   4.310601   5.561568   6.637563
    23  H    2.546567   2.856945   4.067553   4.884183   6.074156
    24  H    3.767551   3.499425   4.462327   5.555894   6.599598
    25  H    3.883876   4.082518   5.359817   6.372136   7.562929
                    6          7          8          9         10
     6  C    0.000000
     7  C    1.527196   0.000000
     8  C    1.528104   2.526659   0.000000
     9  O    6.028370   6.270117   7.101882   0.000000
    10  C    7.208495   7.263268   8.356992   1.400578   0.000000
    11  C    7.730799   7.575278   8.796601   2.427858   1.523751
    12  H    4.165914   4.873874   4.990599   2.450604   3.849248
    13  H    2.243578   3.484637   2.661805   4.821531   6.180904
    14  H    1.111136   2.135344   2.134025   6.450006   7.604079
    15  H    2.188663   1.102156   2.833560   7.323931   8.278410
    16  H    2.165769   1.100967   2.745980   6.263541   7.232468
    17  H    2.155084   1.096483   3.468097   5.669465   6.540389
    18  H    2.191275   2.791613   1.101527   8.088275   9.304619
    19  H    2.181392   3.488522   1.100965   7.241255   8.567775
    20  H    2.169056   2.791509   1.101588   7.041328   8.280280
    21  H    7.245609   7.194297   8.524126   2.060358   1.102898
    22  H    8.002365   8.192359   9.102737   2.007989   1.102004
    23  H    7.157760   6.824207   8.247976   2.707964   2.137948
    24  H    7.885422   7.826664   8.798922   2.666919   2.164259
    25  H    8.749940   8.524358   9.854311   3.376555   2.180383
                   11         12         13         14         15
    11  C    0.000000
    12  H    4.633660   0.000000
    13  H    6.837260   2.478070   0.000000
    14  H    8.286676   4.636004   2.766541   0.000000
    15  H    8.584868   5.936106   4.375393   2.440249   0.000000
    16  H    7.339401   4.934732   3.693049   3.056996   1.789294
    17  H    6.889552   4.634047   3.766508   2.518263   1.801395
    18  H    9.723679   6.044611   3.726721   2.477463   2.652054
    19  H    9.125282   4.943561   2.469136   2.495527   3.833338
    20  H    8.549890   4.985331   2.865678   3.060578   3.223022
    21  H    2.154594   4.326744   6.483593   7.525960   8.138944
    22  H    2.169561   4.324887   6.762694   8.353718   9.219691
    23  H    1.096398   4.600677   6.544827   7.754529   7.793654
    24  H    1.099683   4.573890   6.786375   8.533160   8.875015
    25  H    1.100642   5.689611   7.915484   9.272458   9.501361
                   16         17         18         19         20
    16  H    0.000000
    17  H    1.767954   0.000000
    18  H    3.087693   3.816696   0.000000
    19  H    3.766422   4.312483   1.781860   0.000000
    20  H    2.555578   3.754771   1.784654   1.775573   0.000000
    21  H    7.277431   6.351423   9.402223   8.792144   8.551160
    22  H    8.189416   7.501614  10.086122   9.207760   9.043829
    23  H    6.540079   6.118073   9.113068   8.692614   7.978824
    24  H    7.487453   7.269674   9.771511   9.071559   8.448960
    25  H    8.296681   7.781558  10.761060  10.202428   9.615539
                   21         22         23         24         25
    21  H    0.000000
    22  H    1.791659   0.000000
    23  H    2.448990   3.060878   0.000000
    24  H    3.070398   2.530200   1.787471   0.000000
    25  H    2.522911   2.510869   1.793162   1.788076   0.000000
 Stoichiometry    C8H14NO2(1-)
 Framework group  C1[X(C8H14NO2)]
 Deg. of freedom    69
 Full point group                 C1      NOp   1
 Largest Abelian subgroup         C1      NOp   1
 Largest concise Abelian subgroup C1      NOp   1
                         Standard orientation:                         
 ---------------------------------------------------------------------
 Center     Atomic      Atomic             Coordinates (Angstroms)
 Number     Number       Type             X           Y           Z
 ---------------------------------------------------------------------
      1          8           0       -1.672571    1.149561   -0.560411
      2          6           0       -1.471866   -0.033726   -0.303401
      3          6           0       -0.269118   -0.756753   -0.147919
      4          7           0        0.924767   -0.136117   -0.240817
      5          6           0        2.062317   -0.716761   -0.104191
      6          6           0        3.370426    0.033258   -0.267035
      7          6           0        3.204506    1.510934    0.081210
      8          6           0        4.474494   -0.619396    0.563735
      9          8           0       -2.586985   -0.881001   -0.146055
     10          6           0       -3.832380   -0.253010   -0.273484
     11          6           0       -4.242903    0.474197    1.001059
     12          1           0       -0.338877   -1.835468    0.055103
     13          1           0        2.138704   -1.806682    0.095073
     14          1           0        3.694392   -0.016064   -1.328749
     15          1           0        4.106202    2.092309   -0.171167
     16          1           0        3.004414    1.622484    1.158080
     17          1           0        2.335769    1.914630   -0.452270
     18          1           0        5.445319   -0.118920    0.420965
     19          1           0        4.596328   -1.680618    0.297113
     20          1           0        4.218683   -0.575184    1.634297
     21          1           0       -3.812979    0.465277   -1.110187
     22          1           0       -4.554387   -1.051286   -0.509860
     23          1           0       -3.526920    1.285086    1.179712
     24          1           0       -4.219810   -0.217656    1.855522
     25          1           0       -5.256615    0.893977    0.913969
 ---------------------------------------------------------------------
 Rotational constants (GHZ):           3.4706133           0.3648382           0.3477545
 Standard basis: def2SVP (5D, 7F)
 There are   235 symmetry adapted cartesian basis functions of A   symmetry.
 There are   224 symmetry adapted basis functions of A   symmetry.
   224 basis functions,   373 primitive gaussians,   235 cartesian basis functions
    43 alpha electrons       43 beta electrons
       nuclear repulsion energy       595.4722758268 Hartrees.
 NAtoms=   25 NActive=   25 NUniq=   25 SFac= 1.00D+00 NAtFMM=   60 NAOKFM=F Big=F
 Integral buffers will be    131072 words long.
 Raffenetti 2 integral format.
 Two-electron integral symmetry is turned on.
 Nuclear repulsion after empirical dispersion term =      595.4714869287 Hartrees.
 One-electron integrals computed using PRISM.
   1 Symmetry operations used in ECPInt.
 ECPInt:  NShTT=    5886 NPrTT=   20688 LenC2=    5328 LenP2D=   13978.
 LDataN:  DoStor=T MaxTD1= 4 Len=   56
 NBasis=   224 RedAO= T EigKep=  1.23D-03  NBF=   224
 NBsUse=   224 1.00D-06 EigRej= -1.00D+00 NBFU=   224
 Initial guess from the checkpoint file:  "A18_crest_conformers_censo-14.chk"
 B after Tr=    -0.000000    0.000000   -0.000000
         Rot=    0.999981   -0.006081   -0.000602    0.000856 Ang=  -0.71 deg.
 ExpMin= 1.22D-01 ExpMax= 2.27D+03 ExpMxC= 3.41D+02 IAcc=3 IRadAn=         5 AccDes= 0.00D+00
 Harris functional with IExCor= 1009 and IRadAn=       5 diagonalized for initial guess.
 HarFok:  IExCor= 1009 AccDes= 0.00D+00 IRadAn=         5 IDoV= 1 UseB2=F ITyADJ=14
 ICtDFT=  3500011 ScaDFX=  1.000000  1.000000  1.000000  1.000000
 FoFCou: FMM=F IPFlag=           0 FMFlag=      100000 FMFlg1=           0
         NFxFlg=           0 DoJE=T BraDBF=F KetDBF=T FulRan=T
         wScrn=  0.000000 ICntrl=       500 IOpCl=  0 I1Cent=   200000004 NGrid=           0
         NMat0=    1 NMatS0=      1 NMatT0=    0 NMatD0=    1 NMtDS0=    0 NMtDT0=    0
 Petite list used in FoFCou.
 Requested convergence on RMS density matrix=1.00D-08 within 128 cycles.
 Requested convergence on MAX density matrix=1.00D-06.
 Requested convergence on             energy=1.00D-06.
 No special actions if energy rises.
 Integral accuracy reduced to 1.0D-05 until final iterations.
 Initial convergence to 1.0D-05 achieved.  Increase integral accuracy.
 SCF Done:  E(RM062X) =  -517.870005995     A.U. after   13 cycles
            NFock= 13  Conv=0.70D-08     -V/T= 2.0100
   1 Symmetry operations used in ECPInt.
 ECPInt:  NShTT=    5886 NPrTT=   20688 LenC2=    5328 LenP2D=   13978.
 LDataN:  DoStor=T MaxTD1= 5 Len=  102
 Calling FoFJK, ICntrl=      2127 FMM=F ISym2X=0 I1Cent= 0 IOpClX= 0 NMat=1 NMatS=1 NMatT=0.
 ***** Axes restored to original set *****
 -------------------------------------------------------------------
 Center     Atomic                   Forces (Hartrees/Bohr)
 Number     Number              X              Y              Z
 -------------------------------------------------------------------
      1        8          -0.000844807   -0.000455545    0.002319804
      2        6          -0.000532831    0.001086989   -0.003741292
      3        6           0.001513211   -0.000197537    0.001326960
      4        7          -0.001998143   -0.000695278   -0.000215710
      5        6           0.000456722   -0.000460269   -0.001498766
      6        6           0.000844608   -0.000578397   -0.000176317
      7        6          -0.000173934    0.001082606    0.000360824
      8        6           0.000252454   -0.000282739   -0.000001810
      9        8           0.000261037   -0.001053922   -0.000011741
     10        6           0.000155764    0.000942358   -0.000575552
     11        6          -0.000853379    0.001552789    0.000581716
     12        1           0.000071102   -0.000183773    0.000287205
     13        1          -0.000013592    0.000764650    0.000365887
     14        1          -0.000149916    0.000530413    0.000223545
     15        1          -0.000551964    0.000060219   -0.000186747
     16        1           0.000408106   -0.000458916    0.000351718
     17        1           0.000524016   -0.000226294   -0.000385463
     18        1          -0.000531793   -0.000021399   -0.000374839
     19        1          -0.000004086    0.000470581    0.000307573
     20        1           0.000188503   -0.000470032    0.000317689
     21        1           0.000093261   -0.000275954    0.001069322
     22        1           0.000697226    0.000232445    0.000302884
     23        1          -0.000295576   -0.000923800   -0.000543044
     24        1           0.000015807   -0.000197195    0.000423340
     25        1           0.000468205   -0.000241999   -0.000527184
 -------------------------------------------------------------------
 Cartesian Forces:  Max     0.003741292 RMS     0.000808119

 GradGradGradGradGradGradGradGradGradGradGradGradGradGradGradGradGradGrad
 Berny optimization.
 Using GEDIIS/GDIIS optimizer.
 FormGI is forming the generalized inverse of G from B-inverse, IUseBI=4.
 Internal  Forces:  Max     0.002378766 RMS     0.000538071
 Search for a local minimum.
 Step number   6 out of a maximum of  121
 All quantities printed in internal units (Hartrees-Bohrs-Radians)
 Mixed Optimization -- En-DIIS/RFO-DIIS
 Update second derivatives using D2CorX and points    5    6
 DE= -7.33D-04 DEPred=-7.15D-04 R= 1.03D+00
 TightC=F SS=  1.41D+00  RLast= 4.28D-01 DXNew= 2.0830D+00 1.2851D+00
 Trust test= 1.03D+00 RLast= 4.28D-01 DXMaxT set to 1.29D+00
 ITU=  1  1  1  1  1  0
 Use linear search instead of GDIIS.
     Eigenvalues ---    0.00164   0.00351   0.00373   0.00405   0.01126
     Eigenvalues ---    0.01224   0.01384   0.02290   0.02360   0.02478
     Eigenvalues ---    0.03292   0.03913   0.04937   0.04989   0.05428
     Eigenvalues ---    0.05466   0.05574   0.05628   0.05709   0.05784
     Eigenvalues ---    0.05799   0.05857   0.08272   0.11794   0.13623
     Eigenvalues ---    0.15025   0.15918   0.15998   0.16000   0.16000
     Eigenvalues ---    0.16000   0.16000   0.16002   0.16007   0.16116
     Eigenvalues ---    0.16166   0.16958   0.18073   0.21272   0.21843
     Eigenvalues ---    0.22402   0.24731   0.25128   0.25750   0.28799
     Eigenvalues ---    0.29263   0.29415   0.29625   0.32280   0.33264
     Eigenvalues ---    0.33530   0.33656   0.33836   0.33999   0.34659
     Eigenvalues ---    0.34749   0.34882   0.34905   0.34918   0.34966
     Eigenvalues ---    0.35107   0.35267   0.37680   0.39193   0.46351
     Eigenvalues ---    0.48970   0.60098   0.74802   0.92405
 RFO step:  Lambda=-4.23058874D-04 EMin= 1.63568258D-03
 Quartic linear search produced a step of  0.10531.
 Iteration  1 RMS(Cart)=  0.08457940 RMS(Int)=  0.00246738
 Iteration  2 RMS(Cart)=  0.00443248 RMS(Int)=  0.00000527
 Iteration  3 RMS(Cart)=  0.00001177 RMS(Int)=  0.00000383
 Iteration  4 RMS(Cart)=  0.00000000 RMS(Int)=  0.00000383
 Variable       Old X    -DE/DX   Delta X   Delta X   Delta X     New X
                                 (Linear)    (Quad)   (Total)
    R1        2.31945  -0.00191   0.00121   0.00017   0.00138   2.32083
    R2        2.66816  -0.00056  -0.00181  -0.00061  -0.00242   2.66574
    R3        2.66319   0.00082   0.00138  -0.00171  -0.00033   2.66286
    R4        2.54881   0.00109  -0.00040   0.00055   0.00015   2.54896
    R5        2.07845   0.00016   0.00014   0.00034   0.00047   2.07892
    R6        2.42727  -0.00129  -0.00007  -0.00134  -0.00142   2.42586
    R7        2.86603  -0.00091  -0.00016  -0.00317  -0.00332   2.86271
    R8        2.09876   0.00071  -0.00051   0.00148   0.00098   2.09974
    R9        2.88598  -0.00043   0.00036  -0.00276  -0.00240   2.88359
   R10        2.88770   0.00027   0.00069   0.00159   0.00228   2.88997
   R11        2.09974   0.00031  -0.00028   0.00177   0.00149   2.10123
   R12        2.08277   0.00055  -0.00078   0.00038  -0.00040   2.08237
   R13        2.08053   0.00064  -0.00092   0.00073  -0.00019   2.08033
   R14        2.07205   0.00062  -0.00083   0.00047  -0.00035   2.07170
   R15        2.08158   0.00063  -0.00057   0.00136   0.00080   2.08238
   R16        2.08052   0.00056  -0.00063   0.00099   0.00035   2.08088
   R17        2.08170   0.00059  -0.00093   0.00068  -0.00025   2.08145
   R18        2.64671  -0.00032   0.00055   0.00159   0.00215   2.64886
   R19        2.87947  -0.00036   0.00068  -0.00105  -0.00037   2.87910
   R20        2.08418  -0.00110   0.00047  -0.00199  -0.00152   2.08266
   R21        2.08249   0.00074  -0.00057   0.00062   0.00005   2.08254
   R22        2.07189   0.00099  -0.00098   0.00098   0.00000   2.07189
   R23        2.07810   0.00045  -0.00057   0.00070   0.00014   2.07823
   R24        2.07991   0.00066  -0.00088   0.00091   0.00003   2.07994
    A1        2.28635   0.00011   0.00031  -0.00225  -0.00195   2.28440
    A2        2.06416   0.00141  -0.00091   0.00418   0.00326   2.06742
    A3        1.93250  -0.00150   0.00059  -0.00183  -0.00125   1.93125
    A4        2.10692  -0.00020   0.00155  -0.00104   0.00050   2.10742
    A5        2.05843   0.00004  -0.00081   0.00013  -0.00069   2.05774
    A6        2.11783   0.00016  -0.00074   0.00094   0.00020   2.11803
    A7        2.17558  -0.00092  -0.00013  -0.00214  -0.00227   2.17331
    A8        2.12808   0.00023   0.00097   0.00477   0.00573   2.13381
    A9        2.12190  -0.00012   0.00024  -0.00092  -0.00067   2.12123
   A10        2.03225  -0.00011  -0.00124  -0.00389  -0.00514   2.02711
   A11        1.93939   0.00009   0.00012   0.00100   0.00112   1.94050
   A12        1.93219  -0.00003   0.00036  -0.00093  -0.00057   1.93163
   A13        1.90935  -0.00009   0.00034   0.00087   0.00121   1.91055
   A14        1.94741  -0.00011  -0.00057  -0.00059  -0.00116   1.94625
   A15        1.86765   0.00013   0.00041   0.00313   0.00354   1.87119
   A16        1.86488   0.00002  -0.00067  -0.00349  -0.00416   1.86072
   A17        1.94904  -0.00032  -0.00074  -0.00293  -0.00367   1.94536
   A18        1.91858  -0.00005  -0.00042  -0.00099  -0.00141   1.91717
   A19        1.90855   0.00042   0.00060   0.00492   0.00553   1.91408
   A20        1.89570   0.00020   0.00020   0.00130   0.00150   1.89719
   A21        1.92045   0.00001   0.00042   0.00239   0.00281   1.92326
   A22        1.86982  -0.00026  -0.00003  -0.00482  -0.00484   1.86498
   A23        1.95224  -0.00015  -0.00080  -0.00063  -0.00143   1.95081
   A24        1.93904  -0.00002  -0.00033  -0.00043  -0.00076   1.93828
   A25        1.92136  -0.00006  -0.00006   0.00001  -0.00005   1.92131
   A26        1.88497   0.00007  -0.00011  -0.00087  -0.00098   1.88398
   A27        1.88851   0.00012   0.00057   0.00156   0.00213   1.89064
   A28        1.87521   0.00005   0.00082   0.00044   0.00126   1.87647
   A29        2.00850   0.00238  -0.00153   0.00533   0.00380   2.01230
   A30        1.95784  -0.00076   0.00137   0.00167   0.00305   1.96089
   A31        1.92346   0.00033  -0.00036   0.00245   0.00209   1.92555
   A32        1.85178   0.00046  -0.00137  -0.00293  -0.00430   1.84748
   A33        1.90550  -0.00007   0.00052  -0.00319  -0.00268   1.90282
   A34        1.92689   0.00006  -0.00065   0.00107   0.00042   1.92731
   A35        1.89713   0.00003   0.00043   0.00101   0.00144   1.89857
   A36        1.88949   0.00055  -0.00038  -0.00049  -0.00087   1.88862
   A37        1.92199   0.00018  -0.00035   0.00043   0.00008   1.92207
   A38        1.94333  -0.00017  -0.00201  -0.00226  -0.00428   1.93905
   A39        1.90179  -0.00020   0.00101   0.00311   0.00412   1.90591
   A40        1.90950  -0.00040   0.00154  -0.00086   0.00067   1.91017
   A41        1.89734   0.00003   0.00029   0.00018   0.00045   1.89779
    D1        0.03690  -0.00098   0.00055  -0.01400  -0.01345   0.02346
    D2       -3.10977  -0.00093   0.00080  -0.00913  -0.00833  -3.11810
    D3       -3.12582   0.00036  -0.00092  -0.00849  -0.00941  -3.13523
    D4        0.01069   0.00042  -0.00067  -0.00362  -0.00429   0.00641
    D5       -0.02552   0.00089  -0.01334   0.01460   0.00127  -0.02425
    D6        3.13418  -0.00025  -0.01209   0.00996  -0.00214   3.13203
    D7        3.13356   0.00011  -0.00018   0.00261   0.00243   3.13599
    D8       -0.00278   0.00006  -0.00044  -0.00242  -0.00286  -0.00565
    D9        3.10527   0.00001   0.00010  -0.00124  -0.00114   3.10413
   D10        0.01224  -0.00007   0.00103  -0.00004   0.00099   0.01323
   D11        0.48629  -0.00031  -0.01437  -0.12414  -0.13851   0.34778
   D12        2.66053  -0.00042  -0.01476  -0.12486  -0.13962   2.52091
   D13       -1.57204  -0.00046  -0.01516  -0.12914  -0.14430  -1.71634
   D14       -2.70151  -0.00023  -0.01522  -0.12522  -0.14044  -2.84195
   D15       -0.52727  -0.00034  -0.01561  -0.12593  -0.14155  -0.66881
   D16        1.52335  -0.00038  -0.01601  -0.13022  -0.14623   1.37712
   D17       -2.99837  -0.00010  -0.00081  -0.01188  -0.01268  -3.01105
   D18        1.17951  -0.00010  -0.00028  -0.01093  -0.01122   1.16829
   D19       -0.86865  -0.00001  -0.00035  -0.00742  -0.00777  -0.87642
   D20        1.11920  -0.00004  -0.00095  -0.01097  -0.01192   1.10728
   D21       -0.98611  -0.00004  -0.00042  -0.01003  -0.01045  -0.99656
   D22       -3.03427   0.00005  -0.00049  -0.00651  -0.00700  -3.04128
   D23       -0.91495  -0.00008  -0.00007  -0.00832  -0.00839  -0.92334
   D24       -3.02026  -0.00008   0.00046  -0.00738  -0.00692  -3.02718
   D25        1.21477   0.00001   0.00038  -0.00386  -0.00347   1.21129
   D26        3.09285  -0.00008  -0.00148  -0.01186  -0.01334   3.07951
   D27        0.98496  -0.00005  -0.00055  -0.01002  -0.01057   0.97439
   D28       -1.09010  -0.00006  -0.00133  -0.01030  -0.01162  -1.10173
   D29       -1.02067  -0.00007  -0.00148  -0.01167  -0.01315  -1.03382
   D30       -3.12856  -0.00004  -0.00054  -0.00983  -0.01038  -3.13894
   D31        1.07956  -0.00006  -0.00133  -0.01011  -0.01144   1.06813
   D32        1.01516   0.00003  -0.00169  -0.01030  -0.01199   1.00317
   D33       -1.09273   0.00006  -0.00076  -0.00846  -0.00922  -1.10195
   D34        3.11539   0.00005  -0.00154  -0.00873  -0.01028   3.10512
   D35       -1.40268   0.00037   0.00695   0.08629   0.09324  -1.30944
   D36        0.72437  -0.00002   0.00830   0.08510   0.09340   0.81777
   D37        2.77515   0.00045   0.00783   0.08591   0.09375   2.86890
   D38        1.12125   0.00005  -0.00217  -0.00136  -0.00352   1.11773
   D39       -0.95630  -0.00015  -0.00296  -0.00509  -0.00805  -0.96435
   D40       -3.06223  -0.00020  -0.00174  -0.00412  -0.00586  -3.06809
   D41       -1.01602   0.00020  -0.00298  -0.00335  -0.00634  -1.02236
   D42       -3.09357   0.00000  -0.00378  -0.00709  -0.01086  -3.10443
   D43        1.08368  -0.00005  -0.00256  -0.00611  -0.00867   1.07501
   D44       -3.10060   0.00018  -0.00344  -0.00326  -0.00670  -3.10730
   D45        1.10503  -0.00002  -0.00423  -0.00699  -0.01122   1.09381
   D46       -1.00090  -0.00007  -0.00301  -0.00602  -0.00903  -1.00993
         Item               Value     Threshold  Converged?
 Maximum Force            0.002379     0.000450     NO 
 RMS     Force            0.000538     0.000300     NO 
 Maximum Displacement     0.258910     0.001800     NO 
 RMS     Displacement     0.084415     0.001200     NO 
 Predicted change in Energy=-2.452934D-04
 GradGradGradGradGradGradGradGradGradGradGradGradGradGradGradGradGradGrad

                          Input orientation:                          
 ---------------------------------------------------------------------
 Center     Atomic      Atomic             Coordinates (Angstroms)
 Number     Number       Type             X           Y           Z
 ---------------------------------------------------------------------
      1          8           0        1.602264   -0.535989   -1.135261
      2          6           0        1.430649    0.158784   -0.137194
      3          6           0        0.245730    0.608428    0.482253
      4          7           0       -0.962534    0.258504   -0.004625
      5          6           0       -2.084350    0.620445    0.503736
      6          6           0       -3.413310    0.236097   -0.113523
      7          6           0       -3.263624   -0.967382   -1.039638
      8          6           0       -4.459490   -0.018685    0.972469
      9          8           0        2.563566    0.641577    0.547676
     10          6           0        3.798596    0.241603    0.018975
     11          6           0        4.122665   -1.212120    0.339731
     12          1           0        0.340886    1.250367    1.370578
     13          1           0       -2.131922    1.276308    1.399393
     14          1           0       -3.793646    1.080020   -0.729569
     15          1           0       -4.195426   -1.169302   -1.592136
     16          1           0       -3.000935   -1.860605   -0.452227
     17          1           0       -2.438401   -0.793563   -1.740108
     18          1           0       -5.449968   -0.238358    0.542370
     19          1           0       -4.563327    0.855061    1.634527
     20          1           0       -4.155813   -0.873597    1.597060
     21          1           0        3.809607    0.379293   -1.074429
     22          1           0        4.549565    0.911281    0.468474
     23          1           0        3.375907   -1.846283   -0.152488
     24          1           0        4.079231   -1.378732    1.425924
     25          1           0        5.127230   -1.482702   -0.019548
 ---------------------------------------------------------------------
                    Distance matrix (angstroms):
                    1          2          3          4          5
     1  O    0.000000
     2  C    1.228129   0.000000
     3  C    2.401298   1.410648   0.000000
     4  N    2.913374   2.398926   1.348851   0.000000
     5  C    4.196997   3.602658   2.330210   1.283707   0.000000
     6  C    5.176490   4.844634   3.725876   2.453296   1.514881
     7  C    4.885909   4.911095   4.137015   2.805185   2.508762
     8  C    6.438555   5.996381   4.772073   3.641462   2.503894
     9  O    2.267828   1.409126   2.318996   3.589591   4.648172
    10  C    2.600151   2.374536   3.601672   4.761218   5.915029
    11  C    2.997528   3.058396   4.285479   5.304768   6.473966
    12  H    3.325865   2.156968   1.100119   2.138663   2.651412
    13  H    4.863439   4.037557   2.634471   2.091569   1.111134
    14  H    5.647293   5.337868   4.243521   3.035725   2.157299
    15  H    5.850045   5.960989   5.214142   3.874327   3.471673
    16  H    4.838449   4.880176   4.184521   2.974231   2.812402
    17  H    4.093795   4.294863   3.756199   2.509368   2.675744
    18  H    7.255138   6.925491   5.758615   4.547872   3.473675
    19  H    6.900816   6.289002   4.951322   4.001051   2.734786
    20  H    6.382399   5.939866   4.776272   3.747543   2.778215
    21  H    2.390356   2.566413   3.895765   4.892075   6.106349
    22  H    3.654195   3.265076   4.314499   5.570743   6.640381
    23  H    2.414233   2.793664   4.028214   4.824320   6.027419
    24  H    3.661318   3.438354   4.419847   5.490574   6.544988
    25  H    3.816604   4.046360   5.334198   6.333817   7.530202
                    6          7          8          9         10
     6  C    0.000000
     7  C    1.525928   0.000000
     8  C    1.529309   2.525608   0.000000
     9  O    6.026993   6.250157   7.066803   0.000000
    10  C    7.213125   7.242738   8.317023   1.401714   0.000000
    11  C    7.687242   7.517967   8.687809   2.431095   1.523553
    12  H    4.162365   4.870323   4.981224   2.447060   3.847102
    13  H    2.238952   3.501966   2.697562   4.814137   6.176342
    14  H    1.111924   2.137504   2.132472   6.499056   7.674985
    15  H    2.184754   1.101944   2.823269   7.317244   8.275912
    16  H    2.163546   1.100866   2.747692   6.182588   7.132667
    17  H    2.157876   1.096296   3.470348   5.684475   6.562474
    18  H    2.191639   2.795412   1.101948   8.061703   9.275788
    19  H    2.182048   3.487361   1.101152   7.212449   8.538623
    20  H    2.169982   2.785134   1.101457   6.967569   8.185759
    21  H    7.287961   7.200371   8.527962   2.062192   1.102095
    22  H    8.012613   8.176166   9.070938   2.005793   1.102031
    23  H    7.101499   6.755951   8.123982   2.709165   2.137132
    24  H    7.817655   7.756656   8.658239   2.673987   2.164196
    25  H    8.712285   8.468327   9.748468   3.377377   2.177149
                   11         12         13         14         15
    11  C    0.000000
    12  H    4.629075   0.000000
    13  H    6.814324   2.473112   0.000000
    14  H    8.310553   4.640473   2.707828   0.000000
    15  H    8.539589   5.933852   4.380445   2.442315   0.000000
    16  H    7.196764   4.916150   3.744850   3.058200   1.790000
    17  H    6.895543   4.645262   3.772898   2.523528   1.802835
    18  H    9.624167   6.036243   3.746750   2.469687   2.645118
    19  H    9.021984   4.927194   2.478804   2.496390   3.826846
    20  H    8.380255   4.978235   2.959273   3.059573   3.203120
    21  H    2.151848   4.332304   6.498169   7.643258   8.169866
    22  H    2.169712   4.317609   6.755895   8.430477   9.222245
    23  H    1.096399   4.595685   6.518825   7.765227   7.736664
    24  H    1.099754   4.570607   6.754876   8.524893   8.810362
    25  H    1.100657   5.684295   7.894353   9.308796   9.459554
                   16         17         18         19         20
    16  H    0.000000
    17  H    1.764557   0.000000
    18  H    3.101399   3.819359   0.000000
    19  H    3.764366   4.315256   1.781714   0.000000
    20  H    2.550981   3.754011   1.786263   1.776438   0.000000
    21  H    7.196371   6.391895   9.419940   8.813105   8.494381
    22  H    8.095745   7.524360  10.065674   9.187363   8.957852
    23  H    6.383898   6.118409   8.998018   8.574504   7.793192
    24  H    7.340872   7.269505   9.637778   8.929006   8.252297
    25  H    8.148441   7.789352  10.664955  10.104850   9.442421
                   21         22         23         24         25
    21  H    0.000000
    22  H    1.791954   0.000000
    23  H    2.447705   3.060593   0.000000
    24  H    3.068406   2.526279   1.790154   0.000000
    25  H    2.513152   2.510581   1.793599   1.788435   0.000000
 Stoichiometry    C8H14NO2(1-)
 Framework group  C1[X(C8H14NO2)]
 Deg. of freedom    69
 Full point group                 C1      NOp   1
 Largest Abelian subgroup         C1      NOp   1
 Largest concise Abelian subgroup C1      NOp   1
                         Standard orientation:                         
 ---------------------------------------------------------------------
 Center     Atomic      Atomic             Coordinates (Angstroms)
 Number     Number       Type             X           Y           Z
 ---------------------------------------------------------------------
      1          8           0       -1.666437    1.164714   -0.468879
      2          6           0       -1.469164   -0.033958   -0.288410
      3          6           0       -0.268234   -0.765537   -0.176667
      4          7           0        0.926798   -0.143309   -0.240935
      5          6           0        2.061527   -0.735388   -0.142264
      6          6           0        3.375249    0.008147   -0.269373
      7          6           0        3.187908    1.503481   -0.029922
      8          6           0        4.424011   -0.583678    0.673298
      9          8           0       -2.583896   -0.889619   -0.184229
     10          6           0       -3.832916   -0.259299   -0.270537
     11          6           0       -4.190156    0.495676    1.003672
     12          1           0       -0.339885   -1.854299   -0.036217
     13          1           0        2.132962   -1.835717   -0.005182
     14          1           0        3.771114   -0.112741   -1.301387
     15          1           0        4.109680    2.065668   -0.250288
     16          1           0        2.908185    1.681720    1.019788
     17          1           0        2.361306    1.875225   -0.646688
     18          1           0        5.405043   -0.097077    0.550474
     19          1           0        4.555100   -1.661916    0.492321
     20          1           0        4.104580   -0.459705    1.720103
     21          1           0       -3.849828    0.442147   -1.120419
     22          1           0       -4.563206   -1.062789   -0.459089
     23          1           0       -3.463559    1.305838    1.137034
     24          1           0       -4.141610   -0.179952    1.870061
     25          1           0       -5.204141    0.919342    0.942116
 ---------------------------------------------------------------------
 Rotational constants (GHZ):           3.4308765           0.3686469           0.3512210
 Standard basis: def2SVP (5D, 7F)
 There are   235 symmetry adapted cartesian basis functions of A   symmetry.
 There are   224 symmetry adapted basis functions of A   symmetry.
   224 basis functions,   373 primitive gaussians,   235 cartesian basis functions
    43 alpha electrons       43 beta electrons
       nuclear repulsion energy       596.5892739493 Hartrees.
 NAtoms=   25 NActive=   25 NUniq=   25 SFac= 1.00D+00 NAtFMM=   60 NAOKFM=F Big=F
 Integral buffers will be    131072 words long.
 Raffenetti 2 integral format.
 Two-electron integral symmetry is turned on.
 Nuclear repulsion after empirical dispersion term =      596.5884833565 Hartrees.
 One-electron integrals computed using PRISM.
   1 Symmetry operations used in ECPInt.
 ECPInt:  NShTT=    5886 NPrTT=   20688 LenC2=    5333 LenP2D=   14000.
 LDataN:  DoStor=T MaxTD1= 4 Len=   56
 NBasis=   224 RedAO= T EigKep=  1.20D-03  NBF=   224
 NBsUse=   224 1.00D-06 EigRej= -1.00D+00 NBFU=   224
 Initial guess from the checkpoint file:  "A18_crest_conformers_censo-14.chk"
 B after Tr=     0.000000   -0.000000    0.000000
         Rot=    0.999955    0.009502    0.000065    0.000431 Ang=   1.09 deg.
 ExpMin= 1.22D-01 ExpMax= 2.27D+03 ExpMxC= 3.41D+02 IAcc=3 IRadAn=         5 AccDes= 0.00D+00
 Harris functional with IExCor= 1009 and IRadAn=       5 diagonalized for initial guess.
 HarFok:  IExCor= 1009 AccDes= 0.00D+00 IRadAn=         5 IDoV= 1 UseB2=F ITyADJ=14
 ICtDFT=  3500011 ScaDFX=  1.000000  1.000000  1.000000  1.000000
 FoFCou: FMM=F IPFlag=           0 FMFlag=      100000 FMFlg1=           0
         NFxFlg=           0 DoJE=T BraDBF=F KetDBF=T FulRan=T
         wScrn=  0.000000 ICntrl=       500 IOpCl=  0 I1Cent=   200000004 NGrid=           0
         NMat0=    1 NMatS0=      1 NMatT0=    0 NMatD0=    1 NMtDS0=    0 NMtDT0=    0
 Petite list used in FoFCou.
 Requested convergence on RMS density matrix=1.00D-08 within 128 cycles.
 Requested convergence on MAX density matrix=1.00D-06.
 Requested convergence on             energy=1.00D-06.
 No special actions if energy rises.
 Integral accuracy reduced to 1.0D-05 until final iterations.
 Initial convergence to 1.0D-05 achieved.  Increase integral accuracy.
 SCF Done:  E(RM062X) =  -517.870161914     A.U. after   13 cycles
            NFock= 13  Conv=0.63D-08     -V/T= 2.0100
   1 Symmetry operations used in ECPInt.
 ECPInt:  NShTT=    5886 NPrTT=   20688 LenC2=    5333 LenP2D=   14000.
 LDataN:  DoStor=T MaxTD1= 5 Len=  102
 Calling FoFJK, ICntrl=      2127 FMM=F ISym2X=0 I1Cent= 0 IOpClX= 0 NMat=1 NMatS=1 NMatT=0.
 ***** Axes restored to original set *****
 -------------------------------------------------------------------
 Center     Atomic                   Forces (Hartrees/Bohr)
 Number     Number              X              Y              Z
 -------------------------------------------------------------------
      1        8          -0.000163062    0.001183142    0.002040190
      2        6          -0.000172462    0.000392073   -0.004004117
      3        6           0.001326039    0.000474761    0.001949699
      4        7          -0.001795080   -0.000956992   -0.000486992
      5        6          -0.000061725    0.000374872   -0.001272418
      6        6           0.000673581   -0.000552218   -0.000070371
      7        6          -0.000307353    0.000822301    0.000685744
      8        6          -0.000074642   -0.000119429   -0.000180100
      9        8           0.000563738   -0.001447733    0.000118844
     10        6          -0.001668316   -0.000176366    0.000327075
     11        6           0.000101090    0.001091852    0.000444706
     12        1          -0.000086593   -0.000185351    0.000144698
     13        1           0.000028006    0.000498149    0.000344458
     14        1           0.000278261    0.000357564    0.000354196
     15        1          -0.000484071   -0.000056631   -0.000248657
     16        1           0.000497630   -0.000323192    0.000114293
     17        1           0.000373945   -0.000279352   -0.000508143
     18        1          -0.000565274   -0.000113382   -0.000204833
     19        1           0.000014613    0.000328466    0.000305524
     20        1           0.000164151   -0.000407950    0.000248826
     21        1           0.000000242   -0.000014469   -0.000158976
     22        1           0.000503294    0.000284801   -0.000213351
     23        1           0.000113301   -0.000637677    0.000065400
     24        1           0.000003709   -0.000208102    0.000433490
     25        1           0.000736978   -0.000329137   -0.000229184
 -------------------------------------------------------------------
 Cartesian Forces:  Max     0.004004117 RMS     0.000791895

 GradGradGradGradGradGradGradGradGradGradGradGradGradGradGradGradGradGrad
 Berny optimization.
 Using GEDIIS/GDIIS optimizer.
 FormGI is forming the generalized inverse of G from B-inverse, IUseBI=4.
 Internal  Forces:  Max     0.002349535 RMS     0.000547820
 Search for a local minimum.
 Step number   7 out of a maximum of  121
 All quantities printed in internal units (Hartrees-Bohrs-Radians)
 Mixed Optimization -- En-DIIS/RFO-DIIS
 Swapping is turned off.
 Update second derivatives using D2CorX and points    6    7
 DE= -1.56D-04 DEPred=-2.45D-04 R= 6.36D-01
 TightC=F SS=  1.41D+00  RLast= 3.87D-01 DXNew= 2.1612D+00 1.1623D+00
 Trust test= 6.36D-01 RLast= 3.87D-01 DXMaxT set to 1.29D+00
 ITU=  1  1  1  1  1  1  0
     Eigenvalues ---    0.00153   0.00354   0.00373   0.00406   0.01184
     Eigenvalues ---    0.01378   0.01934   0.02356   0.02429   0.02607
     Eigenvalues ---    0.03312   0.03920   0.04941   0.05223   0.05444
     Eigenvalues ---    0.05472   0.05606   0.05649   0.05692   0.05787
     Eigenvalues ---    0.05834   0.05877   0.07946   0.11797   0.13740
     Eigenvalues ---    0.15017   0.15918   0.15974   0.15998   0.16000
     Eigenvalues ---    0.16000   0.16000   0.16002   0.16015   0.16046
     Eigenvalues ---    0.16118   0.16944   0.18089   0.21286   0.21920
     Eigenvalues ---    0.23054   0.23788   0.25128   0.25360   0.27680
     Eigenvalues ---    0.29318   0.29422   0.29575   0.32196   0.33227
     Eigenvalues ---    0.33530   0.33654   0.33802   0.33925   0.34659
     Eigenvalues ---    0.34750   0.34883   0.34912   0.34917   0.34958
     Eigenvalues ---    0.35167   0.35271   0.37464   0.38256   0.46429
     Eigenvalues ---    0.48969   0.59557   0.74724   0.91233
 En-DIIS/RFO-DIIS/Sim-DIIS IScMMF=       -3 using points:     7    6
 RFO step:  Lambda=-4.66301687D-04.
 DidBck=F Rises=F RFO-DIIS coefs:    1.46524   -0.46524
 Iteration  1 RMS(Cart)=  0.09866509 RMS(Int)=  0.00290649
 Iteration  2 RMS(Cart)=  0.00476741 RMS(Int)=  0.00001160
 Iteration  3 RMS(Cart)=  0.00000811 RMS(Int)=  0.00001086
 Iteration  4 RMS(Cart)=  0.00000000 RMS(Int)=  0.00001086
 Variable       Old X    -DE/DX   Delta X   Delta X   Delta X     New X
                                 (Linear)    (Quad)   (Total)
    R1        2.32083  -0.00235   0.00064  -0.00148  -0.00084   2.31999
    R2        2.66574   0.00049  -0.00113  -0.00426  -0.00539   2.66035
    R3        2.66286   0.00018  -0.00015   0.00819   0.00804   2.67090
    R4        2.54896   0.00157   0.00007   0.00255   0.00262   2.55158
    R5        2.07892   0.00000   0.00022   0.00015   0.00037   2.07930
    R6        2.42586  -0.00049  -0.00066  -0.00185  -0.00251   2.42335
    R7        2.86271  -0.00062  -0.00155  -0.00336  -0.00491   2.85780
    R8        2.09974   0.00057   0.00046   0.00134   0.00180   2.10154
    R9        2.88359  -0.00015  -0.00111   0.00007  -0.00105   2.88254
   R10        2.88997   0.00049   0.00106   0.00238   0.00343   2.89341
   R11        2.10123  -0.00002   0.00069  -0.00103  -0.00034   2.10089
   R12        2.08237   0.00054  -0.00019   0.00050   0.00031   2.08268
   R13        2.08033   0.00044  -0.00009   0.00002  -0.00007   2.08027
   R14        2.07170   0.00056  -0.00016   0.00046   0.00029   2.07199
   R15        2.08238   0.00061   0.00037   0.00080   0.00117   2.08355
   R16        2.08088   0.00044   0.00016   0.00014   0.00030   2.08118
   R17        2.08145   0.00050  -0.00012   0.00001  -0.00010   2.08135
   R18        2.64886  -0.00044   0.00100  -0.00050   0.00050   2.64936
   R19        2.87910   0.00043  -0.00017   0.00159   0.00141   2.88051
   R20        2.08266   0.00016  -0.00071  -0.00144  -0.00215   2.08051
   R21        2.08254   0.00043   0.00002   0.00177   0.00179   2.08433
   R22        2.07189   0.00026   0.00000   0.00048   0.00048   2.07238
   R23        2.07823   0.00046   0.00006   0.00017   0.00023   2.07847
   R24        2.07994   0.00083   0.00001   0.00097   0.00098   2.08092
    A1        2.28440   0.00067  -0.00091   0.00313   0.00219   2.28658
    A2        2.06742   0.00027   0.00152   0.00370   0.00518   2.07260
    A3        1.93125  -0.00093  -0.00058  -0.00663  -0.00725   1.92400
    A4        2.10742  -0.00018   0.00023   0.00250   0.00273   2.11015
    A5        2.05774   0.00018  -0.00032  -0.00110  -0.00143   2.05631
    A6        2.11803  -0.00000   0.00009  -0.00141  -0.00132   2.11671
    A7        2.17331  -0.00067  -0.00106  -0.00530  -0.00636   2.16695
    A8        2.13381   0.00009   0.00267   0.00038   0.00301   2.13682
    A9        2.12123  -0.00009  -0.00031   0.00097   0.00061   2.12184
   A10        2.02711   0.00001  -0.00239  -0.00057  -0.00301   2.02411
   A11        1.94050   0.00017   0.00052   0.00055   0.00106   1.94157
   A12        1.93163   0.00020  -0.00026   0.00121   0.00095   1.93257
   A13        1.91055  -0.00030   0.00056  -0.00380  -0.00324   1.90731
   A14        1.94625  -0.00036  -0.00054  -0.00280  -0.00334   1.94291
   A15        1.87119   0.00021   0.00165   0.00348   0.00513   1.87631
   A16        1.86072   0.00008  -0.00193   0.00139  -0.00054   1.86019
   A17        1.94536  -0.00016  -0.00171  -0.00202  -0.00373   1.94164
   A18        1.91717   0.00006  -0.00066  -0.00045  -0.00111   1.91606
   A19        1.91408   0.00055   0.00257   0.00328   0.00586   1.91994
   A20        1.89719   0.00010   0.00070   0.00169   0.00238   1.89958
   A21        1.92326  -0.00018   0.00131  -0.00062   0.00069   1.92395
   A22        1.86498  -0.00037  -0.00225  -0.00190  -0.00415   1.86083
   A23        1.95081   0.00008  -0.00067  -0.00163  -0.00230   1.94851
   A24        1.93828  -0.00001  -0.00035  -0.00095  -0.00131   1.93697
   A25        1.92131  -0.00008  -0.00002  -0.00080  -0.00082   1.92049
   A26        1.88398  -0.00000  -0.00046   0.00075   0.00029   1.88427
   A27        1.89064   0.00000   0.00099   0.00110   0.00209   1.89273
   A28        1.87647   0.00001   0.00059   0.00172   0.00231   1.87878
   A29        2.01230   0.00222   0.00177   0.01315   0.01492   2.02722
   A30        1.96089   0.00119   0.00142   0.00248   0.00389   1.96478
   A31        1.92555  -0.00049   0.00097  -0.00026   0.00070   1.92625
   A32        1.84748  -0.00014  -0.00200   0.00271   0.00072   1.84820
   A33        1.90282   0.00044  -0.00125   0.00402   0.00276   1.90558
   A34        1.92731  -0.00105   0.00020  -0.00830  -0.00810   1.91920
   A35        1.89857  -0.00002   0.00067  -0.00093  -0.00026   1.89831
   A36        1.88862   0.00084  -0.00040   0.00685   0.00645   1.89507
   A37        1.92207   0.00004   0.00004   0.00125   0.00127   1.92334
   A38        1.93905   0.00001  -0.00199  -0.00415  -0.00614   1.93290
   A39        1.90591  -0.00037   0.00192  -0.00085   0.00104   1.90695
   A40        1.91017  -0.00040   0.00031  -0.00298  -0.00266   1.90751
   A41        1.89779  -0.00013   0.00021  -0.00012   0.00009   1.89788
    D1        0.02346  -0.00038  -0.00626  -0.02399  -0.03025  -0.00679
    D2       -3.11810  -0.00039  -0.00387  -0.01907  -0.02294  -3.14104
    D3       -3.13523   0.00018  -0.00438  -0.00928  -0.01366   3.13429
    D4        0.00641   0.00018  -0.00200  -0.00436  -0.00636   0.00004
    D5       -0.02425  -0.00051   0.00059  -0.03385  -0.03325  -0.05751
    D6        3.13203  -0.00100  -0.00100  -0.04651  -0.04751   3.08452
    D7        3.13599   0.00021   0.00113   0.00816   0.00930  -3.13790
    D8       -0.00565   0.00022  -0.00133   0.00307   0.00174  -0.00391
    D9        3.10413   0.00035  -0.00053   0.01576   0.01524   3.11937
   D10        0.01323   0.00008   0.00046  -0.00351  -0.00306   0.01017
   D11        0.34778  -0.00023  -0.06444  -0.03504  -0.09948   0.24830
   D12        2.52091  -0.00042  -0.06496  -0.03739  -0.10234   2.41857
   D13       -1.71634  -0.00039  -0.06714  -0.03728  -0.10441  -1.82074
   D14       -2.84195   0.00002  -0.06534  -0.01671  -0.08205  -2.92400
   D15       -0.66881  -0.00017  -0.06585  -0.01905  -0.08491  -0.75373
   D16        1.37712  -0.00014  -0.06803  -0.01894  -0.08698   1.29015
   D17       -3.01105   0.00001  -0.00590  -0.02189  -0.02779  -3.03884
   D18        1.16829  -0.00004  -0.00522  -0.02240  -0.02762   1.14067
   D19       -0.87642   0.00005  -0.00361  -0.02176  -0.02538  -0.90180
   D20        1.10728  -0.00011  -0.00554  -0.02181  -0.02736   1.07993
   D21       -0.99656  -0.00017  -0.00486  -0.02232  -0.02719  -1.02375
   D22       -3.04128  -0.00007  -0.00326  -0.02168  -0.02494  -3.06622
   D23       -0.92334  -0.00013  -0.00390  -0.02403  -0.02793  -0.95127
   D24       -3.02718  -0.00019  -0.00322  -0.02454  -0.02776  -3.05494
   D25        1.21129  -0.00009  -0.00162  -0.02390  -0.02552   1.18578
   D26        3.07951  -0.00011  -0.00621  -0.00665  -0.01285   3.06666
   D27        0.97439  -0.00016  -0.00492  -0.00583  -0.01075   0.96364
   D28       -1.10173  -0.00011  -0.00541  -0.00687  -0.01227  -1.11400
   D29       -1.03382  -0.00001  -0.00612  -0.00708  -0.01320  -1.04702
   D30       -3.13894  -0.00005  -0.00483  -0.00627  -0.01111   3.13314
   D31        1.06813  -0.00001  -0.00532  -0.00730  -0.01263   1.05550
   D32        1.00317   0.00010  -0.00558  -0.00358  -0.00915   0.99402
   D33       -1.10195   0.00006  -0.00429  -0.00276  -0.00706  -1.10901
   D34        3.10512   0.00010  -0.00478  -0.00380  -0.00858   3.09654
   D35       -1.30944  -0.00194   0.04338  -0.08170  -0.03833  -1.34776
   D36        0.81777  -0.00089   0.04345  -0.07501  -0.03156   0.78621
   D37        2.86890  -0.00125   0.04362  -0.07472  -0.03110   2.83780
   D38        1.11773   0.00022  -0.00164   0.00210   0.00047   1.11820
   D39       -0.96435   0.00014  -0.00374  -0.00174  -0.00548  -0.96983
   D40       -3.06809   0.00027  -0.00273   0.00029  -0.00243  -3.07052
   D41       -1.02236  -0.00027  -0.00295  -0.00209  -0.00504  -1.02740
   D42       -3.10443  -0.00035  -0.00505  -0.00593  -0.01099  -3.11542
   D43        1.07501  -0.00022  -0.00404  -0.00390  -0.00794   1.06707
   D44       -3.10730   0.00011  -0.00312   0.00159  -0.00152  -3.10882
   D45        1.09381   0.00003  -0.00522  -0.00225  -0.00747   1.08634
   D46       -1.00993   0.00016  -0.00420  -0.00022  -0.00442  -1.01436
         Item               Value     Threshold  Converged?
 Maximum Force            0.002350     0.000450     NO 
 RMS     Force            0.000548     0.000300     NO 
 Maximum Displacement     0.308506     0.001800     NO 
 RMS     Displacement     0.099719     0.001200     NO 
 Predicted change in Energy=-2.479241D-04
 GradGradGradGradGradGradGradGradGradGradGradGradGradGradGradGradGradGrad

                          Input orientation:                          
 ---------------------------------------------------------------------
 Center     Atomic      Atomic             Coordinates (Angstroms)
 Number     Number       Type             X           Y           Z
 ---------------------------------------------------------------------
      1          8           0        1.573592   -0.580542   -1.173432
      2          6           0        1.413185    0.147316   -0.197876
      3          6           0        0.239308    0.608145    0.427857
      4          7           0       -0.978452    0.260982   -0.040840
      5          6           0       -2.086218    0.647145    0.477070
      6          6           0       -3.429642    0.256894   -0.097314
      7          6           0       -3.292234   -0.887695   -1.096214
      8          6           0       -4.415320   -0.094887    1.020289
      9          8           0        2.552854    0.652252    0.468339
     10          6           0        3.794524    0.211698   -0.010945
     11          6           0        4.128726   -1.204030    0.444593
     12          1           0        0.348321    1.264240    1.304415
     13          1           0       -2.111901    1.318165    1.363528
     14          1           0       -3.862667    1.124768   -0.640692
     15          1           0       -4.252782   -1.102607   -1.592000
     16          1           0       -2.949044   -1.795869   -0.577304
     17          1           0       -2.526448   -0.644514   -1.842295
     18          1           0       -5.421416   -0.308184    0.622893
     19          1           0       -4.503727    0.731663    1.742706
     20          1           0       -4.062265   -0.981949    1.569435
     21          1           0        3.817056    0.252556   -1.110914
     22          1           0        4.540342    0.920857    0.385809
     23          1           0        3.394244   -1.893220    0.010766
     24          1           0        4.084707   -1.270339    1.541588
     25          1           0        5.138405   -1.492394    0.112960
 ---------------------------------------------------------------------
                    Distance matrix (angstroms):
                    1          2          3          4          5
     1  O    0.000000
     2  C    1.227687   0.000000
     3  C    2.399461   1.407796   0.000000
     4  N    2.916137   2.399480   1.350236   0.000000
     5  C    4.198283   3.598777   2.326373   1.282380   0.000000
     6  C    5.185719   4.845109   3.722952   2.451844   1.512283
     7  C    4.876123   4.900941   4.126999   2.790495   2.507076
     8  C    6.396510   5.959366   4.744554   3.614512   2.504079
     9  O    2.274674   1.413382   2.314320   3.589216   4.639083
    10  C    2.628984   2.389533   3.604064   4.773324   5.917001
    11  C    3.087952   3.100494   4.290900   5.335276   6.484861
    12  H    3.323286   2.153678   1.100317   2.139290   2.644293
    13  H    4.860464   4.029280   2.628268   2.091552   1.112086
    14  H    5.722309   5.383875   4.270234   3.069959   2.152508
    15  H    5.864673   5.967334   5.213959   3.871268   3.469393
    16  H    4.720872   4.790509   4.117672   2.898563   2.797229
    17  H    4.154732   4.341867   3.791062   2.541940   2.691029
    18  H    7.227109   6.898762   5.737726   4.528182   3.472387
    19  H    6.867281   6.254371   4.923461   3.978711   2.730079
    20  H    6.280711   5.863376   4.726006   3.694288   2.784236
    21  H    2.393969   2.573579   3.910823   4.913453   6.125849
    22  H    3.672470   3.273861   4.312592   5.574455   6.632838
    23  H    2.537758   2.851651   4.047766   4.874804   6.058576
    24  H    3.762027   3.488913   4.422238   5.521286   6.549065
    25  H    3.897969   4.081977   5.339716   6.365054   7.543565
                    6          7          8          9         10
     6  C    0.000000
     7  C    1.525373   0.000000
     8  C    1.531126   2.523776   0.000000
     9  O    6.022169   6.243742   7.029816   0.000000
    10  C    7.224823   7.253179   8.280034   1.401979   0.000000
    11  C    7.717310   7.585828   8.634948   2.435101   1.524301
    12  H    4.153624   4.862868   4.961877   2.435881   3.835926
    13  H    2.235351   3.508466   2.724017   4.796326   6.164358
    14  H    1.111745   2.140772   2.133504   6.527797   7.737109
    15  H    2.181717   1.102109   2.804634   7.324016   8.305798
    16  H    2.162221   1.100830   2.756013   6.112082   7.058811
    17  H    2.161771   1.096450   3.473372   5.728869   6.636386
    18  H    2.192072   2.797245   1.102565   8.033387   9.252329
    19  H    2.182828   3.485613   1.101312   7.171168   8.497448
    20  H    2.170943   2.776241   1.101403   6.902378   8.102563
    21  H    7.317242   7.200166   8.510861   2.062039   1.100958
    22  H    8.012172   8.174136   9.035385   2.007254   1.102980
    23  H    7.155423   6.851676   8.077278   2.719694   2.142749
    24  H    7.841166   7.843703   8.596738   2.682311   2.165872
    25  H    8.747322   8.538351   9.697934   3.377998   2.173775
                   11         12         13         14         15
    11  C    0.000000
    12  H    4.595988   0.000000
    13  H    6.793477   2.461523   0.000000
    14  H    8.394255   4.640616   2.668235   0.000000
    15  H    8.625988   5.929700   4.379344   2.453238   0.000000
    16  H    7.175610   4.876244   3.763622   3.060858   1.791634
    17  H    7.059337   4.670056   3.781701   2.521844   1.803532
    18  H    9.593724   6.018875   3.761176   2.465704   2.627274
    19  H    8.941546   4.900827   2.491704   2.499215   3.814156
    20  H    8.270847   4.956699   3.022721   3.059862   3.169468
    21  H    2.153691   4.346198   6.512366   7.743385   8.196963
    22  H    2.165186   4.305205   6.735438   8.467931   9.237163
    23  H    1.096655   4.573917   6.516179   7.886407   7.853084
    24  H    1.099879   4.521164   6.717888   8.582520   8.908493
    25  H    1.101175   5.653627   7.875919   9.404086   9.552655
                   16         17         18         19         20
    16  H    0.000000
    17  H    1.761933   0.000000
    18  H    3.125109   3.817213   0.000000
    19  H    3.766683   4.319228   1.782531   0.000000
    20  H    2.551512   3.756660   1.788070   1.778026   0.000000
    21  H    7.089492   6.448231   9.416469   8.809547   8.413796
    22  H    8.024905   7.573266  10.040089   9.147248   8.889684
    23  H    6.371233   6.328324   8.977912   8.501033   7.671987
    24  H    7.364750   7.453166   9.598757   8.820978   8.152122
    25  H    8.122524   7.955620  10.638243  10.028619   9.329212
                   21         22         23         24         25
    21  H    0.000000
    22  H    1.791633   0.000000
    23  H    2.457904   3.061573   0.000000
    24  H    3.070279   2.518883   1.791127   0.000000
    25  H    2.507724   2.501181   1.792541   1.789012   0.000000
 Stoichiometry    C8H14NO2(1-)
 Framework group  C1[X(C8H14NO2)]
 Deg. of freedom    69
 Full point group                 C1      NOp   1
 Largest Abelian subgroup         C1      NOp   1
 Largest concise Abelian subgroup C1      NOp   1
                         Standard orientation:                         
 ---------------------------------------------------------------------
 Center     Atomic      Atomic             Coordinates (Angstroms)
 Number     Number       Type             X           Y           Z
 ---------------------------------------------------------------------
      1          8           0       -1.643651    1.232949   -0.394032
      2          6           0       -1.457390    0.022071   -0.314670
      3          6           0       -0.267491   -0.726789   -0.242296
      4          7           0        0.937432   -0.117763   -0.261948
      5          6           0        2.058534   -0.737611   -0.203513
      6          6           0        3.387213   -0.017348   -0.256763
      7          6           0        3.212757    1.481450   -0.033304
      8          6           0        4.370834   -0.619569    0.750295
      9          8           0       -2.578729   -0.837832   -0.286159
     10          6           0       -3.834862   -0.215224   -0.280253
     11          6           0       -4.203297    0.346051    1.088220
     12          1           0       -0.353124   -1.821799   -0.176575
     13          1           0        2.108010   -1.846815   -0.140635
     14          1           0        3.839339   -0.155019   -1.263047
     15          1           0        4.163879    2.019818   -0.175327
     16          1           0        2.849201    1.665848    0.989267
     17          1           0        2.448605    1.875673   -0.713644
     18          1           0        5.368201   -0.156220    0.671450
     19          1           0        4.486007   -1.702967    0.589453
     20          1           0        3.998181   -0.472095    1.776195
     21          1           0       -3.863804    0.596219   -1.023780
     22          1           0       -4.558930   -0.993083   -0.575594
     23          1           0       -3.490285    1.138993    1.344166
     24          1           0       -4.153570   -0.446179    1.849555
     25          1           0       -5.222491    0.762838    1.077383
 ---------------------------------------------------------------------
 Rotational constants (GHZ):           3.3654118           0.3682248           0.3526319
 Standard basis: def2SVP (5D, 7F)
 There are   235 symmetry adapted cartesian basis functions of A   symmetry.
 There are   224 symmetry adapted basis functions of A   symmetry.
   224 basis functions,   373 primitive gaussians,   235 cartesian basis functions
    43 alpha electrons       43 beta electrons
       nuclear repulsion energy       596.0512639961 Hartrees.
 NAtoms=   25 NActive=   25 NUniq=   25 SFac= 1.00D+00 NAtFMM=   60 NAOKFM=F Big=F
 Integral buffers will be    131072 words long.
 Raffenetti 2 integral format.
 Two-electron integral symmetry is turned on.
 Nuclear repulsion after empirical dispersion term =      596.0504682907 Hartrees.
 One-electron integrals computed using PRISM.
   1 Symmetry operations used in ECPInt.
 ECPInt:  NShTT=    5886 NPrTT=   20688 LenC2=    5342 LenP2D=   14002.
 LDataN:  DoStor=T MaxTD1= 4 Len=   56
 NBasis=   224 RedAO= T EigKep=  1.18D-03  NBF=   224
 NBsUse=   224 1.00D-06 EigRej= -1.00D+00 NBFU=   224
 Initial guess from the checkpoint file:  "A18_crest_conformers_censo-14.chk"
 B after Tr=    -0.000000   -0.000000    0.000000
         Rot=    0.999565   -0.029436    0.001228    0.001100 Ang=  -3.38 deg.
 ExpMin= 1.22D-01 ExpMax= 2.27D+03 ExpMxC= 3.41D+02 IAcc=3 IRadAn=         5 AccDes= 0.00D+00
 Harris functional with IExCor= 1009 and IRadAn=       5 diagonalized for initial guess.
 HarFok:  IExCor= 1009 AccDes= 0.00D+00 IRadAn=         5 IDoV= 1 UseB2=F ITyADJ=14
 ICtDFT=  3500011 ScaDFX=  1.000000  1.000000  1.000000  1.000000
 FoFCou: FMM=F IPFlag=           0 FMFlag=      100000 FMFlg1=           0
         NFxFlg=           0 DoJE=T BraDBF=F KetDBF=T FulRan=T
         wScrn=  0.000000 ICntrl=       500 IOpCl=  0 I1Cent=   200000004 NGrid=           0
         NMat0=    1 NMatS0=      1 NMatT0=    0 NMatD0=    1 NMtDS0=    0 NMtDT0=    0
 Petite list used in FoFCou.
 Requested convergence on RMS density matrix=1.00D-08 within 128 cycles.
 Requested convergence on MAX density matrix=1.00D-06.
 Requested convergence on             energy=1.00D-06.
 No special actions if energy rises.
 Integral accuracy reduced to 1.0D-05 until final iterations.
 Initial convergence to 1.0D-05 achieved.  Increase integral accuracy.
 SCF Done:  E(RM062X) =  -517.870342581     A.U. after   13 cycles
            NFock= 13  Conv=0.45D-08     -V/T= 2.0100
   1 Symmetry operations used in ECPInt.
 ECPInt:  NShTT=    5886 NPrTT=   20688 LenC2=    5342 LenP2D=   14002.
 LDataN:  DoStor=T MaxTD1= 5 Len=  102
 Calling FoFJK, ICntrl=      2127 FMM=F ISym2X=0 I1Cent= 0 IOpClX= 0 NMat=1 NMatS=1 NMatT=0.
 ***** Axes restored to original set *****
 -------------------------------------------------------------------
 Center     Atomic                   Forces (Hartrees/Bohr)
 Number     Number              X              Y              Z
 -------------------------------------------------------------------
      1        8           0.002032327    0.001758482    0.002326176
      2        6           0.002491600   -0.002052149   -0.002859448
      3        6          -0.000303013    0.001842880    0.002018210
      4        7          -0.000126599   -0.000912090   -0.000537484
      5        6          -0.000886001    0.000696447    0.000197294
      6        6           0.000038862   -0.000771002   -0.000094470
      7        6          -0.000366161    0.000665013    0.000769863
      8        6          -0.000108796    0.000321563   -0.000769275
      9        8           0.000898387   -0.001787205   -0.000010025
     10        6          -0.002856980    0.000452161    0.000911571
     11        6          -0.000259058    0.001765269   -0.000307779
     12        1          -0.000260594   -0.000117782   -0.000168591
     13        1           0.000185342    0.000213974   -0.000006945
     14        1           0.000072282    0.000173287    0.000170784
     15        1          -0.000257466   -0.000139407   -0.000320160
     16        1           0.000381822   -0.000098078   -0.000067264
     17        1           0.000136342   -0.000203457   -0.000475671
     18        1          -0.000382724   -0.000177573    0.000102830
     19        1          -0.000005634    0.000096436    0.000324888
     20        1           0.000092562   -0.000284554    0.000226547
     21        1          -0.000206954   -0.000207946   -0.000865480
     22        1           0.000039634    0.000221589   -0.000654265
     23        1          -0.000410675   -0.000554864   -0.000051836
     24        1          -0.000263506   -0.000289425    0.000184227
     25        1           0.000325000   -0.000611569   -0.000043698
 -------------------------------------------------------------------
 Cartesian Forces:  Max     0.002859448 RMS     0.000923687

 GradGradGradGradGradGradGradGradGradGradGradGradGradGradGradGradGradGrad
 Berny optimization.
 Using GEDIIS/GDIIS optimizer.
 FormGI is forming the generalized inverse of G from B-inverse, IUseBI=4.
 Internal  Forces:  Max     0.006518637 RMS     0.000977795
 Search for a local minimum.
 Step number   8 out of a maximum of  121
 All quantities printed in internal units (Hartrees-Bohrs-Radians)
 Mixed Optimization -- En-DIIS/RFO-DIIS
 Swapping is turned off.
 Update second derivatives using D2CorX and points    7    8
 DE= -1.81D-04 DEPred=-2.48D-04 R= 7.29D-01
 TightC=F SS=  1.41D+00  RLast= 2.65D-01 DXNew= 2.1612D+00 7.9565D-01
 Trust test= 7.29D-01 RLast= 2.65D-01 DXMaxT set to 1.29D+00
 ITU=  1  1  1  1  1  1  1  0
     Eigenvalues ---    0.00135   0.00346   0.00373   0.00406   0.01052
     Eigenvalues ---    0.01377   0.01858   0.02335   0.02365   0.02488
     Eigenvalues ---    0.03299   0.03934   0.04932   0.05303   0.05473
     Eigenvalues ---    0.05480   0.05638   0.05684   0.05714   0.05768
     Eigenvalues ---    0.05817   0.05893   0.07957   0.11809   0.14005
     Eigenvalues ---    0.15142   0.15701   0.15922   0.15999   0.16000
     Eigenvalues ---    0.16000   0.16001   0.16004   0.16011   0.16037
     Eigenvalues ---    0.16126   0.16910   0.18049   0.21279   0.21920
     Eigenvalues ---    0.23163   0.24650   0.25126   0.26097   0.29115
     Eigenvalues ---    0.29387   0.29572   0.32190   0.33149   0.33251
     Eigenvalues ---    0.33619   0.33654   0.33819   0.34506   0.34663
     Eigenvalues ---    0.34747   0.34881   0.34911   0.34927   0.34962
     Eigenvalues ---    0.35147   0.35309   0.37515   0.42089   0.47759
     Eigenvalues ---    0.57442   0.59203   0.74963   0.90336
 En-DIIS/RFO-DIIS/Sim-DIIS IScMMF=       -3 using points:     8    7    6
 RFO step:  Lambda=-3.04141433D-04.
 DidBck=F Rises=F RFO-DIIS coefs:    1.69083   -0.72936    0.03853
 Iteration  1 RMS(Cart)=  0.05198583 RMS(Int)=  0.00098415
 Iteration  2 RMS(Cart)=  0.00139623 RMS(Int)=  0.00001090
 Iteration  3 RMS(Cart)=  0.00000077 RMS(Int)=  0.00001090
 Variable       Old X    -DE/DX   Delta X   Delta X   Delta X     New X
                                 (Linear)    (Quad)   (Total)
    R1        2.31999  -0.00263  -0.00063  -0.00213  -0.00276   2.31724
    R2        2.66035   0.00253  -0.00363   0.00712   0.00350   2.66385
    R3        2.67090  -0.00296   0.00557  -0.00800  -0.00243   2.66848
    R4        2.55158   0.00138   0.00180   0.00176   0.00356   2.55514
    R5        2.07930  -0.00023   0.00024  -0.00104  -0.00080   2.07850
    R6        2.42335   0.00112  -0.00168   0.00255   0.00087   2.42421
    R7        2.85780   0.00051  -0.00326   0.00342   0.00016   2.85796
    R8        2.10154   0.00012   0.00120  -0.00031   0.00090   2.10244
    R9        2.88254  -0.00012  -0.00063  -0.00037  -0.00100   2.88154
   R10        2.89341   0.00019   0.00228  -0.00048   0.00181   2.89522
   R11        2.10089   0.00002  -0.00029   0.00017  -0.00013   2.10077
   R12        2.08268   0.00040   0.00023   0.00090   0.00113   2.08382
   R13        2.08027   0.00017  -0.00004   0.00036   0.00032   2.08059
   R14        2.07199   0.00037   0.00022   0.00069   0.00090   2.07290
   R15        2.08355   0.00035   0.00077   0.00057   0.00134   2.08489
   R16        2.08118   0.00029   0.00019   0.00054   0.00073   2.08191
   R17        2.08135   0.00037  -0.00006   0.00090   0.00084   2.08219
   R18        2.64936  -0.00318   0.00026  -0.00490  -0.00464   2.64472
   R19        2.88051  -0.00049   0.00099  -0.00187  -0.00088   2.87963
   R20        2.08051   0.00085  -0.00143   0.00259   0.00117   2.08168
   R21        2.08433  -0.00007   0.00124  -0.00071   0.00053   2.08486
   R22        2.07238   0.00064   0.00033   0.00125   0.00159   2.07396
   R23        2.07847   0.00021   0.00016   0.00043   0.00059   2.07906
   R24        2.08092   0.00047   0.00067   0.00095   0.00163   2.08255
    A1        2.28658   0.00204   0.00158   0.00430   0.00585   2.29244
    A2        2.07260  -0.00352   0.00345  -0.01218  -0.00876   2.06384
    A3        1.92400   0.00148  -0.00496   0.00788   0.00289   1.92689
    A4        2.11015  -0.00048   0.00186  -0.00264  -0.00078   2.10936
    A5        2.05631   0.00049  -0.00096   0.00276   0.00179   2.05810
    A6        2.11671  -0.00001  -0.00092  -0.00009  -0.00102   2.11569
    A7        2.16695   0.00036  -0.00430   0.00396  -0.00034   2.16661
    A8        2.13682   0.00007   0.00186   0.00006   0.00186   2.13868
    A9        2.12184  -0.00023   0.00045  -0.00171  -0.00131   2.12052
   A10        2.02411   0.00016  -0.00188   0.00164  -0.00029   2.02382
   A11        1.94157   0.00013   0.00069   0.00141   0.00210   1.94367
   A12        1.93257   0.00013   0.00068   0.00123   0.00191   1.93448
   A13        1.90731  -0.00014  -0.00229  -0.00060  -0.00289   1.90442
   A14        1.94291  -0.00016  -0.00226   0.00070  -0.00157   1.94134
   A15        1.87631   0.00005   0.00341  -0.00159   0.00181   1.87813
   A16        1.86019  -0.00001  -0.00021  -0.00139  -0.00160   1.85858
   A17        1.94164   0.00015  -0.00243   0.00241  -0.00002   1.94162
   A18        1.91606   0.00005  -0.00071   0.00087   0.00016   1.91621
   A19        1.91994   0.00044   0.00383   0.00050   0.00434   1.92427
   A20        1.89958  -0.00001   0.00159  -0.00013   0.00146   1.90104
   A21        1.92395  -0.00034   0.00037  -0.00228  -0.00191   1.92205
   A22        1.86083  -0.00031  -0.00268  -0.00155  -0.00423   1.85660
   A23        1.94851   0.00036  -0.00153   0.00379   0.00226   1.95077
   A24        1.93697   0.00012  -0.00088   0.00107   0.00019   1.93716
   A25        1.92049  -0.00006  -0.00056  -0.00073  -0.00129   1.91920
   A26        1.88427  -0.00015   0.00024  -0.00019   0.00005   1.88432
   A27        1.89273  -0.00017   0.00136  -0.00183  -0.00047   1.89226
   A28        1.87878  -0.00012   0.00155  -0.00239  -0.00084   1.87794
   A29        2.02722  -0.00652   0.01016  -0.02145  -0.01128   2.01593
   A30        1.96478  -0.00143   0.00257  -0.00539  -0.00283   1.96195
   A31        1.92625   0.00031   0.00040  -0.00133  -0.00094   1.92531
   A32        1.84820   0.00057   0.00066   0.00404   0.00471   1.85290
   A33        1.90558   0.00012   0.00201  -0.00320  -0.00121   1.90437
   A34        1.91920   0.00076  -0.00561   0.00713   0.00152   1.92072
   A35        1.89831  -0.00028  -0.00024  -0.00083  -0.00106   1.89725
   A36        1.89507   0.00009   0.00449  -0.00241   0.00207   1.89714
   A37        1.92334   0.00013   0.00088   0.00025   0.00111   1.92445
   A38        1.93290   0.00071  -0.00408   0.00763   0.00355   1.93645
   A39        1.90695  -0.00034   0.00056  -0.00383  -0.00328   1.90367
   A40        1.90751  -0.00037  -0.00186  -0.00154  -0.00340   1.90412
   A41        1.89788  -0.00025   0.00004  -0.00025  -0.00022   1.89766
    D1       -0.00679   0.00013  -0.02038   0.01307  -0.00731  -0.01410
    D2       -3.14104   0.00010  -0.01553   0.00900  -0.00654   3.13561
    D3        3.13429   0.00001  -0.00908   0.00835  -0.00072   3.13357
    D4        0.00004  -0.00003  -0.00423   0.00427   0.00005   0.00009
    D5       -0.05751   0.00026  -0.02302   0.02864   0.00560  -0.05191
    D6        3.08452   0.00037  -0.03274   0.03271  -0.00001   3.08451
    D7       -3.13790   0.00002   0.00633  -0.00157   0.00476  -3.13314
    D8       -0.00391   0.00006   0.00131   0.00266   0.00397   0.00006
    D9        3.11937   0.00009   0.01057  -0.00158   0.00900   3.12836
   D10        0.01017  -0.00001  -0.00215  -0.00112  -0.00328   0.00689
   D11        0.24830  -0.00019  -0.06339  -0.00425  -0.06764   0.18066
   D12        2.41857  -0.00021  -0.06532  -0.00142  -0.06674   2.35182
   D13       -1.82074  -0.00024  -0.06657  -0.00276  -0.06933  -1.89007
   D14       -2.92400  -0.00009  -0.05127  -0.00474  -0.05602  -2.98001
   D15       -0.75373  -0.00012  -0.05321  -0.00192  -0.05513  -0.80885
   D16        1.29015  -0.00014  -0.05445  -0.00326  -0.05771   1.23244
   D17       -3.03884   0.00004  -0.01871  -0.01047  -0.02918  -3.06802
   D18        1.14067  -0.00008  -0.01865  -0.01245  -0.03110   1.10957
   D19       -0.90180   0.00001  -0.01723  -0.01137  -0.02860  -0.93040
   D20        1.07993  -0.00010  -0.01844  -0.01361  -0.03205   1.04787
   D21       -1.02375  -0.00022  -0.01838  -0.01560  -0.03398  -1.05773
   D22       -3.06622  -0.00013  -0.01696  -0.01452  -0.03148  -3.09770
   D23       -0.95127  -0.00003  -0.01897  -0.01137  -0.03034  -0.98161
   D24       -3.05494  -0.00014  -0.01891  -0.01335  -0.03226  -3.08721
   D25        1.18578  -0.00006  -0.01749  -0.01228  -0.02977   1.15601
   D26        3.06666  -0.00004  -0.00836   0.00044  -0.00792   3.05874
   D27        0.96364  -0.00017  -0.00702  -0.00263  -0.00965   0.95399
   D28       -1.11400  -0.00006  -0.00803   0.00013  -0.00790  -1.12190
   D29       -1.04702   0.00010  -0.00861   0.00368  -0.00494  -1.05196
   D30        3.13314  -0.00003  -0.00727   0.00061  -0.00667   3.12647
   D31        1.05550   0.00008  -0.00828   0.00337  -0.00492   1.05058
   D32        0.99402   0.00006  -0.00586   0.00132  -0.00454   0.98948
   D33       -1.10901  -0.00007  -0.00452  -0.00175  -0.00627  -1.11527
   D34        3.09654   0.00005  -0.00553   0.00101  -0.00452   3.09202
   D35       -1.34776   0.00011  -0.03007   0.00423  -0.02584  -1.37361
   D36        0.78621  -0.00052  -0.02540  -0.00465  -0.03005   0.75616
   D37        2.83780  -0.00037  -0.02510  -0.00403  -0.02912   2.80867
   D38        1.11820  -0.00037   0.00046  -0.00311  -0.00264   1.11556
   D39       -0.96983  -0.00009  -0.00347   0.00290  -0.00057  -0.97040
   D40       -3.07052  -0.00033  -0.00145  -0.00190  -0.00335  -3.07387
   D41       -1.02740   0.00013  -0.00324   0.00459   0.00135  -1.02604
   D42       -3.11542   0.00041  -0.00717   0.01060   0.00342  -3.11200
   D43        1.06707   0.00017  -0.00515   0.00580   0.00065   1.06772
   D44       -3.10882  -0.00005  -0.00079   0.00326   0.00247  -3.10635
   D45        1.08634   0.00022  -0.00473   0.00927   0.00454   1.09088
   D46       -1.01436  -0.00001  -0.00271   0.00448   0.00177  -1.01259
         Item               Value     Threshold  Converged?
 Maximum Force            0.006519     0.000450     NO 
 RMS     Force            0.000978     0.000300     NO 
 Maximum Displacement     0.166474     0.001800     NO 
 RMS     Displacement     0.052093     0.001200     NO 
 Predicted change in Energy=-1.568917D-04
 GradGradGradGradGradGradGradGradGradGradGradGradGradGradGradGradGradGrad

                          Input orientation:                          
 ---------------------------------------------------------------------
 Center     Atomic      Atomic             Coordinates (Angstroms)
 Number     Number       Type             X           Y           Z
 ---------------------------------------------------------------------
      1          8           0        1.577291   -0.608592   -1.150977
      2          6           0        1.412562    0.143946   -0.196941
      3          6           0        0.238822    0.622008    0.420227
      4          7           0       -0.981438    0.267630   -0.041957
      5          6           0       -2.088460    0.671775    0.464841
      6          6           0       -3.434477    0.265310   -0.092187
      7          6           0       -3.295124   -0.848163   -1.124614
      8          6           0       -4.390880   -0.139116    1.034317
      9          8           0        2.555409    0.657643    0.454238
     10          6           0        3.784039    0.193153   -0.028865
     11          6           0        4.120120   -1.201846    0.484068
     12          1           0        0.348201    1.296543    1.282086
     13          1           0       -2.110718    1.363052    1.336297
     14          1           0       -3.897088    1.139143   -0.600358
     15          1           0       -4.267737   -1.091370   -1.583787
     16          1           0       -2.890598   -1.752841   -0.644906
     17          1           0       -2.573718   -0.559843   -1.899015
     18          1           0       -5.402826   -0.357944    0.653139
     19          1           0       -4.476719    0.661937    1.785773
     20          1           0       -4.010144   -1.037179    1.546752
     21          1           0        3.782163    0.181673   -1.130380
     22          1           0        4.542796    0.915959    0.316127
     23          1           0        3.373258   -1.907753    0.098860
     24          1           0        4.097474   -1.219123    1.583891
     25          1           0        5.120942   -1.515551    0.145789
 ---------------------------------------------------------------------
                    Distance matrix (angstroms):
                    1          2          3          4          5
     1  O    0.000000
     2  C    1.226228   0.000000
     3  C    2.403031   1.409646   0.000000
     4  N    2.923147   2.402197   1.352122   0.000000
     5  C    4.205704   3.601904   2.328242   1.282839   0.000000
     6  C    5.196399   4.849689   3.725980   2.453554   1.512368
     7  C    4.878373   4.899711   4.127556   2.787523   2.508510
     8  C    6.372989   5.939364   4.731866   3.598347   2.506588
     9  O    2.266446   1.412097   2.317110   3.592715   4.643902
    10  C    2.602242   2.377935   3.599189   4.766077   5.912619
    11  C    3.080796   3.099324   4.288939   5.334975   6.485160
    12  H    3.325658   2.156122   1.099892   2.140021   2.644908
    13  H    4.865729   4.031195   2.628435   2.091603   1.112562
    14  H    5.772919   5.417152   4.291244   3.093923   2.150399
    15  H    5.880881   5.976215   5.221189   3.876065   3.472004
    16  H    4.639769   4.723946   4.070343   2.844423   2.784552
    17  H    4.218153   4.391218   3.832236   2.582389   2.709276
    18  H    7.213854   6.886511   5.730859   4.519200   3.475744
    19  H    6.847611   6.235630   4.909443   3.963970   2.729237
    20  H    6.219395   5.817324   4.698476   3.660544   2.789969
    21  H    2.342307   2.547105   3.892755   4.887121   6.103208
    22  H    3.642920   3.264599   4.315256   5.573663   6.637417
    23  H    2.544683   2.853297   4.040749   4.869856   6.051304
    24  H    3.768763   3.498296   4.430922   5.536169   6.564568
    25  H    3.880933   4.077190   5.336625   6.360348   7.540667
                    6          7          8          9         10
     6  C    0.000000
     7  C    1.524844   0.000000
     8  C    1.532082   2.522778   0.000000
     9  O    6.027540   6.244114   7.015856   0.000000
    10  C    7.219154   7.238754   8.250457   1.399526   0.000000
    11  C    7.717290   7.595973   8.594725   2.430415   1.523835
    12  H    4.154602   4.864750   4.957962   2.442395   3.839407
    13  H    2.235608   3.514026   2.747151   4.800871   6.162831
    14  H    1.111679   2.141632   2.133058   6.555816   7.760233
    15  H    2.181691   1.102708   2.788623   7.332661   8.300535
    16  H    2.161999   1.101001   2.770333   6.056199   6.979769
    17  H    2.164812   1.096929   3.476136   5.773041   6.669747
    18  H    2.195074   2.800558   1.103276   8.025240   9.228614
    19  H    2.184104   3.485243   1.101699   7.157081   8.470701
    20  H    2.171173   2.771855   1.101847   6.868224   8.046464
    21  H    7.291415   7.151825   8.460936   2.059730   1.101576
    22  H    8.014172   8.162160   9.024386   2.008858   1.103260
    23  H    7.148704   6.861993   8.017792   2.715959   2.144495
    24  H    7.857676   7.881886   8.574415   2.678868   2.166505
    25  H    8.742042   8.537535   9.651881   3.376370   2.176576
                   11         12         13         14         15
    11  C    0.000000
    12  H    4.594144   0.000000
    13  H    6.791785   2.460415   0.000000
    14  H    8.422104   4.646595   2.644218   0.000000
    15  H    8.639698   5.934833   4.382215   2.465705   0.000000
    16  H    7.122384   4.847872   3.773880   3.062446   1.793197
    17  H    7.134334   4.701402   3.791983   2.514830   1.803217
    18  H    9.561760   6.017242   3.777103   2.465718   2.613461
    19  H    8.892343   4.892471   2.508296   2.501462   3.804167
    20  H    8.201074   4.950907   3.068097   3.059287   3.141587
    21  H    2.152855   4.342237   6.496629   7.756840   8.162543
    22  H    2.166093   4.321174   6.746101   8.492432   9.233880
    23  H    1.097494   4.562731   6.504107   7.913938   7.866549
    24  H    1.100191   4.525120   6.728341   8.616576   8.945796
    25  H    1.102037   5.654918   7.874043   9.430217   9.556080
                   16         17         18         19         20
    16  H    0.000000
    17  H    1.759673   0.000000
    18  H    3.153085   3.815508   0.000000
    19  H    3.775597   4.323403   1.783449   0.000000
    20  H    2.562991   3.763573   1.788705   1.778150   0.000000
    21  H    6.964465   6.444988   9.372094   8.771757   8.329027
    22  H    7.956220   7.598001  10.032537   9.141992   8.859005
    23  H    6.309761   6.416766   8.929098   8.430369   7.574228
    24  H    7.354288   7.554474   9.584552   8.780428   8.109745
    25  H    8.053960   8.018877  10.599393   9.977278   9.250312
                   21         22         23         24         25
    21  H    0.000000
    22  H    1.791681   0.000000
    23  H    2.458442   3.064046   0.000000
    24  H    3.070654   2.522719   1.789976   0.000000
    25  H    2.510280   2.505097   1.791765   1.789830   0.000000
 Stoichiometry    C8H14NO2(1-)
 Framework group  C1[X(C8H14NO2)]
 Deg. of freedom    69
 Full point group                 C1      NOp   1
 Largest Abelian subgroup         C1      NOp   1
 Largest concise Abelian subgroup C1      NOp   1
                         Standard orientation:                         
 ---------------------------------------------------------------------
 Center     Atomic      Atomic             Coordinates (Angstroms)
 Number     Number       Type             X           Y           Z
 ---------------------------------------------------------------------
      1          8           0       -1.646296    1.238657   -0.349973
      2          6           0       -1.456190    0.027772   -0.314568
      3          6           0       -0.266697   -0.727086   -0.265603
      4          7           0        0.941039   -0.119137   -0.267028
      5          6           0        2.061261   -0.743339   -0.233118
      6          6           0        3.392804   -0.026501   -0.252946
      7          6           0        3.217710    1.476018   -0.060782
      8          6           0        4.343141   -0.612953    0.795963
      9          8           0       -2.581221   -0.825645   -0.313186
     10          6           0       -3.824555   -0.183659   -0.287777
     11          6           0       -4.196554    0.307242    1.106034
     12          1           0       -0.353196   -1.823123   -0.234230
     13          1           0        2.106856   -1.854637   -0.206080
     14          1           0        3.876904   -0.185011   -1.241051
     15          1           0        4.180983    2.005244   -0.150170
     16          1           0        2.790681    1.677373    0.933857
     17          1           0        2.500783    1.871209   -0.790915
     18          1           0        5.346785   -0.158410    0.738471
     19          1           0        4.454741   -1.700894    0.663029
     20          1           0        3.940236   -0.440468    1.806894
     21          1           0       -3.828362    0.670137   -0.983829
     22          1           0       -4.561361   -0.927317   -0.636017
     23          1           0       -3.471368    1.070739    1.415340
     24          1           0       -4.169038   -0.526335    1.823538
     25          1           0       -5.207297    0.746382    1.112413
 ---------------------------------------------------------------------
 Rotational constants (GHZ):           3.3426529           0.3688381           0.3538852
 Standard basis: def2SVP (5D, 7F)
 There are   235 symmetry adapted cartesian basis functions of A   symmetry.
 There are   224 symmetry adapted basis functions of A   symmetry.
   224 basis functions,   373 primitive gaussians,   235 cartesian basis functions
    43 alpha electrons       43 beta electrons
       nuclear repulsion energy       596.3490367391 Hartrees.
 NAtoms=   25 NActive=   25 NUniq=   25 SFac= 1.00D+00 NAtFMM=   60 NAOKFM=F Big=F
 Integral buffers will be    131072 words long.
 Raffenetti 2 integral format.
 Two-electron integral symmetry is turned on.
 Nuclear repulsion after empirical dispersion term =      596.3482397840 Hartrees.
 One-electron integrals computed using PRISM.
   1 Symmetry operations used in ECPInt.
 ECPInt:  NShTT=    5886 NPrTT=   20688 LenC2=    5341 LenP2D=   13997.
 LDataN:  DoStor=T MaxTD1= 4 Len=   56
 NBasis=   224 RedAO= T EigKep=  1.18D-03  NBF=   224
 NBsUse=   224 1.00D-06 EigRej= -1.00D+00 NBFU=   224
 Initial guess from the checkpoint file:  "A18_crest_conformers_censo-14.chk"
 B after Tr=     0.000000    0.000000   -0.000000
         Rot=    0.999982   -0.006034    0.000521    0.000357 Ang=  -0.70 deg.
 ExpMin= 1.22D-01 ExpMax= 2.27D+03 ExpMxC= 3.41D+02 IAcc=3 IRadAn=         5 AccDes= 0.00D+00
 Harris functional with IExCor= 1009 and IRadAn=       5 diagonalized for initial guess.
 HarFok:  IExCor= 1009 AccDes= 0.00D+00 IRadAn=         5 IDoV= 1 UseB2=F ITyADJ=14
 ICtDFT=  3500011 ScaDFX=  1.000000  1.000000  1.000000  1.000000
 FoFCou: FMM=F IPFlag=           0 FMFlag=      100000 FMFlg1=           0
         NFxFlg=           0 DoJE=T BraDBF=F KetDBF=T FulRan=T
         wScrn=  0.000000 ICntrl=       500 IOpCl=  0 I1Cent=   200000004 NGrid=           0
         NMat0=    1 NMatS0=      1 NMatT0=    0 NMatD0=    1 NMtDS0=    0 NMtDT0=    0
 Petite list used in FoFCou.
 Requested convergence on RMS density matrix=1.00D-08 within 128 cycles.
 Requested convergence on MAX density matrix=1.00D-06.
 Requested convergence on             energy=1.00D-06.
 No special actions if energy rises.
 Integral accuracy reduced to 1.0D-05 until final iterations.
 Initial convergence to 1.0D-05 achieved.  Increase integral accuracy.
 SCF Done:  E(RM062X) =  -517.870535132     A.U. after   13 cycles
            NFock= 13  Conv=0.33D-08     -V/T= 2.0100
   1 Symmetry operations used in ECPInt.
 ECPInt:  NShTT=    5886 NPrTT=   20688 LenC2=    5341 LenP2D=   13997.
 LDataN:  DoStor=T MaxTD1= 5 Len=  102
 Calling FoFJK, ICntrl=      2127 FMM=F ISym2X=0 I1Cent= 0 IOpClX= 0 NMat=1 NMatS=1 NMatT=0.
 ***** Axes restored to original set *****
 -------------------------------------------------------------------
 Center     Atomic                   Forces (Hartrees/Bohr)
 Number     Number              X              Y              Z
 -------------------------------------------------------------------
      1        8          -0.000353987    0.000330647   -0.000079611
      2        6           0.001305182   -0.001329818   -0.000252822
      3        6          -0.000607482    0.000816875    0.000183336
      4        7           0.000373454   -0.000485174   -0.000242575
      5        6          -0.000227031    0.000318766    0.000490964
      6        6          -0.000148550   -0.000241914   -0.000189828
      7        6           0.000004445    0.000053205    0.000593231
      8        6           0.000019372    0.000089147   -0.000280000
      9        8           0.000094454   -0.000452577    0.000708599
     10        6          -0.000263614    0.000543730   -0.000026196
     11        6           0.000078095    0.000598818   -0.000168612
     12        1          -0.000022761    0.000075694   -0.000113339
     13        1           0.000015769    0.000044939   -0.000216446
     14        1           0.000087216    0.000067796    0.000083287
     15        1           0.000080670    0.000071253   -0.000150995
     16        1           0.000132187    0.000171086   -0.000092622
     17        1          -0.000041045   -0.000080546   -0.000270208
     18        1           0.000036691   -0.000035518    0.000075429
     19        1           0.000011006   -0.000060086    0.000080195
     20        1          -0.000026304   -0.000063074    0.000094797
     21        1          -0.000059883   -0.000132203   -0.000090596
     22        1          -0.000090189    0.000084253   -0.000253517
     23        1          -0.000181844   -0.000023553   -0.000091916
     24        1          -0.000119088   -0.000144696    0.000077771
     25        1          -0.000096763   -0.000217052    0.000131675
 -------------------------------------------------------------------
 Cartesian Forces:  Max     0.001329818 RMS     0.000331939

 GradGradGradGradGradGradGradGradGradGradGradGradGradGradGradGradGradGrad
 Berny optimization.
 Using GEDIIS/GDIIS optimizer.
 FormGI is forming the generalized inverse of G from B-inverse, IUseBI=4.
 Internal  Forces:  Max     0.001122253 RMS     0.000240826
 Search for a local minimum.
 Step number   9 out of a maximum of  121
 All quantities printed in internal units (Hartrees-Bohrs-Radians)
 Mixed Optimization -- En-DIIS/RFO-DIIS
 Swapping is turned off.
 Update second derivatives using D2CorX and points    7    8    9
 DE= -1.93D-04 DEPred=-1.57D-04 R= 1.23D+00
 TightC=F SS=  1.41D+00  RLast= 1.89D-01 DXNew= 2.1612D+00 5.6619D-01
 Trust test= 1.23D+00 RLast= 1.89D-01 DXMaxT set to 1.29D+00
 ITU=  1  1  1  1  1  1  1  1  0
     Eigenvalues ---    0.00100   0.00338   0.00372   0.00406   0.00892
     Eigenvalues ---    0.01378   0.02189   0.02291   0.02359   0.02513
     Eigenvalues ---    0.03309   0.03939   0.04931   0.05320   0.05456
     Eigenvalues ---    0.05471   0.05639   0.05685   0.05704   0.05754
     Eigenvalues ---    0.05797   0.06037   0.08123   0.11789   0.14107
     Eigenvalues ---    0.14987   0.15615   0.15945   0.16000   0.16000
     Eigenvalues ---    0.16001   0.16002   0.16007   0.16028   0.16101
     Eigenvalues ---    0.16138   0.16927   0.18101   0.21218   0.22076
     Eigenvalues ---    0.23400   0.25089   0.25479   0.27075   0.29144
     Eigenvalues ---    0.29411   0.29604   0.32204   0.33138   0.33302
     Eigenvalues ---    0.33648   0.33670   0.33818   0.34463   0.34663
     Eigenvalues ---    0.34756   0.34892   0.34908   0.34925   0.34998
     Eigenvalues ---    0.35254   0.35325   0.37686   0.42279   0.47502
     Eigenvalues ---    0.55591   0.59740   0.74923   0.90714
 En-DIIS/RFO-DIIS/Sim-DIIS IScMMF=       -3 using points:     9    8    7    6
 RFO step:  Lambda=-1.05381503D-04.
 DidBck=F Rises=F RFO-DIIS coefs:    2.18645   -1.25988    0.25157   -0.17814
 Iteration  1 RMS(Cart)=  0.06376581 RMS(Int)=  0.00138803
 Iteration  2 RMS(Cart)=  0.00216531 RMS(Int)=  0.00000638
 Iteration  3 RMS(Cart)=  0.00000208 RMS(Int)=  0.00000632
 Iteration  4 RMS(Cart)=  0.00000000 RMS(Int)=  0.00000632
 Variable       Old X    -DE/DX   Delta X   Delta X   Delta X     New X
                                 (Linear)    (Quad)   (Total)
    R1        2.31724  -0.00019  -0.00296   0.00190  -0.00107   2.31617
    R2        2.66385   0.00053   0.00411  -0.00285   0.00126   2.66511
    R3        2.66848  -0.00029  -0.00353   0.00391   0.00038   2.66886
    R4        2.55514  -0.00024   0.00406  -0.00256   0.00151   2.55664
    R5        2.07850  -0.00004  -0.00090   0.00058  -0.00032   2.07818
    R6        2.42421   0.00024   0.00096  -0.00081   0.00015   2.42436
    R7        2.85796  -0.00011  -0.00004  -0.00190  -0.00194   2.85602
    R8        2.10244  -0.00014   0.00111  -0.00090   0.00021   2.10265
    R9        2.88154  -0.00019  -0.00154  -0.00025  -0.00179   2.87975
   R10        2.89522  -0.00003   0.00230  -0.00037   0.00193   2.89715
   R11        2.10077  -0.00002   0.00014  -0.00022  -0.00008   2.10069
   R12        2.08382  -0.00002   0.00125  -0.00095   0.00029   2.08411
   R13        2.08059  -0.00013   0.00035  -0.00094  -0.00059   2.08000
   R14        2.07290   0.00014   0.00099  -0.00012   0.00087   2.07377
   R15        2.08489  -0.00005   0.00165  -0.00097   0.00068   2.08557
   R16        2.08191   0.00001   0.00091  -0.00051   0.00040   2.08230
   R17        2.08219   0.00009   0.00096  -0.00044   0.00051   2.08270
   R18        2.64472  -0.00074  -0.00516   0.00238  -0.00278   2.64194
   R19        2.87963  -0.00028  -0.00121   0.00044  -0.00077   2.87886
   R20        2.08168   0.00009   0.00127  -0.00084   0.00044   2.08211
   R21        2.08486  -0.00009   0.00050  -0.00041   0.00010   2.08495
   R22        2.07396   0.00017   0.00185  -0.00092   0.00093   2.07489
   R23        2.07906   0.00008   0.00071  -0.00002   0.00069   2.07975
   R24        2.08255  -0.00007   0.00187  -0.00128   0.00059   2.08313
    A1        2.29244  -0.00027   0.00644  -0.00639   0.00004   2.29248
    A2        2.06384   0.00049  -0.01019   0.01243   0.00223   2.06607
    A3        1.92689  -0.00021   0.00374  -0.00599  -0.00226   1.92463
    A4        2.10936  -0.00044  -0.00104  -0.00112  -0.00216   2.10721
    A5        2.05810   0.00024   0.00211  -0.00038   0.00172   2.05983
    A6        2.11569   0.00020  -0.00107   0.00152   0.00044   2.11613
    A7        2.16661   0.00002  -0.00035  -0.00127  -0.00161   2.16500
    A8        2.13868  -0.00048   0.00301  -0.00365  -0.00067   2.13801
    A9        2.12052   0.00023  -0.00172   0.00269   0.00094   2.12147
   A10        2.02382   0.00025  -0.00104   0.00092  -0.00015   2.02367
   A11        1.94367  -0.00017   0.00262  -0.00347  -0.00085   1.94282
   A12        1.93448   0.00007   0.00209  -0.00083   0.00126   1.93574
   A13        1.90442   0.00000  -0.00298   0.00068  -0.00230   1.90212
   A14        1.94134   0.00007  -0.00182   0.00056  -0.00126   1.94008
   A15        1.87813   0.00004   0.00241   0.00094   0.00334   1.88147
   A16        1.85858  -0.00000  -0.00260   0.00247  -0.00013   1.85846
   A17        1.94162   0.00006  -0.00040  -0.00045  -0.00085   1.94077
   A18        1.91621  -0.00003   0.00002  -0.00015  -0.00014   1.91608
   A19        1.92427   0.00023   0.00570  -0.00015   0.00555   1.92983
   A20        1.90104   0.00007   0.00182   0.00128   0.00310   1.90414
   A21        1.92205  -0.00023  -0.00181  -0.00141  -0.00322   1.91882
   A22        1.85660  -0.00011  -0.00558   0.00096  -0.00461   1.85199
   A23        1.95077   0.00007   0.00259  -0.00159   0.00100   1.95177
   A24        1.93716   0.00007   0.00019   0.00016   0.00034   1.93751
   A25        1.91920   0.00007  -0.00148   0.00107  -0.00041   1.91879
   A26        1.88432  -0.00004  -0.00014   0.00010  -0.00004   1.88428
   A27        1.89226  -0.00008  -0.00033   0.00013  -0.00020   1.89206
   A28        1.87794  -0.00010  -0.00094   0.00019  -0.00076   1.87718
   A29        2.01593  -0.00112  -0.01381   0.01078  -0.00303   2.01290
   A30        1.96195  -0.00093  -0.00310  -0.00025  -0.00335   1.95860
   A31        1.92531   0.00032  -0.00080   0.00152   0.00071   1.92602
   A32        1.85290   0.00024   0.00476  -0.00303   0.00173   1.85464
   A33        1.90437   0.00003  -0.00211   0.00178  -0.00034   1.90403
   A34        1.92072   0.00050   0.00247  -0.00059   0.00188   1.92260
   A35        1.89725  -0.00013  -0.00098   0.00048  -0.00050   1.89675
   A36        1.89714  -0.00029   0.00183  -0.00270  -0.00087   1.89627
   A37        1.92445   0.00013   0.00124   0.00035   0.00159   1.92604
   A38        1.93645   0.00043   0.00390  -0.00030   0.00359   1.94005
   A39        1.90367  -0.00004  -0.00324   0.00108  -0.00216   1.90151
   A40        1.90412  -0.00007  -0.00372   0.00166  -0.00206   1.90206
   A41        1.89766  -0.00016  -0.00018  -0.00003  -0.00023   1.89744
    D1       -0.01410   0.00037  -0.00885   0.01368   0.00483  -0.00927
    D2        3.13561   0.00034  -0.00756   0.01127   0.00370   3.13931
    D3        3.13357  -0.00012  -0.00153   0.00273   0.00121   3.13477
    D4        0.00009  -0.00014  -0.00024   0.00032   0.00008   0.00018
    D5       -0.05191   0.00020   0.00932   0.00877   0.01806  -0.03384
    D6        3.08451   0.00061   0.00309   0.01804   0.02115   3.10566
    D7       -3.13314  -0.00007   0.00539  -0.00387   0.00152  -3.13162
    D8        0.00006  -0.00004   0.00407  -0.00139   0.00268   0.00275
    D9        3.12836  -0.00000   0.00935  -0.00163   0.00773   3.13609
   D10        0.00689  -0.00001  -0.00348   0.00101  -0.00248   0.00441
   D11        0.18066  -0.00014  -0.09762  -0.00085  -0.09847   0.08219
   D12        2.35182  -0.00013  -0.09654  -0.00326  -0.09980   2.25202
   D13       -1.89007  -0.00009  -0.10029  -0.00032  -0.10061  -1.99068
   D14       -2.98001  -0.00013  -0.08546  -0.00332  -0.08878  -3.06880
   D15       -0.80885  -0.00012  -0.08438  -0.00573  -0.09012  -0.89897
   D16        1.23244  -0.00008  -0.08813  -0.00280  -0.09093   1.14152
   D17       -3.06802   0.00006  -0.03484   0.00189  -0.03295  -3.10097
   D18        1.10957  -0.00005  -0.03687   0.00067  -0.03620   1.07336
   D19       -0.93040  -0.00004  -0.03346  -0.00032  -0.03378  -0.96418
   D20        1.04787   0.00005  -0.03814   0.00511  -0.03304   1.01484
   D21       -1.05773  -0.00006  -0.04018   0.00389  -0.03629  -1.09401
   D22       -3.09770  -0.00004  -0.03676   0.00290  -0.03386  -3.13156
   D23       -0.98161  -0.00001  -0.03544   0.00127  -0.03417  -1.01577
   D24       -3.08721  -0.00012  -0.03747   0.00006  -0.03742  -3.12462
   D25        1.15601  -0.00011  -0.03406  -0.00094  -0.03499   1.12102
   D26        3.05874   0.00007  -0.01083   0.00159  -0.00924   3.04950
   D27        0.95399   0.00002  -0.01254   0.00244  -0.01010   0.94389
   D28       -1.12190   0.00006  -0.01054   0.00143  -0.00911  -1.13102
   D29       -1.05196  -0.00006  -0.00723  -0.00311  -0.01034  -1.06230
   D30        3.12647  -0.00010  -0.00894  -0.00226  -0.01120   3.11527
   D31        1.05058  -0.00007  -0.00695  -0.00327  -0.01022   1.04037
   D32        0.98948   0.00003  -0.00685  -0.00024  -0.00708   0.98239
   D33       -1.11527  -0.00002  -0.00856   0.00061  -0.00795  -1.12323
   D34        3.09202   0.00002  -0.00656  -0.00040  -0.00696   3.08506
   D35       -1.37361   0.00020  -0.01124  -0.00336  -0.01460  -1.38821
   D36        0.75616  -0.00018  -0.01670  -0.00016  -0.01685   0.73931
   D37        2.80867  -0.00003  -0.01557  -0.00052  -0.01609   2.79259
   D38        1.11556  -0.00011  -0.00380   0.00891   0.00512   1.12067
   D39       -0.97040   0.00004  -0.00171   0.00905   0.00735  -0.96305
   D40       -3.07387  -0.00012  -0.00484   0.00905   0.00421  -3.06965
   D41       -1.02604   0.00010   0.00084   0.00587   0.00671  -1.01933
   D42       -3.11200   0.00025   0.00293   0.00602   0.00895  -3.10306
   D43        1.06772   0.00009  -0.00020   0.00601   0.00581   1.07352
   D44       -3.10635  -0.00006   0.00185   0.00455   0.00641  -3.09994
   D45        1.09088   0.00009   0.00394   0.00470   0.00864   1.09952
   D46       -1.01259  -0.00007   0.00081   0.00469   0.00550  -1.00709
         Item               Value     Threshold  Converged?
 Maximum Force            0.001122     0.000450     NO 
 RMS     Force            0.000241     0.000300     YES
 Maximum Displacement     0.202148     0.001800     NO 
 RMS     Displacement     0.063909     0.001200     NO 
 Predicted change in Energy=-5.470133D-05
 GradGradGradGradGradGradGradGradGradGradGradGradGradGradGradGradGradGrad

                          Input orientation:                          
 ---------------------------------------------------------------------
 Center     Atomic      Atomic             Coordinates (Angstroms)
 Number     Number       Type             X           Y           Z
 ---------------------------------------------------------------------
      1          8           0        1.558786   -0.677339   -1.110956
      2          6           0        1.402178    0.117098   -0.190851
      3          6           0        0.233091    0.634624    0.404456
      4          7           0       -0.990425    0.268006   -0.041624
      5          6           0       -2.093468    0.706513    0.445083
      6          6           0       -3.442265    0.278142   -0.085381
      7          6           0       -3.300382   -0.796232   -1.156760
      8          6           0       -4.353648   -0.193248    1.053732
      9          8           0        2.548804    0.651095    0.437388
     10          6           0        3.771497    0.172445   -0.042694
     11          6           0        4.116857   -1.198128    0.525714
     12          1           0        0.347824    1.347238    1.234161
     13          1           0       -2.109952    1.437749    1.283573
     14          1           0       -3.944046    1.155470   -0.548254
     15          1           0       -4.282644   -1.077749   -1.571751
     16          1           0       -2.821365   -1.689435   -0.727515
     17          1           0       -2.638437   -0.452870   -1.961865
     18          1           0       -5.372651   -0.421201    0.696404
     19          1           0       -4.433098    0.574885    1.839772
     20          1           0       -3.936194   -1.101647    1.517639
     21          1           0        3.754274    0.112490   -1.142734
     22          1           0        4.532715    0.911944    0.258939
     23          1           0        3.368905   -1.921885    0.175984
     24          1           0        4.101144   -1.171327    1.625832
     25          1           0        5.115654   -1.526190    0.194128
 ---------------------------------------------------------------------
                    Distance matrix (angstroms):
                    1          2          3          4          5
     1  O    0.000000
     2  C    1.225662   0.000000
     3  C    2.403162   1.410315   0.000000
     4  N    2.921579   2.401998   1.352918   0.000000
     5  C    4.204196   3.601578   2.328024   1.282916   0.000000
     6  C    5.193771   4.848267   3.724951   2.452251   1.511339
     7  C    4.860838   4.886843   4.119487   2.777055   2.506149
     8  C    6.314831   5.897020   4.705859   3.567047   2.507676
     9  O    2.267651   1.412299   2.316006   3.591985   4.642610
    10  C    2.599886   2.374591   3.596369   4.762881   5.909397
    11  C    3.081175   3.100446   4.296199   5.343759   6.496330
    12  H    3.326396   2.157676   1.099724   2.140859   2.644443
    13  H    4.864875   4.031515   2.628252   2.092316   1.112675
    14  H    5.827262   5.457845   4.315948   3.125402   2.147771
    15  H    5.873241   5.970909   5.218187   3.871828   3.470404
    16  H    4.511883   4.624921   4.001539   2.766652   2.765029
    17  H    4.288486   4.448363   3.876570   2.631147   2.726639
    18  H    7.167774   6.853854   5.711773   4.497065   3.476772
    19  H    6.795405   6.195438   4.882317   3.935203   2.726967
    20  H    6.106091   5.736070   4.651532   3.603443   2.795614
    21  H    2.333454   2.537411   3.881385   4.873274   6.088523
    22  H    3.639600   3.261035   4.311014   5.568669   6.631979
    23  H    2.545907   2.856577   4.052316   4.883312   6.067817
    24  H    3.767972   3.499255   4.440163   5.547627   6.579792
    25  H    3.882667   4.079032   5.343480   6.368589   7.551118
                    6          7          8          9         10
     6  C    0.000000
     7  C    1.523897   0.000000
     8  C    1.533104   2.521752   0.000000
     9  O    6.025387   6.232901   6.981164   0.000000
    10  C    7.214662   7.224331   8.206940   1.398056   0.000000
    11  C    7.726134   7.616277   8.546230   2.426153   1.523428
    12  H    4.153183   4.860079   4.950706   2.442084   3.838233
    13  H    2.234677   3.516109   2.783370   4.799882   6.160473
    14  H    1.111637   2.143297   2.133816   6.586576   7.794327
    15  H    2.180361   1.102863   2.771380   7.327635   8.292779
    16  H    2.160836   1.100691   2.785553   5.972755   6.884868
    17  H    2.168343   1.097389   3.478963   5.820879   6.720230
    18  H    2.196966   2.805203   1.103636   7.997898   9.193157
    19  H    2.185411   3.484568   1.101908   7.121759   8.427397
    20  H    2.171971   2.765853   1.102118   6.803988   7.966583
    21  H    7.275686   7.112956   8.405733   2.059136   1.101807
    22  H    8.007532   8.141221   8.990027   2.008927   1.103310
    23  H    7.162434   6.893670   7.962189   2.713139   2.143857
    24  H    7.869703   7.916192   8.530383   2.672709   2.167573
    25  H    8.750527   8.554964   9.601215   3.374680   2.179038
                   11         12         13         14         15
    11  C    0.000000
    12  H    4.602868   0.000000
    13  H    6.804069   2.459939   0.000000
    14  H    8.465872   4.651228   2.607522   0.000000
    15  H    8.658260   5.932532   4.381918   2.479811   0.000000
    16  H    7.067595   4.807631   3.785481   3.063662   1.795057
    17  H    7.237228   4.729982   3.792969   2.507921   1.801688
    18  H    9.522790   6.011688   3.800746   2.464950   2.600712
    19  H    8.830179   4.880626   2.539862   2.505777   3.793722
    20  H    8.114484   4.942692   3.136635   3.059828   3.108847
    21  H    2.152419   4.333375   6.483242   7.791363   8.135894
    22  H    2.167143   4.319010   6.741763   8.518588   9.220675
    23  H    1.097984   4.575351   6.521639   7.967050   7.893880
    24  H    1.100557   4.536957   6.745527   8.652497   8.973360
    25  H    1.102347   5.663079   7.885507   9.477373   9.573267
                   16         17         18         19         20
    16  H    0.000000
    17  H    1.756751   0.000000
    18  H    3.185126   3.813572   0.000000
    19  H    3.783622   4.327764   1.783883   0.000000
    20  H    2.574695   3.769885   1.789090   1.778045   0.000000
    21  H    6.830693   6.469727   9.325665   8.725950   8.227698
    22  H    7.862745   7.630210  10.004245   9.110348   8.795527
    23  H    6.260175   6.543436   8.884689   8.359025   7.472436
    24  H    7.329926   7.668748   9.548786   8.713685   8.038368
    25  H    7.992018   8.119498  10.558307   9.914703   9.157940
                   21         22         23         24         25
    21  H    0.000000
    22  H    1.791588   0.000000
    23  H    2.454834   3.064625   0.000000
    24  H    3.071395   2.528768   1.789294   0.000000
    25  H    2.515120   2.507691   1.791100   1.790234   0.000000
 Stoichiometry    C8H14NO2(1-)
 Framework group  C1[X(C8H14NO2)]
 Deg. of freedom    69
 Full point group                 C1      NOp   1
 Largest Abelian subgroup         C1      NOp   1
 Largest concise Abelian subgroup C1      NOp   1
                         Standard orientation:                         
 ---------------------------------------------------------------------
 Center     Atomic      Atomic             Coordinates (Angstroms)
 Number     Number       Type             X           Y           Z
 ---------------------------------------------------------------------
      1          8           0       -1.631128    1.251282   -0.280104
      2          6           0       -1.448562    0.039473   -0.300988
      3          6           0       -0.263073   -0.724429   -0.293314
      4          7           0        0.947814   -0.121504   -0.268369
      5          6           0        2.064668   -0.752778   -0.270645
      6          6           0        3.398729   -0.042871   -0.249208
      7          6           0        3.222029    1.464244   -0.109053
      8          6           0        4.297375   -0.600271    0.860814
      9          8           0       -2.577131   -0.808840   -0.336813
     10          6           0       -3.814795   -0.159576   -0.302092
     11          6           0       -4.200891    0.269529    1.107743
     12          1           0       -0.354392   -1.820140   -0.314974
     13          1           0        2.105091   -1.864379   -0.298096
     14          1           0        3.926269   -0.235415   -1.208565
     15          1           0        4.194438    1.983904   -0.135172
     16          1           0        2.716694    1.693282    0.841577
     17          1           0        2.569407    1.851333   -0.901840
     18          1           0        5.308255   -0.158400    0.831082
     19          1           0        4.401765   -1.693695    0.772909
     20          1           0        3.853173   -0.386941    1.846634
     21          1           0       -3.801464    0.726047   -0.957434
     22          1           0       -4.552455   -0.879372   -0.695848
     23          1           0       -3.476098    1.016043    1.458398
     24          1           0       -4.182316   -0.594321    1.789390
     25          1           0       -5.209878    0.713115    1.126320
 ---------------------------------------------------------------------
 Rotational constants (GHZ):           3.3215960           0.3701286           0.3557959
 Standard basis: def2SVP (5D, 7F)
 There are   235 symmetry adapted cartesian basis functions of A   symmetry.
 There are   224 symmetry adapted basis functions of A   symmetry.
   224 basis functions,   373 primitive gaussians,   235 cartesian basis functions
    43 alpha electrons       43 beta electrons
       nuclear repulsion energy       596.7643319618 Hartrees.
 NAtoms=   25 NActive=   25 NUniq=   25 SFac= 1.00D+00 NAtFMM=   60 NAOKFM=F Big=F
 Integral buffers will be    131072 words long.
 Raffenetti 2 integral format.
 Two-electron integral symmetry is turned on.
 Nuclear repulsion after empirical dispersion term =      596.7635327636 Hartrees.
 One-electron integrals computed using PRISM.
   1 Symmetry operations used in ECPInt.
 ECPInt:  NShTT=    5886 NPrTT=   20688 LenC2=    5348 LenP2D=   14011.
 LDataN:  DoStor=T MaxTD1= 4 Len=   56
 NBasis=   224 RedAO= T EigKep=  1.17D-03  NBF=   224
 NBsUse=   224 1.00D-06 EigRej= -1.00D+00 NBFU=   224
 Initial guess from the checkpoint file:  "A18_crest_conformers_censo-14.chk"
 B after Tr=    -0.000000   -0.000000    0.000000
         Rot=    0.999990   -0.004274    0.001070    0.000536 Ang=  -0.51 deg.
 ExpMin= 1.22D-01 ExpMax= 2.27D+03 ExpMxC= 3.41D+02 IAcc=3 IRadAn=         5 AccDes= 0.00D+00
 Harris functional with IExCor= 1009 and IRadAn=       5 diagonalized for initial guess.
 HarFok:  IExCor= 1009 AccDes= 0.00D+00 IRadAn=         5 IDoV= 1 UseB2=F ITyADJ=14
 ICtDFT=  3500011 ScaDFX=  1.000000  1.000000  1.000000  1.000000
 FoFCou: FMM=F IPFlag=           0 FMFlag=      100000 FMFlg1=           0
         NFxFlg=           0 DoJE=T BraDBF=F KetDBF=T FulRan=T
         wScrn=  0.000000 ICntrl=       500 IOpCl=  0 I1Cent=   200000004 NGrid=           0
         NMat0=    1 NMatS0=      1 NMatT0=    0 NMatD0=    1 NMtDS0=    0 NMtDT0=    0
 Petite list used in FoFCou.
 Requested convergence on RMS density matrix=1.00D-08 within 128 cycles.
 Requested convergence on MAX density matrix=1.00D-06.
 Requested convergence on             energy=1.00D-06.
 No special actions if energy rises.
 Integral accuracy reduced to 1.0D-05 until final iterations.
 Initial convergence to 1.0D-05 achieved.  Increase integral accuracy.
 SCF Done:  E(RM062X) =  -517.870595473     A.U. after   13 cycles
            NFock= 13  Conv=0.36D-08     -V/T= 2.0100
   1 Symmetry operations used in ECPInt.
 ECPInt:  NShTT=    5886 NPrTT=   20688 LenC2=    5348 LenP2D=   14011.
 LDataN:  DoStor=T MaxTD1= 5 Len=  102
 Calling FoFJK, ICntrl=      2127 FMM=F ISym2X=0 I1Cent= 0 IOpClX= 0 NMat=1 NMatS=1 NMatT=0.
 ***** Axes restored to original set *****
 -------------------------------------------------------------------
 Center     Atomic                   Forces (Hartrees/Bohr)
 Number     Number              X              Y              Z
 -------------------------------------------------------------------
      1        8          -0.000012060   -0.000116853   -0.000388030
      2        6          -0.000093146    0.000158992    0.000872078
      3        6          -0.000685175   -0.000093278   -0.000550854
      4        7           0.000669124    0.000067170    0.000108832
      5        6          -0.000006512    0.000495099    0.000502404
      6        6          -0.000307925    0.000095226   -0.000155700
      7        6           0.000039083   -0.000672475    0.000208119
      8        6          -0.000081394   -0.000052264    0.000001629
      9        8          -0.000450488   -0.000282385    0.000125102
     10        6           0.000805860    0.000225292   -0.000081786
     11        6           0.000254708   -0.000358105   -0.000141946
     12        1           0.000022990    0.000054768   -0.000084218
     13        1           0.000049023   -0.000160449   -0.000158830
     14        1           0.000177672   -0.000111711    0.000109616
     15        1           0.000156472    0.000079214   -0.000121510
     16        1          -0.000149329    0.000238593   -0.000046324
     17        1          -0.000144025    0.000148103   -0.000038024
     18        1           0.000115718   -0.000009034    0.000059559
     19        1           0.000038178   -0.000109997   -0.000119238
     20        1          -0.000045025    0.000138567   -0.000060255
     21        1          -0.000024039   -0.000080802    0.000105255
     22        1          -0.000022356    0.000011710   -0.000121815
     23        1          -0.000083105    0.000210956   -0.000026104
     24        1          -0.000036268    0.000089000   -0.000146250
     25        1          -0.000187983    0.000034664    0.000148290
 -------------------------------------------------------------------
 Cartesian Forces:  Max     0.000872078 RMS     0.000260531

 GradGradGradGradGradGradGradGradGradGradGradGradGradGradGradGradGradGrad
 Berny optimization.
 Using GEDIIS/GDIIS optimizer.
 FormGI is forming the generalized inverse of G from B-inverse, IUseBI=4.
 Internal  Forces:  Max     0.000659712 RMS     0.000158379
 Search for a local minimum.
 Step number  10 out of a maximum of  121
 All quantities printed in internal units (Hartrees-Bohrs-Radians)
 Mixed Optimization -- En-DIIS/RFO-DIIS
 Swapping is turned off.
 Update second derivatives using D2CorX and points    8    9   10
 DE= -6.03D-05 DEPred=-5.47D-05 R= 1.10D+00
 TightC=F SS=  1.41D+00  RLast= 2.61D-01 DXNew= 2.1612D+00 7.8199D-01
 Trust test= 1.10D+00 RLast= 2.61D-01 DXMaxT set to 1.29D+00
 ITU=  1  1  1  1  1  1  1  1  1  0
     Eigenvalues ---    0.00125   0.00326   0.00372   0.00406   0.00767
     Eigenvalues ---    0.01381   0.02137   0.02290   0.02358   0.02524
     Eigenvalues ---    0.03313   0.03945   0.04912   0.05338   0.05417
     Eigenvalues ---    0.05464   0.05619   0.05663   0.05699   0.05742
     Eigenvalues ---    0.05788   0.05981   0.07999   0.11767   0.13992
     Eigenvalues ---    0.14838   0.15780   0.15944   0.16000   0.16000
     Eigenvalues ---    0.16001   0.16004   0.16021   0.16054   0.16101
     Eigenvalues ---    0.16125   0.16892   0.18107   0.21086   0.21922
     Eigenvalues ---    0.23244   0.25031   0.25262   0.27096   0.29216
     Eigenvalues ---    0.29426   0.29584   0.32385   0.33065   0.33248
     Eigenvalues ---    0.33653   0.33658   0.33818   0.34352   0.34663
     Eigenvalues ---    0.34769   0.34876   0.34899   0.34926   0.34996
     Eigenvalues ---    0.35200   0.35310   0.37842   0.42017   0.47375
     Eigenvalues ---    0.57314   0.61308   0.74841   0.91738
 En-DIIS/RFO-DIIS/Sim-DIIS IScMMF=       -3 using points:    10    9    8    7    6
 RFO step:  Lambda=-2.24764502D-05.
 DidBck=F Rises=F RFO-DIIS coefs:    1.03491    0.09402   -0.36210    0.16199    0.07119
 Iteration  1 RMS(Cart)=  0.01964731 RMS(Int)=  0.00011817
 Iteration  2 RMS(Cart)=  0.00019096 RMS(Int)=  0.00000561
 Iteration  3 RMS(Cart)=  0.00000002 RMS(Int)=  0.00000561
 Variable       Old X    -DE/DX   Delta X   Delta X   Delta X     New X
                                 (Linear)    (Quad)   (Total)
    R1        2.31617   0.00037  -0.00030   0.00044   0.00014   2.31630
    R2        2.66511   0.00001   0.00192  -0.00147   0.00045   2.66556
    R3        2.66886   0.00009  -0.00215   0.00176  -0.00039   2.66847
    R4        2.55664  -0.00059  -0.00011  -0.00092  -0.00103   2.55562
    R5        2.07818  -0.00003  -0.00024   0.00022  -0.00002   2.07816
    R6        2.42436   0.00023   0.00080  -0.00046   0.00034   2.42470
    R7        2.85602   0.00031   0.00133  -0.00021   0.00113   2.85714
    R8        2.10265  -0.00023  -0.00037  -0.00020  -0.00056   2.10209
    R9        2.87975   0.00014   0.00022   0.00039   0.00061   2.88036
   R10        2.89715  -0.00010  -0.00066  -0.00003  -0.00070   2.89645
   R11        2.10069  -0.00021  -0.00005  -0.00046  -0.00051   2.10019
   R12        2.08411  -0.00011   0.00011  -0.00022  -0.00011   2.08400
   R13        2.08000  -0.00028   0.00005  -0.00044  -0.00039   2.07961
   R14        2.07377  -0.00001   0.00010   0.00005   0.00015   2.07392
   R15        2.08557  -0.00012  -0.00013  -0.00015  -0.00028   2.08529
   R16        2.08230  -0.00017   0.00001  -0.00028  -0.00026   2.08204
   R17        2.08270  -0.00016   0.00017  -0.00032  -0.00015   2.08255
   R18        2.64194   0.00066  -0.00096   0.00204   0.00108   2.64302
   R19        2.87886  -0.00005  -0.00044   0.00032  -0.00013   2.87874
   R20        2.08211  -0.00010   0.00077  -0.00091  -0.00013   2.08198
   R21        2.08495  -0.00004  -0.00035   0.00027  -0.00008   2.08488
   R22        2.07489  -0.00007   0.00012  -0.00022  -0.00009   2.07480
   R23        2.07975  -0.00014   0.00004  -0.00024  -0.00020   2.07955
   R24        2.08313  -0.00023   0.00000  -0.00040  -0.00040   2.08273
    A1        2.29248  -0.00028   0.00039  -0.00134  -0.00095   2.29153
    A2        2.06607  -0.00014  -0.00249   0.00217  -0.00031   2.06576
    A3        1.92463   0.00042   0.00207  -0.00082   0.00126   1.92589
    A4        2.10721  -0.00003  -0.00085   0.00037  -0.00048   2.10673
    A5        2.05983  -0.00001   0.00067  -0.00060   0.00008   2.05990
    A6        2.11613   0.00004   0.00018   0.00024   0.00042   2.11655
    A7        2.16500   0.00022   0.00154  -0.00050   0.00104   2.16604
    A8        2.13801  -0.00030  -0.00089  -0.00092  -0.00179   2.13622
    A9        2.12147   0.00010  -0.00023   0.00054   0.00034   2.12180
   A10        2.02367   0.00020   0.00102   0.00041   0.00146   2.02513
   A11        1.94282   0.00003  -0.00009  -0.00011  -0.00019   1.94263
   A12        1.93574   0.00006   0.00011  -0.00015  -0.00004   1.93570
   A13        1.90212  -0.00007   0.00022  -0.00067  -0.00045   1.90167
   A14        1.94008  -0.00011   0.00062  -0.00068  -0.00007   1.94001
   A15        1.88147   0.00005  -0.00110   0.00098  -0.00012   1.88135
   A16        1.85846   0.00004   0.00021   0.00070   0.00090   1.85936
   A17        1.94077   0.00015   0.00110  -0.00004   0.00106   1.94183
   A18        1.91608  -0.00005   0.00038  -0.00001   0.00036   1.91644
   A19        1.92983  -0.00017  -0.00101  -0.00100  -0.00201   1.92782
   A20        1.90414   0.00001  -0.00037   0.00064   0.00027   1.90442
   A21        1.91882  -0.00009  -0.00072  -0.00060  -0.00133   1.91750
   A22        1.85199   0.00014   0.00061   0.00109   0.00169   1.85368
   A23        1.95177   0.00005   0.00096  -0.00052   0.00044   1.95221
   A24        1.93751  -0.00003   0.00040  -0.00041  -0.00002   1.93749
   A25        1.91879  -0.00002   0.00001  -0.00007  -0.00005   1.91873
   A26        1.88428   0.00001   0.00001   0.00025   0.00025   1.88453
   A27        1.89206  -0.00001  -0.00071   0.00040  -0.00031   1.89175
   A28        1.87718   0.00001  -0.00076   0.00042  -0.00034   1.87684
   A29        2.01290   0.00026  -0.00531   0.00615   0.00084   2.01374
   A30        1.95860  -0.00029  -0.00161   0.00042  -0.00119   1.95741
   A31        1.92602   0.00010  -0.00041  -0.00013  -0.00055   1.92548
   A32        1.85464   0.00011   0.00081   0.00028   0.00109   1.85573
   A33        1.90403  -0.00009  -0.00062  -0.00015  -0.00077   1.90326
   A34        1.92260   0.00022   0.00212  -0.00050   0.00162   1.92422
   A35        1.89675  -0.00004  -0.00020   0.00007  -0.00012   1.89662
   A36        1.89627  -0.00030  -0.00120  -0.00039  -0.00159   1.89468
   A37        1.92604  -0.00014  -0.00010  -0.00087  -0.00097   1.92506
   A38        1.94005   0.00020   0.00232  -0.00065   0.00167   1.94171
   A39        1.90151   0.00014  -0.00103   0.00088  -0.00015   1.90136
   A40        1.90206   0.00011   0.00006   0.00090   0.00096   1.90302
   A41        1.89744   0.00000  -0.00009   0.00017   0.00008   1.89752
    D1       -0.00927   0.00024   0.00724   0.00098   0.00822  -0.00105
    D2        3.13931   0.00018   0.00523   0.00000   0.00523  -3.13864
    D3        3.13477   0.00006   0.00380   0.00210   0.00590   3.14068
    D4        0.00018  -0.00000   0.00180   0.00112   0.00292   0.00309
    D5       -0.03384   0.00015   0.00902   0.00473   0.01376  -0.02009
    D6        3.10566   0.00030   0.01197   0.00377   0.01573   3.12139
    D7       -3.13162  -0.00006  -0.00167  -0.00078  -0.00245  -3.13408
    D8        0.00275  -0.00000   0.00040   0.00023   0.00063   0.00338
    D9        3.13609   0.00008  -0.00204   0.00387   0.00182   3.13791
   D10        0.00441   0.00005   0.00013   0.00055   0.00069   0.00510
   D11        0.08219   0.00004   0.02090  -0.00161   0.01929   0.10149
   D12        2.25202  -0.00004   0.02171  -0.00268   0.01903   2.27105
   D13       -1.99068   0.00000   0.02217  -0.00232   0.01984  -1.97084
   D14       -3.06880   0.00007   0.01881   0.00155   0.02036  -3.04844
   D15       -0.89897  -0.00001   0.01962   0.00047   0.02010  -0.87887
   D16        1.14152   0.00003   0.02008   0.00083   0.02091   1.16242
   D17       -3.10097   0.00009   0.00247   0.00227   0.00474  -3.09623
   D18        1.07336   0.00001   0.00197   0.00150   0.00347   1.07683
   D19       -0.96418  -0.00004   0.00160   0.00078   0.00238  -0.96180
   D20        1.01484   0.00007   0.00194   0.00304   0.00498   1.01982
   D21       -1.09401  -0.00001   0.00144   0.00227   0.00371  -1.09030
   D22       -3.13156  -0.00006   0.00107   0.00155   0.00262  -3.12893
   D23       -1.01577   0.00006   0.00201   0.00200   0.00400  -1.01177
   D24       -3.12462  -0.00003   0.00150   0.00123   0.00273  -3.12189
   D25        1.12102  -0.00007   0.00114   0.00051   0.00164   1.12266
   D26        3.04950   0.00000   0.00260   0.00051   0.00311   3.05262
   D27        0.94389  -0.00002   0.00166   0.00084   0.00250   0.94638
   D28       -1.13102   0.00001   0.00235   0.00062   0.00297  -1.12804
   D29       -1.06230   0.00001   0.00302  -0.00023   0.00278  -1.05951
   D30        3.11527  -0.00002   0.00208   0.00009   0.00217   3.11744
   D31        1.04037   0.00001   0.00277  -0.00012   0.00265   1.04301
   D32        0.98239   0.00003   0.00216   0.00098   0.00314   0.98553
   D33       -1.12323   0.00001   0.00122   0.00131   0.00252  -1.12070
   D34        3.08506   0.00003   0.00191   0.00109   0.00300   3.08806
   D35       -1.38821   0.00020  -0.00154  -0.00135  -0.00289  -1.39110
   D36        0.73931  -0.00005  -0.00375  -0.00134  -0.00509   0.73422
   D37        2.79259   0.00002  -0.00374  -0.00116  -0.00490   2.78769
   D38        1.12067  -0.00013  -0.00002  -0.00126  -0.00128   1.11939
   D39       -0.96305  -0.00003   0.00203  -0.00159   0.00045  -0.96260
   D40       -3.06965  -0.00007   0.00070  -0.00080  -0.00010  -3.06975
   D41       -1.01933   0.00000   0.00203  -0.00128   0.00075  -1.01858
   D42       -3.10306   0.00010   0.00409  -0.00160   0.00248  -3.10057
   D43        1.07352   0.00007   0.00275  -0.00081   0.00194   1.07546
   D44       -3.09994  -0.00003   0.00137  -0.00097   0.00040  -3.09954
   D45        1.09952   0.00007   0.00343  -0.00130   0.00213   1.10165
   D46       -1.00709   0.00003   0.00209  -0.00051   0.00159  -1.00550
         Item               Value     Threshold  Converged?
 Maximum Force            0.000660     0.000450     NO 
 RMS     Force            0.000158     0.000300     YES
 Maximum Displacement     0.059350     0.001800     NO 
 RMS     Displacement     0.019645     0.001200     NO 
 Predicted change in Energy=-1.028891D-05
 GradGradGradGradGradGradGradGradGradGradGradGradGradGradGradGradGradGrad

                          Input orientation:                          
 ---------------------------------------------------------------------
 Center     Atomic      Atomic             Coordinates (Angstroms)
 Number     Number       Type             X           Y           Z
 ---------------------------------------------------------------------
      1          8           0        1.559249   -0.666611   -1.108951
      2          6           0        1.402068    0.118492   -0.180869
      3          6           0        0.231717    0.634814    0.413564
      4          7           0       -0.990201    0.271102   -0.037598
      5          6           0       -2.095280    0.705707    0.448459
      6          6           0       -3.441390    0.276199   -0.089557
      7          6           0       -3.293727   -0.812195   -1.146366
      8          6           0       -4.365010   -0.177465    1.046398
      9          8           0        2.548357    0.641682    0.456548
     10          6           0        3.772424    0.177469   -0.035717
     11          6           0        4.123419   -1.202288    0.506226
     12          1           0        0.344842    1.341614    1.248433
     13          1           0       -2.115364    1.431854    1.290891
     14          1           0       -3.934318    1.149720   -0.568230
     15          1           0       -4.272070   -1.092268   -1.571320
     16          1           0       -2.825847   -1.703202   -0.701102
     17          1           0       -2.620515   -0.480488   -1.947115
     18          1           0       -5.380734   -0.408747    0.682398
     19          1           0       -4.450533    0.601438    1.820922
     20          1           0       -3.954064   -1.079987    1.527087
     21          1           0        3.751492    0.136776   -1.136504
     22          1           0        4.531723    0.914676    0.276045
     23          1           0        3.375699   -1.920332    0.144577
     24          1           0        4.108954   -1.195259    1.606557
     25          1           0        5.122260   -1.522250    0.167645
 ---------------------------------------------------------------------
                    Distance matrix (angstroms):
                    1          2          3          4          5
     1  O    0.000000
     2  C    1.225736   0.000000
     3  C    2.402935   1.410553   0.000000
     4  N    2.920068   2.401409   1.352374   0.000000
     5  C    4.202900   3.601711   2.328338   1.283095   0.000000
     6  C    5.189840   4.846885   3.724708   2.451745   1.511936
     7  C    4.855303   4.883529   4.117763   2.776532   2.506745
     8  C    6.323103   5.903640   4.710645   3.572897   2.507828
     9  O    2.267322   1.412093   2.317049   3.592061   4.644086
    10  C    2.600471   2.375529   3.598281   4.763546   5.911296
    11  C    3.077452   3.101985   4.304518   5.349367   6.505075
    12  H    3.326411   2.157929   1.099714   2.140610   2.645474
    13  H    4.864728   4.032781   2.629404   2.092420   1.112378
    14  H    5.811257   5.448898   4.311019   3.117910   2.147757
    15  H    5.865087   5.966166   5.216002   3.870626   3.471403
    16  H    4.524370   4.632977   4.007180   2.776276   2.767321
    17  H    4.267034   4.433911   3.866772   2.620890   2.724280
    18  H    7.172083   6.857814   5.714971   4.500818   3.477203
    19  H    6.805114   6.204300   4.889298   3.941715   2.727956
    20  H    6.125046   5.748183   4.658459   3.613608   2.794140
    21  H    2.334978   2.536409   3.878089   4.869219   6.084451
    22  H    3.640644   3.261506   4.311297   5.568142   6.632538
    23  H    2.538236   2.856211   4.060265   4.888421   6.076187
    24  H    3.762240   3.499724   4.450322   5.554713   6.591463
    25  H    3.880318   4.080849   5.350777   6.373415   7.558806
                    6          7          8          9         10
     6  C    0.000000
     7  C    1.524222   0.000000
     8  C    1.532736   2.521655   0.000000
     9  O    6.025684   6.230011   6.986671   0.000000
    10  C    7.214690   7.221044   8.216738   1.398627   0.000000
    11  C    7.730925   7.609026   8.567116   2.425595   1.523361
    12  H    4.154622   4.859336   4.952891   2.443862   3.840910
    13  H    2.235961   3.516322   2.776796   4.803207   6.164367
    14  H    1.111370   2.143294   2.133996   6.582806   7.786058
    15  H    2.181365   1.102806   2.774518   7.323732   8.287593
    16  H    2.161228   1.100484   2.783999   5.976680   6.893246
    17  H    2.167240   1.097471   3.477960   5.809827   6.704925
    18  H    2.196843   2.804059   1.103486   8.001555   9.199980
    19  H    2.184967   3.484445   1.101768   7.130750   8.440609
    20  H    2.171546   2.766787   1.102037   6.811143   7.982616
    21  H    7.270013   7.108851   8.410792   2.059194   1.101738
    22  H    8.006987   8.138980   8.996559   2.010186   1.103270
    23  H    7.166050   6.883005   7.985578   2.710302   2.142584
    24  H    7.877162   7.907276   8.553231   2.670644   2.166726
    25  H    8.754238   8.547494   9.622316   3.375062   2.180014
                   11         12         13         14         15
    11  C    0.000000
    12  H    4.615186   0.000000
    13  H    6.817391   2.462227   0.000000
    14  H    8.462476   4.652773   2.616204   0.000000
    15  H    8.649424   5.932172   4.383472   2.479269   0.000000
    16  H    7.071128   4.808831   3.781719   3.063580   1.795016
    17  H    7.212524   4.724925   3.794326   2.506986   1.800870
    18  H    9.538850   6.013849   3.797462   2.466781   2.602995
    19  H    8.859712   4.885819   2.534470   2.505023   3.795761
    20  H    8.142655   4.941902   3.121851   3.059793   3.114708
    21  H    2.151740   4.329529   6.479929   7.773073   8.128786
    22  H    2.168232   4.319465   6.743971   8.511280   9.216689
    23  H    1.097935   4.587470   6.534751   7.960506   7.881521
    24  H    1.100449   4.553297   6.763395   8.655798   8.963876
    25  H    1.102133   5.673935   7.897571   9.471142   9.563594
                   16         17         18         19         20
    16  H    0.000000
    17  H    1.757766   0.000000
    18  H    3.180744   3.812911   0.000000
    19  H    3.783064   4.326388   1.783812   0.000000
    20  H    2.574120   3.769327   1.788701   1.777642   0.000000
    21  H    6.843719   6.452951   9.327570   8.731294   8.243229
    22  H    7.870320   7.618623  10.008664   9.119522   8.806382
    23  H    6.262707   6.511752   8.902206   8.391625   7.506194
    24  H    7.326306   7.643640   9.566966   8.748651   8.064233
    25  H    7.997492   8.093704  10.574391   9.943930   9.188217
                   21         22         23         24         25
    21  H    0.000000
    22  H    1.791420   0.000000
    23  H    2.452363   3.064465   0.000000
    24  H    3.070258   2.529985   1.789072   0.000000
    25  H    2.516382   2.509799   1.791501   1.790023   0.000000
 Stoichiometry    C8H14NO2(1-)
 Framework group  C1[X(C8H14NO2)]
 Deg. of freedom    69
 Full point group                 C1      NOp   1
 Largest Abelian subgroup         C1      NOp   1
 Largest concise Abelian subgroup C1      NOp   1
                         Standard orientation:                         
 ---------------------------------------------------------------------
 Center     Atomic      Atomic             Coordinates (Angstroms)
 Number     Number       Type             X           Y           Z
 ---------------------------------------------------------------------
      1          8           0       -1.631711    1.241517   -0.300719
      2          6           0       -1.448355    0.029577   -0.297499
      3          6           0       -0.261337   -0.732267   -0.281915
      4          7           0        0.947787   -0.126670   -0.268288
      5          6           0        2.066808   -0.754431   -0.261730
      6          6           0        3.397846   -0.037369   -0.251175
      7          6           0        3.214351    1.468761   -0.105738
      8          6           0        4.309401   -0.592331    0.848991
      9          8           0       -2.576560   -0.819528   -0.310962
     10          6           0       -3.815440   -0.170493   -0.301572
     11          6           0       -4.207789    0.298183    1.093789
     12          1           0       -0.350778   -1.828333   -0.285101
     13          1           0        2.111127   -1.865879   -0.271840
     14          1           0        3.916537   -0.224703   -1.216063
     15          1           0        4.182660    1.995125   -0.144467
     16          1           0        2.720083    1.693432    0.851491
     17          1           0        2.550022    1.851796   -0.890846
     18          1           0        5.316711   -0.143192    0.813192
     19          1           0        4.420615   -1.684539    0.756226
     20          1           0        3.871759   -0.386058    1.839145
     21          1           0       -3.798112    0.696935   -0.980613
     22          1           0       -4.550913   -0.900602   -0.680024
     23          1           0       -3.483404    1.053780    1.425152
     24          1           0       -4.190780   -0.546413    1.799024
     25          1           0       -5.216765    0.741640    1.097271
 ---------------------------------------------------------------------
 Rotational constants (GHZ):           3.3347817           0.3699451           0.3552526
 Standard basis: def2SVP (5D, 7F)
 There are   235 symmetry adapted cartesian basis functions of A   symmetry.
 There are   224 symmetry adapted basis functions of A   symmetry.
   224 basis functions,   373 primitive gaussians,   235 cartesian basis functions
    43 alpha electrons       43 beta electrons
       nuclear repulsion energy       596.7255590796 Hartrees.
 NAtoms=   25 NActive=   25 NUniq=   25 SFac= 1.00D+00 NAtFMM=   60 NAOKFM=F Big=F
 Integral buffers will be    131072 words long.
 Raffenetti 2 integral format.
 Two-electron integral symmetry is turned on.
 Nuclear repulsion after empirical dispersion term =      596.7247604342 Hartrees.
 One-electron integrals computed using PRISM.
   1 Symmetry operations used in ECPInt.
 ECPInt:  NShTT=    5886 NPrTT=   20688 LenC2=    5346 LenP2D=   14005.
 LDataN:  DoStor=T MaxTD1= 4 Len=   56
 NBasis=   224 RedAO= T EigKep=  1.18D-03  NBF=   224
 NBsUse=   224 1.00D-06 EigRej= -1.00D+00 NBFU=   224
 Initial guess from the checkpoint file:  "A18_crest_conformers_censo-14.chk"
 B after Tr=    -0.000000    0.000000    0.000000
         Rot=    0.999983    0.005835   -0.000083   -0.000321 Ang=   0.67 deg.
 ExpMin= 1.22D-01 ExpMax= 2.27D+03 ExpMxC= 3.41D+02 IAcc=3 IRadAn=         5 AccDes= 0.00D+00
 Harris functional with IExCor= 1009 and IRadAn=       5 diagonalized for initial guess.
 HarFok:  IExCor= 1009 AccDes= 0.00D+00 IRadAn=         5 IDoV= 1 UseB2=F ITyADJ=14
 ICtDFT=  3500011 ScaDFX=  1.000000  1.000000  1.000000  1.000000
 FoFCou: FMM=F IPFlag=           0 FMFlag=      100000 FMFlg1=           0
         NFxFlg=           0 DoJE=T BraDBF=F KetDBF=T FulRan=T
         wScrn=  0.000000 ICntrl=       500 IOpCl=  0 I1Cent=   200000004 NGrid=           0
         NMat0=    1 NMatS0=      1 NMatT0=    0 NMatD0=    1 NMtDS0=    0 NMtDT0=    0
 Petite list used in FoFCou.
 Requested convergence on RMS density matrix=1.00D-08 within 128 cycles.
 Requested convergence on MAX density matrix=1.00D-06.
 Requested convergence on             energy=1.00D-06.
 No special actions if energy rises.
 Integral accuracy reduced to 1.0D-05 until final iterations.
 Initial convergence to 1.0D-05 achieved.  Increase integral accuracy.
 SCF Done:  E(RM062X) =  -517.870607140     A.U. after   11 cycles
            NFock= 11  Conv=0.68D-08     -V/T= 2.0100
   1 Symmetry operations used in ECPInt.
 ECPInt:  NShTT=    5886 NPrTT=   20688 LenC2=    5346 LenP2D=   14005.
 LDataN:  DoStor=T MaxTD1= 5 Len=  102
 Calling FoFJK, ICntrl=      2127 FMM=F ISym2X=0 I1Cent= 0 IOpClX= 0 NMat=1 NMatS=1 NMatT=0.
 ***** Axes restored to original set *****
 -------------------------------------------------------------------
 Center     Atomic                   Forces (Hartrees/Bohr)
 Number     Number              X              Y              Z
 -------------------------------------------------------------------
      1        8          -0.000033777   -0.000153523   -0.000315953
      2        6          -0.000011737    0.000244570    0.000492726
      3        6          -0.000202676   -0.000046343   -0.000340254
      4        7           0.000340101   -0.000018807    0.000215780
      5        6          -0.000000921   -0.000036491    0.000159063
      6        6          -0.000119666    0.000041463   -0.000082248
      7        6           0.000087168   -0.000099369   -0.000041045
      8        6          -0.000006189   -0.000036640    0.000062588
      9        8          -0.000234763   -0.000062660    0.000148673
     10        6           0.000329531    0.000005157   -0.000166199
     11        6           0.000109666   -0.000243278   -0.000001611
     12        1           0.000035158    0.000056823   -0.000037552
     13        1          -0.000006122   -0.000028142   -0.000108604
     14        1          -0.000051754   -0.000036334    0.000014917
     15        1           0.000041853    0.000067409    0.000017139
     16        1          -0.000044780    0.000124924   -0.000029403
     17        1          -0.000072025   -0.000041384    0.000048430
     18        1           0.000064203    0.000024718    0.000013661
     19        1          -0.000005663   -0.000038922   -0.000034376
     20        1          -0.000019217    0.000062638   -0.000038100
     21        1          -0.000017644   -0.000033127    0.000028996
     22        1          -0.000084840    0.000014996    0.000000812
     23        1          -0.000013336    0.000147444   -0.000013749
     24        1          -0.000001193    0.000041441   -0.000053916
     25        1          -0.000081377    0.000043436    0.000060227
 -------------------------------------------------------------------
 Cartesian Forces:  Max     0.000492726 RMS     0.000128078

 GradGradGradGradGradGradGradGradGradGradGradGradGradGradGradGradGradGrad
 Berny optimization.
 Using GEDIIS/GDIIS optimizer.
 FormGI is forming the generalized inverse of G from B-inverse, IUseBI=4.
 Internal  Forces:  Max     0.000332769 RMS     0.000070080
 Search for a local minimum.
 Step number  11 out of a maximum of  121
 All quantities printed in internal units (Hartrees-Bohrs-Radians)
 Mixed Optimization -- En-DIIS/RFO-DIIS
 Swapping is turned off.
 Update second derivatives using D2CorX and points    8    9   10   11
 DE= -1.17D-05 DEPred=-1.03D-05 R= 1.13D+00
 TightC=F SS=  1.41D+00  RLast= 5.72D-02 DXNew= 2.1612D+00 1.7153D-01
 Trust test= 1.13D+00 RLast= 5.72D-02 DXMaxT set to 1.29D+00
 ITU=  1  1  1  1  1  1  1  1  1  1  0
     Eigenvalues ---    0.00130   0.00352   0.00371   0.00406   0.00744
     Eigenvalues ---    0.01409   0.01728   0.02290   0.02358   0.02506
     Eigenvalues ---    0.03420   0.03941   0.04972   0.05339   0.05452
     Eigenvalues ---    0.05485   0.05655   0.05695   0.05729   0.05736
     Eigenvalues ---    0.05769   0.05907   0.08031   0.11755   0.13838
     Eigenvalues ---    0.15072   0.15492   0.15817   0.16000   0.16000
     Eigenvalues ---    0.16002   0.16004   0.16011   0.16033   0.16114
     Eigenvalues ---    0.16193   0.16941   0.18294   0.21237   0.22877
     Eigenvalues ---    0.23209   0.24628   0.25249   0.27136   0.29242
     Eigenvalues ---    0.29445   0.29595   0.32129   0.32883   0.33212
     Eigenvalues ---    0.33649   0.33698   0.33836   0.34401   0.34658
     Eigenvalues ---    0.34756   0.34869   0.34894   0.34935   0.35005
     Eigenvalues ---    0.35231   0.35324   0.37522   0.42227   0.47960
     Eigenvalues ---    0.56680   0.58845   0.74908   0.90761
 En-DIIS/RFO-DIIS/Sim-DIIS IScMMF=       -3 using points:    11   10    9    8    7    6
 RFO step:  Lambda=-7.52912442D-06.
 DidBck=F Rises=F RFO-DIIS coefs:    1.04911    0.18504   -0.32609    0.00261    0.08324
                  RFO-DIIS coefs:    0.00610
 Iteration  1 RMS(Cart)=  0.00430906 RMS(Int)=  0.00000965
 Iteration  2 RMS(Cart)=  0.00002315 RMS(Int)=  0.00000266
 Iteration  3 RMS(Cart)=  0.00000000 RMS(Int)=  0.00000266
 Variable       Old X    -DE/DX   Delta X   Delta X   Delta X     New X
                                 (Linear)    (Quad)   (Total)
    R1        2.31630   0.00033   0.00008   0.00025   0.00032   2.31663
    R2        2.66556  -0.00011   0.00049  -0.00051  -0.00001   2.66555
    R3        2.66847  -0.00002  -0.00042   0.00006  -0.00037   2.66810
    R4        2.55562  -0.00025  -0.00026  -0.00035  -0.00061   2.55500
    R5        2.07816   0.00001  -0.00004   0.00007   0.00003   2.07819
    R6        2.42470   0.00010   0.00020   0.00002   0.00022   2.42492
    R7        2.85714   0.00012   0.00004   0.00050   0.00055   2.85769
    R8        2.10209  -0.00010  -0.00023  -0.00018  -0.00040   2.10168
    R9        2.88036  -0.00003  -0.00019   0.00015  -0.00004   2.88033
   R10        2.89645  -0.00002  -0.00007   0.00001  -0.00006   2.89639
   R11        2.10019  -0.00001  -0.00001  -0.00016  -0.00017   2.10001
   R12        2.08400  -0.00006  -0.00007  -0.00010  -0.00016   2.08384
   R13        2.07961  -0.00013  -0.00018  -0.00034  -0.00052   2.07910
   R14        2.07392  -0.00009   0.00010  -0.00023  -0.00013   2.07379
   R15        2.08529  -0.00007  -0.00009  -0.00009  -0.00017   2.08511
   R16        2.08204  -0.00005  -0.00002  -0.00015  -0.00017   2.08187
   R17        2.08255  -0.00007   0.00005  -0.00026  -0.00022   2.08233
   R18        2.64302   0.00027  -0.00023   0.00105   0.00082   2.64384
   R19        2.87874   0.00001  -0.00023   0.00025   0.00002   2.87876
   R20        2.08198  -0.00003   0.00019  -0.00023  -0.00004   2.08195
   R21        2.08488  -0.00005  -0.00019   0.00003  -0.00016   2.08472
   R22        2.07480  -0.00008   0.00002  -0.00026  -0.00024   2.07456
   R23        2.07955  -0.00005   0.00008  -0.00022  -0.00015   2.07940
   R24        2.08273  -0.00011  -0.00012  -0.00021  -0.00033   2.08240
    A1        2.29153  -0.00013  -0.00076   0.00010  -0.00066   2.29087
    A2        2.06576   0.00005   0.00083  -0.00087  -0.00004   2.06572
    A3        1.92589   0.00008  -0.00008   0.00077   0.00070   1.92659
    A4        2.10673   0.00002  -0.00070   0.00051  -0.00019   2.10653
    A5        2.05990  -0.00004   0.00037  -0.00049  -0.00011   2.05979
    A6        2.11655   0.00003   0.00033  -0.00002   0.00031   2.11686
    A7        2.16604   0.00009   0.00029   0.00023   0.00052   2.16656
    A8        2.13622   0.00009  -0.00072   0.00070  -0.00000   2.13622
    A9        2.12180  -0.00003   0.00031  -0.00037  -0.00005   2.12176
   A10        2.02513  -0.00005   0.00036  -0.00034   0.00004   2.02517
   A11        1.94263   0.00001  -0.00050   0.00060   0.00009   1.94272
   A12        1.93570  -0.00003   0.00004  -0.00016  -0.00012   1.93558
   A13        1.90167   0.00003  -0.00001   0.00013   0.00012   1.90179
   A14        1.94001   0.00002   0.00015  -0.00033  -0.00018   1.93983
   A15        1.88135  -0.00002   0.00013   0.00002   0.00015   1.88150
   A16        1.85936  -0.00001   0.00024  -0.00028  -0.00005   1.85931
   A17        1.94183  -0.00005   0.00021  -0.00038  -0.00017   1.94165
   A18        1.91644  -0.00003   0.00008  -0.00014  -0.00006   1.91638
   A19        1.92782   0.00004   0.00025  -0.00013   0.00011   1.92793
   A20        1.90442   0.00005   0.00038   0.00028   0.00066   1.90507
   A21        1.91750  -0.00001  -0.00072   0.00001  -0.00072   1.91678
   A22        1.85368   0.00000  -0.00021   0.00041   0.00020   1.85388
   A23        1.95221  -0.00002   0.00026  -0.00019   0.00007   1.95229
   A24        1.93749   0.00002   0.00018  -0.00008   0.00010   1.93759
   A25        1.91873  -0.00001   0.00009  -0.00024  -0.00015   1.91858
   A26        1.88453  -0.00000  -0.00002   0.00004   0.00002   1.88455
   A27        1.89175   0.00001  -0.00022   0.00024   0.00003   1.89178
   A28        1.87684   0.00000  -0.00033   0.00026  -0.00007   1.87676
   A29        2.01374   0.00008  -0.00099   0.00139   0.00040   2.01414
   A30        1.95741  -0.00006  -0.00095   0.00051  -0.00044   1.95697
   A31        1.92548   0.00003   0.00015  -0.00021  -0.00006   1.92542
   A32        1.85573  -0.00004  -0.00001  -0.00027  -0.00028   1.85545
   A33        1.90326  -0.00002  -0.00024  -0.00005  -0.00029   1.90297
   A34        1.92422   0.00008   0.00110  -0.00015   0.00095   1.92517
   A35        1.89662   0.00001  -0.00001   0.00015   0.00014   1.89677
   A36        1.89468  -0.00017  -0.00104  -0.00047  -0.00152   1.89316
   A37        1.92506  -0.00004   0.00011  -0.00077  -0.00067   1.92440
   A38        1.94171   0.00005   0.00117  -0.00020   0.00097   1.94268
   A39        1.90136   0.00008  -0.00033   0.00055   0.00022   1.90159
   A40        1.90302   0.00008   0.00011   0.00082   0.00093   1.90395
   A41        1.89752   0.00001  -0.00004   0.00012   0.00007   1.89759
    D1       -0.00105   0.00011   0.00499   0.00205   0.00704   0.00599
    D2       -3.13864   0.00008   0.00383   0.00100   0.00483  -3.13381
    D3        3.14068   0.00007   0.00192   0.00344   0.00536  -3.13715
    D4        0.00309   0.00004   0.00075   0.00239   0.00315   0.00624
    D5       -0.02009   0.00005   0.00735   0.00031   0.00766  -0.01242
    D6        3.12139   0.00009   0.00998  -0.00088   0.00910   3.13049
    D7       -3.13408  -0.00003  -0.00105  -0.00043  -0.00148  -3.13556
    D8        0.00338   0.00000   0.00016   0.00065   0.00080   0.00418
    D9        3.13791  -0.00008  -0.00028  -0.00126  -0.00155   3.13636
   D10        0.00510  -0.00004   0.00002  -0.00008  -0.00006   0.00504
   D11        0.10149  -0.00000  -0.00616  -0.00035  -0.00651   0.09498
   D12        2.27105   0.00000  -0.00630  -0.00047  -0.00677   2.26429
   D13       -1.97084  -0.00001  -0.00600  -0.00082  -0.00683  -1.97767
   D14       -3.04844  -0.00005  -0.00645  -0.00147  -0.00792  -3.05636
   D15       -0.87887  -0.00004  -0.00659  -0.00158  -0.00818  -0.88705
   D16        1.16242  -0.00005  -0.00629  -0.00194  -0.00824   1.15419
   D17       -3.09623  -0.00001  -0.00224   0.00191  -0.00033  -3.09656
   D18        1.07683  -0.00001  -0.00291   0.00190  -0.00101   1.07583
   D19       -0.96180  -0.00003  -0.00285   0.00156  -0.00128  -0.96308
   D20        1.01982   0.00001  -0.00203   0.00192  -0.00010   1.01972
   D21       -1.09030   0.00001  -0.00270   0.00191  -0.00078  -1.09108
   D22       -3.12893  -0.00000  -0.00263   0.00158  -0.00106  -3.12999
   D23       -1.01177   0.00002  -0.00247   0.00244  -0.00003  -1.01180
   D24       -3.12189   0.00002  -0.00314   0.00243  -0.00071  -3.12260
   D25        1.12266   0.00001  -0.00307   0.00209  -0.00098   1.12168
   D26        3.05262   0.00000  -0.00005   0.00012   0.00007   3.05268
   D27        0.94638   0.00001  -0.00033   0.00025  -0.00008   0.94631
   D28       -1.12804   0.00000  -0.00009   0.00014   0.00005  -1.12799
   D29       -1.05951   0.00001  -0.00057   0.00054  -0.00003  -1.05955
   D30        3.11744   0.00001  -0.00085   0.00067  -0.00018   3.11726
   D31        1.04301   0.00000  -0.00061   0.00056  -0.00005   1.04296
   D32        0.98553  -0.00001  -0.00020   0.00021   0.00002   0.98555
   D33       -1.12070  -0.00001  -0.00047   0.00035  -0.00013  -1.12083
   D34        3.08806  -0.00001  -0.00024   0.00024  -0.00000   3.08806
   D35       -1.39110   0.00003   0.00167  -0.00279  -0.00112  -1.39222
   D36        0.73422  -0.00002   0.00082  -0.00265  -0.00183   0.73239
   D37        2.78769  -0.00001   0.00088  -0.00273  -0.00185   2.78584
   D38        1.11939  -0.00001   0.00136  -0.00155  -0.00019   1.11920
   D39       -0.96260   0.00002   0.00233  -0.00148   0.00086  -0.96174
   D40       -3.06975   0.00001   0.00154  -0.00097   0.00057  -3.06918
   D41       -1.01858   0.00000   0.00197  -0.00160   0.00037  -1.01821
   D42       -3.10057   0.00003   0.00295  -0.00152   0.00142  -3.09915
   D43        1.07546   0.00002   0.00216  -0.00102   0.00114   1.07660
   D44       -3.09954  -0.00004   0.00147  -0.00167  -0.00020  -3.09974
   D45        1.10165  -0.00001   0.00245  -0.00159   0.00085   1.10250
   D46       -1.00550  -0.00002   0.00165  -0.00109   0.00057  -1.00493
         Item               Value     Threshold  Converged?
 Maximum Force            0.000333     0.000450     YES
 RMS     Force            0.000070     0.000300     YES
 Maximum Displacement     0.016817     0.001800     NO 
 RMS     Displacement     0.004305     0.001200     NO 
 Predicted change in Energy=-3.481227D-06
 GradGradGradGradGradGradGradGradGradGradGradGradGradGradGradGradGradGrad

                          Input orientation:                          
 ---------------------------------------------------------------------
 Center     Atomic      Atomic             Coordinates (Angstroms)
 Number     Number       Type             X           Y           Z
 ---------------------------------------------------------------------
      1          8           0        1.557455   -0.672104   -1.101904
      2          6           0        1.401050    0.116063   -0.176065
      3          6           0        0.230760    0.638035    0.413519
      4          7           0       -0.990779    0.271229   -0.035186
      5          6           0       -2.096391    0.708889    0.447217
      6          6           0       -3.442264    0.276539   -0.089925
      7          6           0       -3.293274   -0.811440   -1.146948
      8          6           0       -4.363793   -0.179456    1.046749
      9          8           0        2.547713    0.637889    0.461366
     10          6           0        3.772065    0.176558   -0.034125
     11          6           0        4.125363   -1.204048    0.504183
     12          1           0        0.344058    1.350097    1.243901
     13          1           0       -2.117156    1.440754    1.284385
     14          1           0       -3.937583    1.149002   -0.567845
     15          1           0       -4.271441   -1.093537   -1.570740
     16          1           0       -2.822402   -1.700920   -0.702459
     17          1           0       -2.622478   -0.477929   -1.948881
     18          1           0       -5.379271   -0.412928    0.683739
     19          1           0       -4.450289    0.598882    1.821604
     20          1           0       -3.950306   -1.081085    1.526675
     21          1           0        3.749159    0.137909   -1.134927
     22          1           0        4.530379    0.914607    0.277748
     23          1           0        3.377139   -1.920763    0.141327
     24          1           0        4.111372   -1.199062    1.604454
     25          1           0        5.124065   -1.522733    0.164556
 ---------------------------------------------------------------------
                    Distance matrix (angstroms):
                    1          2          3          4          5
     1  O    0.000000
     2  C    1.225907   0.000000
     3  C    2.402726   1.410547   0.000000
     4  N    2.919120   2.400993   1.352050   0.000000
     5  C    4.202084   3.601668   2.328473   1.283213   0.000000
     6  C    5.188566   4.846737   3.724948   2.452102   1.512224
     7  C    4.852939   4.882576   4.117627   2.776629   2.507048
     8  C    6.318275   5.900510   4.709479   3.570844   2.507930
     9  O    2.267268   1.411899   2.317447   3.591926   4.644668
    10  C    2.600938   2.376031   3.599193   4.763785   5.912178
    11  C    3.075163   3.102791   4.309226   5.351847   6.509439
    12  H    3.326324   2.157863   1.099729   2.140516   2.646062
    13  H    4.864290   4.033050   2.629729   2.092315   1.112163
    14  H    5.813527   5.451738   4.312684   3.120555   2.148031
    15  H    5.862887   5.965350   5.215884   3.870822   3.471561
    16  H    4.516765   4.627749   4.004736   2.772989   2.766952
    17  H    4.269299   4.436720   3.868757   2.624102   2.725177
    18  H    7.167557   6.855060   5.714017   4.499310   3.477315
    19  H    6.801125   6.201770   4.888400   3.939954   2.727981
    20  H    6.116545   5.741907   4.655728   3.609288   2.793965
    21  H    2.336830   2.536436   3.876460   4.867670   6.082733
    22  H    3.641341   3.261337   4.310644   5.567319   6.632128
    23  H    2.532987   2.855579   4.064633   4.890265   6.080146
    24  H    3.758264   3.499378   4.455604   5.557168   6.596651
    25  H    3.879201   4.081975   5.354936   6.375697   7.562739
                    6          7          8          9         10
     6  C    0.000000
     7  C    1.524202   0.000000
     8  C    1.532703   2.521453   0.000000
     9  O    6.026137   6.229315   6.984243   0.000000
    10  C    7.215238   7.220356   8.215061   1.399062   0.000000
    11  C    7.733956   7.610292   8.567960   2.425602   1.523374
    12  H    4.155460   4.859895   4.954015   2.444525   3.842106
    13  H    2.236076   3.516676   2.780095   4.804473   6.166003
    14  H    1.111279   2.143322   2.133864   6.586318   7.789042
    15  H    2.181159   1.102719   2.774045   7.323125   8.286877
    16  H    2.160965   1.100212   2.783967   5.971821   6.889019
    17  H    2.167254   1.097403   3.477796   5.812506   6.707073
    18  H    2.196797   2.803857   1.103395   7.999422   9.198358
    19  H    2.184940   3.484250   1.101677   7.129082   8.439739
    20  H    2.171323   2.766344   1.101923   6.805440   7.978269
    21  H    7.268274   7.106143   8.407165   2.059515   1.101718
    22  H    8.006582   8.137477   8.994145   2.010286   1.103186
    23  H    7.168394   6.883651   7.985861   2.708703   2.141380
    24  H    7.880719   7.908808   8.554476   2.669470   2.166194
    25  H    8.756948   8.548543   9.623000   3.375496   2.180589
                   11         12         13         14         15
    11  C    0.000000
    12  H    4.622674   0.000000
    13  H    6.824422   2.463216   0.000000
    14  H    8.467419   4.653527   2.613394   0.000000
    15  H    8.650077   5.932654   4.383527   2.479162   0.000000
    16  H    7.069250   4.808688   3.783521   3.063300   1.795144
    17  H    7.216518   4.726085   3.793508   2.506725   1.800290
    18  H    9.539192   6.014859   3.799777   2.466689   2.602536
    19  H    8.861600   4.887108   2.537885   2.504989   3.795296
    20  H    8.141071   4.942890   3.127109   3.059488   3.114043
    21  H    2.151524   4.327001   6.477972   7.773666   8.126279
    22  H    2.168873   4.318378   6.743877   8.513304   9.215291
    23  H    1.097809   4.594973   6.541686   7.964392   7.881387
    24  H    1.100371   4.562989   6.772418   8.661291   8.964628
    25  H    1.101959   5.680371   7.903895   9.475656   9.564048
                   16         17         18         19         20
    16  H    0.000000
    17  H    1.757624   0.000000
    18  H    3.180889   3.812456   0.000000
    19  H    3.782856   4.326312   1.783677   0.000000
    20  H    2.573986   3.769140   1.788551   1.777429   0.000000
    21  H    6.837669   6.452870   9.324119   8.728374   8.237222
    22  H    7.865441   7.619737  10.006415   9.117871   8.801399
    23  H    6.260560   6.515070   8.901825   8.392888   7.504379
    24  H    7.324679   7.647938   9.567551   8.751103   8.062917
    25  H    7.995611   8.097356  10.574559   9.945618   9.186656
                   21         22         23         24         25
    21  H    0.000000
    22  H    1.791428   0.000000
    23  H    2.450582   3.063968   0.000000
    24  H    3.069673   2.530476   1.789048   0.000000
    25  H    2.517291   2.511155   1.791848   1.789865   0.000000
 Stoichiometry    C8H14NO2(1-)
 Framework group  C1[X(C8H14NO2)]
 Deg. of freedom    69
 Full point group                 C1      NOp   1
 Largest Abelian subgroup         C1      NOp   1
 Largest concise Abelian subgroup C1      NOp   1
                         Standard orientation:                         
 ---------------------------------------------------------------------
 Center     Atomic      Atomic             Coordinates (Angstroms)
 Number     Number       Type             X           Y           Z
 ---------------------------------------------------------------------
      1          8           0       -1.630187    1.238919   -0.299619
      2          6           0       -1.447511    0.026709   -0.294800
      3          6           0       -0.260391   -0.735027   -0.282702
      4          7           0        0.948253   -0.129239   -0.267153
      5          6           0        2.067894   -0.756147   -0.261942
      6          6           0        3.398599   -0.037864   -0.251103
      7          6           0        3.213707    1.468752   -0.112843
      8          6           0        4.307417   -0.587080    0.854152
      9          8           0       -2.576122   -0.821588   -0.304100
     10          6           0       -3.815210   -0.171947   -0.302494
     11          6           0       -4.210629    0.306098    1.088831
     12          1           0       -0.349840   -1.831099   -0.288054
     13          1           0        2.113074   -1.867316   -0.274911
     14          1           0        3.920156   -0.229252   -1.213543
     15          1           0        4.181797    1.995372   -0.151077
     16          1           0        2.715991    1.697143    0.841401
     17          1           0        2.552259    1.848126   -0.902055
     18          1           0        5.314431   -0.137434    0.819218
     19          1           0        4.419639   -1.679547    0.766894
     20          1           0        3.866741   -0.376530    1.841931
     21          1           0       -3.795491    0.691228   -0.986836
     22          1           0       -4.549469   -0.904319   -0.678678
     23          1           0       -3.485877    1.063210    1.415480
     24          1           0       -4.194525   -0.534042    1.799269
     25          1           0       -5.219431    0.749530    1.088194
 ---------------------------------------------------------------------
 Rotational constants (GHZ):           3.3360566           0.3699766           0.3552491
 Standard basis: def2SVP (5D, 7F)
 There are   235 symmetry adapted cartesian basis functions of A   symmetry.
 There are   224 symmetry adapted basis functions of A   symmetry.
   224 basis functions,   373 primitive gaussians,   235 cartesian basis functions
    43 alpha electrons       43 beta electrons
       nuclear repulsion energy       596.7333781362 Hartrees.
 NAtoms=   25 NActive=   25 NUniq=   25 SFac= 1.00D+00 NAtFMM=   60 NAOKFM=F Big=F
 Integral buffers will be    131072 words long.
 Raffenetti 2 integral format.
 Two-electron integral symmetry is turned on.
 Nuclear repulsion after empirical dispersion term =      596.7325795538 Hartrees.
 One-electron integrals computed using PRISM.
   1 Symmetry operations used in ECPInt.
 ECPInt:  NShTT=    5886 NPrTT=   20688 LenC2=    5346 LenP2D=   14004.
 LDataN:  DoStor=T MaxTD1= 4 Len=   56
 NBasis=   224 RedAO= T EigKep=  1.18D-03  NBF=   224
 NBsUse=   224 1.00D-06 EigRej= -1.00D+00 NBFU=   224
 Initial guess from the checkpoint file:  "A18_crest_conformers_censo-14.chk"
 B after Tr=     0.000000    0.000000    0.000000
         Rot=    0.999998    0.002123    0.000100   -0.000012 Ang=   0.24 deg.
 Requested convergence on RMS density matrix=1.00D-08 within 128 cycles.
 Requested convergence on MAX density matrix=1.00D-06.
 Requested convergence on             energy=1.00D-06.
 No special actions if energy rises.
 SCF Done:  E(RM062X) =  -517.870610304     A.U. after    9 cycles
            NFock=  9  Conv=0.87D-08     -V/T= 2.0100
   1 Symmetry operations used in ECPInt.
 ECPInt:  NShTT=    5886 NPrTT=   20688 LenC2=    5346 LenP2D=   14004.
 LDataN:  DoStor=T MaxTD1= 5 Len=  102
 Calling FoFJK, ICntrl=      2127 FMM=F ISym2X=0 I1Cent= 0 IOpClX= 0 NMat=1 NMatS=1 NMatT=0.
 ***** Axes restored to original set *****
 -------------------------------------------------------------------
 Center     Atomic                   Forces (Hartrees/Bohr)
 Number     Number              X              Y              Z
 -------------------------------------------------------------------
      1        8          -0.000016925   -0.000112292   -0.000119239
      2        6           0.000063571    0.000203172    0.000093379
      3        6           0.000024858   -0.000079269   -0.000068203
      4        7          -0.000023543    0.000018946    0.000066646
      5        6           0.000003704   -0.000075567   -0.000109521
      6        6           0.000055015    0.000015171    0.000020962
      7        6           0.000039844    0.000065206   -0.000068488
      8        6          -0.000011875   -0.000033452    0.000062064
      9        8          -0.000074232   -0.000030757    0.000082115
     10        6           0.000062774   -0.000017360   -0.000126620
     11        6          -0.000029951   -0.000067216    0.000068430
     12        1           0.000019002    0.000019257    0.000010948
     13        1          -0.000023323    0.000023564    0.000007797
     14        1          -0.000017164    0.000011047    0.000003231
     15        1          -0.000012613    0.000007515    0.000037122
     16        1           0.000008045   -0.000011978    0.000005035
     17        1           0.000000741   -0.000028899    0.000028111
     18        1          -0.000007641    0.000011436   -0.000007740
     19        1          -0.000008025    0.000008532   -0.000000069
     20        1           0.000001875    0.000004995   -0.000010463
     21        1          -0.000031690   -0.000002595    0.000005579
     22        1          -0.000036158    0.000009076    0.000028606
     23        1           0.000008619    0.000023254   -0.000000597
     24        1           0.000009596    0.000001134    0.000002489
     25        1          -0.000004505    0.000037080   -0.000011572
 -------------------------------------------------------------------
 Cartesian Forces:  Max     0.000203172 RMS     0.000050412

 GradGradGradGradGradGradGradGradGradGradGradGradGradGradGradGradGradGrad
 Berny optimization.
 Using GEDIIS/GDIIS optimizer.
 FormGI is forming the generalized inverse of G from B-inverse, IUseBI=4.
 Internal  Forces:  Max     0.000159662 RMS     0.000029060
 Search for a local minimum.
 Step number  12 out of a maximum of  121
 All quantities printed in internal units (Hartrees-Bohrs-Radians)
 Mixed Optimization -- En-DIIS/RFO-DIIS
 Swapping is turned off.
 Update second derivatives using D2CorX and points    8    9   10   11   12
 DE= -3.16D-06 DEPred=-3.48D-06 R= 9.09D-01
 TightC=F SS=  1.41D+00  RLast= 2.49D-02 DXNew= 2.1612D+00 7.4769D-02
 Trust test= 9.09D-01 RLast= 2.49D-02 DXMaxT set to 1.29D+00
 ITU=  1  1  1  1  1  1  1  1  1  1  1  0
     Eigenvalues ---    0.00130   0.00350   0.00372   0.00406   0.00666
     Eigenvalues ---    0.01445   0.01789   0.02290   0.02358   0.02512
     Eigenvalues ---    0.03519   0.03943   0.04993   0.05336   0.05449
     Eigenvalues ---    0.05494   0.05655   0.05695   0.05726   0.05761
     Eigenvalues ---    0.05856   0.05884   0.08103   0.11749   0.14039
     Eigenvalues ---    0.15161   0.15468   0.15839   0.16000   0.16000
     Eigenvalues ---    0.16003   0.16009   0.16032   0.16043   0.16114
     Eigenvalues ---    0.16209   0.16967   0.18288   0.21333   0.22819
     Eigenvalues ---    0.23141   0.24499   0.25249   0.27269   0.29236
     Eigenvalues ---    0.29490   0.29591   0.32431   0.33211   0.33287
     Eigenvalues ---    0.33651   0.33698   0.33838   0.34623   0.34696
     Eigenvalues ---    0.34751   0.34884   0.34912   0.34954   0.35102
     Eigenvalues ---    0.35319   0.35381   0.37420   0.42309   0.48125
     Eigenvalues ---    0.56201   0.58571   0.75230   0.90053
 En-DIIS/RFO-DIIS/Sim-DIIS IScMMF=       -3 using points:    12   11   10    9    8    7    6
 RFO step:  Lambda=-8.24324548D-07.
 DidBck=F Rises=F RFO-DIIS coefs:    1.27632   -0.20736   -0.06181    0.01871    0.01959
                  RFO-DIIS coefs:   -0.03592   -0.00954
 Iteration  1 RMS(Cart)=  0.00602809 RMS(Int)=  0.00001152
 Iteration  2 RMS(Cart)=  0.00002085 RMS(Int)=  0.00000149
 Iteration  3 RMS(Cart)=  0.00000000 RMS(Int)=  0.00000149
 Variable       Old X    -DE/DX   Delta X   Delta X   Delta X     New X
                                 (Linear)    (Quad)   (Total)
    R1        2.31663   0.00016  -0.00000   0.00021   0.00021   2.31684
    R2        2.66555  -0.00007  -0.00014  -0.00006  -0.00020   2.66534
    R3        2.66810  -0.00007   0.00017  -0.00022  -0.00004   2.66806
    R4        2.55500  -0.00002  -0.00002   0.00004   0.00002   2.55503
    R5        2.07819   0.00002   0.00001   0.00006   0.00006   2.07825
    R6        2.42492  -0.00004  -0.00002  -0.00002  -0.00004   2.42488
    R7        2.85769  -0.00008  -0.00004  -0.00027  -0.00031   2.85738
    R8        2.10168   0.00002  -0.00003   0.00007   0.00004   2.10172
    R9        2.88033  -0.00002  -0.00008  -0.00004  -0.00012   2.88021
   R10        2.89639   0.00005   0.00017   0.00019   0.00036   2.89675
   R11        2.10001   0.00001  -0.00009   0.00007  -0.00002   2.09999
   R12        2.08384  -0.00000  -0.00001  -0.00002  -0.00003   2.08380
   R13        2.07910   0.00002  -0.00017   0.00009  -0.00008   2.07902
   R14        2.07379  -0.00003   0.00001  -0.00010  -0.00008   2.07371
   R15        2.08511   0.00001   0.00003   0.00001   0.00004   2.08516
   R16        2.08187   0.00001  -0.00003   0.00002  -0.00001   2.08186
   R17        2.08233  -0.00001  -0.00005  -0.00002  -0.00007   2.08226
   R18        2.64384  -0.00000   0.00021  -0.00021  -0.00001   2.64384
   R19        2.87876   0.00002   0.00003   0.00002   0.00005   2.87880
   R20        2.08195  -0.00001  -0.00010   0.00006  -0.00004   2.08190
   R21        2.08472  -0.00001   0.00005  -0.00007  -0.00002   2.08470
   R22        2.07456  -0.00002  -0.00000  -0.00005  -0.00005   2.07451
   R23        2.07940   0.00000  -0.00002   0.00001  -0.00001   2.07939
   R24        2.08240  -0.00001  -0.00003  -0.00004  -0.00007   2.08233
    A1        2.29087  -0.00001  -0.00002   0.00003   0.00001   2.29088
    A2        2.06572   0.00008   0.00002   0.00018   0.00020   2.06592
    A3        1.92659  -0.00007  -0.00000  -0.00020  -0.00021   1.92639
    A4        2.10653   0.00006   0.00001   0.00031   0.00032   2.10685
    A5        2.05979  -0.00005  -0.00004  -0.00022  -0.00026   2.05953
    A6        2.11686  -0.00001   0.00003  -0.00009  -0.00006   2.11680
    A7        2.16656  -0.00001  -0.00012   0.00003  -0.00009   2.16647
    A8        2.13622   0.00005   0.00011   0.00020   0.00030   2.13653
    A9        2.12176   0.00000   0.00000   0.00007   0.00007   2.12183
   A10        2.02517  -0.00005  -0.00008  -0.00027  -0.00036   2.02480
   A11        1.94272  -0.00002   0.00012  -0.00018  -0.00006   1.94266
   A12        1.93558   0.00001   0.00006   0.00009   0.00015   1.93573
   A13        1.90179   0.00001  -0.00022   0.00009  -0.00014   1.90165
   A14        1.93983   0.00001  -0.00027   0.00013  -0.00014   1.93969
   A15        1.88150   0.00000   0.00037  -0.00005   0.00032   1.88182
   A16        1.85931  -0.00001  -0.00006  -0.00008  -0.00013   1.85918
   A17        1.94165  -0.00005  -0.00019  -0.00024  -0.00043   1.94123
   A18        1.91638   0.00000  -0.00005  -0.00006  -0.00011   1.91626
   A19        1.92793   0.00003   0.00036   0.00025   0.00061   1.92854
   A20        1.90507   0.00001   0.00038  -0.00017   0.00021   1.90528
   A21        1.91678   0.00002  -0.00030   0.00036   0.00006   1.91684
   A22        1.85388  -0.00002  -0.00021  -0.00013  -0.00033   1.85355
   A23        1.95229  -0.00001  -0.00000  -0.00007  -0.00007   1.95221
   A24        1.93759   0.00000  -0.00003   0.00003  -0.00001   1.93758
   A25        1.91858  -0.00001  -0.00012   0.00000  -0.00012   1.91847
   A26        1.88455  -0.00000   0.00003  -0.00009  -0.00006   1.88449
   A27        1.89178   0.00001   0.00009   0.00004   0.00013   1.89191
   A28        1.87676   0.00001   0.00005   0.00009   0.00014   1.87690
   A29        2.01414  -0.00004   0.00057  -0.00084  -0.00027   2.01387
   A30        1.95697  -0.00001  -0.00009  -0.00034  -0.00043   1.95654
   A31        1.92542  -0.00001  -0.00002  -0.00008  -0.00010   1.92532
   A32        1.85545  -0.00002   0.00012  -0.00034  -0.00022   1.85523
   A33        1.90297   0.00003  -0.00007   0.00031   0.00024   1.90321
   A34        1.92517  -0.00000   0.00006   0.00008   0.00015   1.92532
   A35        1.89677   0.00001   0.00000   0.00038   0.00038   1.89715
   A36        1.89316  -0.00001  -0.00020  -0.00000  -0.00020   1.89296
   A37        1.92440   0.00001  -0.00015   0.00025   0.00010   1.92450
   A38        1.94268  -0.00006   0.00018  -0.00047  -0.00029   1.94239
   A39        1.90159   0.00001   0.00004   0.00010   0.00014   1.90173
   A40        1.90395   0.00003   0.00011   0.00006   0.00017   1.90412
   A41        1.89759   0.00002   0.00003   0.00007   0.00010   1.89769
    D1        0.00599  -0.00000   0.00085   0.00018   0.00104   0.00702
    D2       -3.13381  -0.00001   0.00043   0.00017   0.00060  -3.13321
    D3       -3.13715   0.00004   0.00117   0.00032   0.00149  -3.13566
    D4        0.00624   0.00003   0.00074   0.00031   0.00105   0.00729
    D5       -0.01242   0.00001   0.00184  -0.00000   0.00184  -0.01058
    D6        3.13049  -0.00002   0.00157  -0.00012   0.00145   3.13194
    D7       -3.13556   0.00000   0.00000   0.00005   0.00005  -3.13550
    D8        0.00418   0.00001   0.00044   0.00006   0.00050   0.00468
    D9        3.13636   0.00001   0.00067   0.00071   0.00138   3.13774
   D10        0.00504   0.00001  -0.00020   0.00022   0.00002   0.00506
   D11        0.09498  -0.00001  -0.00877  -0.00034  -0.00911   0.08587
   D12        2.26429  -0.00001  -0.00898  -0.00024  -0.00922   2.25506
   D13       -1.97767  -0.00001  -0.00915  -0.00023  -0.00938  -1.98705
   D14       -3.05636  -0.00001  -0.00794   0.00013  -0.00781  -3.06417
   D15       -0.88705  -0.00000  -0.00815   0.00023  -0.00792  -0.89497
   D16        1.15419  -0.00000  -0.00833   0.00024  -0.00808   1.14610
   D17       -3.09656  -0.00001  -0.00214  -0.00008  -0.00222  -3.09879
   D18        1.07583   0.00001  -0.00247   0.00033  -0.00213   1.07369
   D19       -0.96308   0.00001  -0.00240   0.00038  -0.00202  -0.96510
   D20        1.01972  -0.00001  -0.00211  -0.00017  -0.00228   1.01744
   D21       -1.09108   0.00000  -0.00243   0.00025  -0.00218  -1.09326
   D22       -3.12999   0.00000  -0.00237   0.00030  -0.00207  -3.13206
   D23       -1.01180  -0.00001  -0.00211  -0.00012  -0.00223  -1.01403
   D24       -3.12260   0.00001  -0.00244   0.00030  -0.00213  -3.12473
   D25        1.12168   0.00001  -0.00237   0.00035  -0.00202   1.11965
   D26        3.05268   0.00000  -0.00075  -0.00017  -0.00092   3.05176
   D27        0.94631   0.00001  -0.00076  -0.00003  -0.00079   0.94552
   D28       -1.12799   0.00000  -0.00072  -0.00016  -0.00088  -1.12888
   D29       -1.05955  -0.00001  -0.00074  -0.00024  -0.00099  -1.06053
   D30        3.11726  -0.00000  -0.00076  -0.00010  -0.00086   3.11640
   D31        1.04296  -0.00001  -0.00072  -0.00023  -0.00095   1.04201
   D32        0.98555  -0.00000  -0.00048  -0.00028  -0.00076   0.98479
   D33       -1.12083   0.00000  -0.00049  -0.00014  -0.00063  -1.12146
   D34        3.08806  -0.00000  -0.00045  -0.00027  -0.00072   3.08733
   D35       -1.39222  -0.00005  -0.00214  -0.00033  -0.00247  -1.39469
   D36        0.73239  -0.00002  -0.00230  -0.00023  -0.00253   0.72986
   D37        2.78584  -0.00002  -0.00224  -0.00002  -0.00226   2.78358
   D38        1.11920   0.00002  -0.00019   0.00019   0.00001   1.11920
   D39       -0.96174   0.00000  -0.00002  -0.00008  -0.00010  -0.96184
   D40       -3.06918   0.00001  -0.00007  -0.00002  -0.00009  -3.06927
   D41       -1.01821   0.00002  -0.00005   0.00031   0.00026  -1.01795
   D42       -3.09915   0.00000   0.00011   0.00004   0.00015  -3.09900
   D43        1.07660   0.00001   0.00006   0.00009   0.00016   1.07676
   D44       -3.09974  -0.00002  -0.00005  -0.00039  -0.00044  -3.10019
   D45        1.10250  -0.00003   0.00012  -0.00067  -0.00055   1.10195
   D46       -1.00493  -0.00002   0.00006  -0.00061  -0.00055  -1.00548
         Item               Value     Threshold  Converged?
 Maximum Force            0.000160     0.000450     YES
 RMS     Force            0.000029     0.000300     YES
 Maximum Displacement     0.017348     0.001800     NO 
 RMS     Displacement     0.006029     0.001200     NO 
 Predicted change in Energy=-3.481501D-07
 GradGradGradGradGradGradGradGradGradGradGradGradGradGradGradGradGradGrad

                          Input orientation:                          
 ---------------------------------------------------------------------
 Center     Atomic      Atomic             Coordinates (Angstroms)
 Number     Number       Type             X           Y           Z
 ---------------------------------------------------------------------
      1          8           0        1.556523   -0.676502   -1.100309
      2          6           0        1.400355    0.114660   -0.176844
      3          6           0        0.230339    0.639408    0.410559
      4          7           0       -0.991523    0.271680   -0.036545
      5          6           0       -2.096691    0.712040    0.444354
      6          6           0       -3.443088    0.277577   -0.089299
      7          6           0       -3.294698   -0.806752   -1.150060
      8          6           0       -4.359558   -0.184667    1.049200
      9          8           0        2.546982    0.637078    0.460116
     10          6           0        3.771143    0.174454   -0.034630
     11          6           0        4.124854   -1.204083    0.508754
     12          1           0        0.344173    1.354311    1.238466
     13          1           0       -2.116818    1.447217    1.278658
     14          1           0       -3.942519    1.150223   -0.562558
     15          1           0       -4.273950   -1.091651   -1.569400
     16          1           0       -2.817784   -1.695325   -0.710332
     17          1           0       -2.629385   -0.468749   -1.954616
     18          1           0       -5.375867   -0.418958    0.688982
     19          1           0       -4.444957    0.590657    1.827185
     20          1           0       -3.942275   -1.087121    1.524175
     21          1           0        3.747291    0.131793   -1.135241
     22          1           0        4.529248    0.913938    0.274291
     23          1           0        3.376389   -1.922053    0.148965
     24          1           0        4.111621   -1.194975    1.609003
     25          1           0        5.123344   -1.523749    0.169546
 ---------------------------------------------------------------------
                    Distance matrix (angstroms):
                    1          2          3          4          5
     1  O    0.000000
     2  C    1.226016   0.000000
     3  C    2.402729   1.410439   0.000000
     4  N    2.919449   2.401128   1.352062   0.000000
     5  C    4.202381   3.601677   2.328409   1.283190   0.000000
     6  C    5.189269   4.846973   3.724896   2.452140   1.512062
     7  C    4.853223   4.882588   4.117377   2.776246   2.506812
     8  C    6.313660   5.896556   4.706816   3.568019   2.508085
     9  O    2.267472   1.411876   2.317174   3.591825   4.644305
    10  C    2.600835   2.375803   3.598842   4.763659   5.911844
    11  C    3.076321   3.103550   4.309912   5.352806   6.510245
    12  H    3.326239   2.157627   1.099761   2.140520   2.645929
    13  H    4.864474   4.032952   2.629696   2.092352   1.112184
    14  H    5.819413   5.455957   4.315164   3.123605   2.147780
    15  H    5.864026   5.965914   5.215882   3.870742   3.471162
    16  H    4.508286   4.620969   3.999804   2.767369   2.765626
    17  H    4.277245   4.442932   3.872995   2.628655   2.726368
    18  H    7.164211   6.852122   5.712023   4.497315   3.477355
    19  H    6.796592   6.197610   4.885448   3.937187   2.727876
    20  H    6.106824   5.734234   4.650995   3.604043   2.794491
    21  H    2.335386   2.535139   3.875064   4.866524   6.081441
    22  H    3.640896   3.260727   4.309821   5.566689   6.631195
    23  H    2.534560   2.856407   4.065358   4.891373   6.081143
    24  H    3.760016   3.500766   4.457082   5.558866   6.598201
    25  H    3.879764   4.082281   5.355261   6.376334   7.563278
                    6          7          8          9         10
     6  C    0.000000
     7  C    1.524139   0.000000
     8  C    1.532894   2.521440   0.000000
     9  O    6.025947   6.229168   6.980157   0.000000
    10  C    7.215175   7.220322   8.210478   1.399058   0.000000
    11  C    7.734774   7.613099   8.562507   2.425267   1.523398
    12  H    4.155197   4.859694   4.952713   2.443894   3.841479
    13  H    2.235701   3.516596   2.783088   4.803891   6.165447
    14  H    1.111268   2.143497   2.133920   6.589599   7.793037
    15  H    2.180783   1.102701   2.772547   7.323425   8.287464
    16  H    2.160794   1.100168   2.784799   5.965801   6.882341
    17  H    2.167607   1.097359   3.478090   5.817952   6.713182
    18  H    2.196933   2.804233   1.103419   7.996195   9.194756
    19  H    2.185102   3.484226   1.101672   7.124482   8.434683
    20  H    2.171378   2.765772   1.101885   6.798202   7.969835
    21  H    7.267516   7.104272   8.401960   2.059422   1.101696
    22  H    8.005954   8.136564   8.989900   2.010115   1.103174
    23  H    7.169407   6.887289   7.979587   2.708114   2.141233
    24  H    7.882022   7.913072   8.549561   2.669168   2.166285
    25  H    8.757598   8.550957   9.617295   3.375091   2.180373
                   11         12         13         14         15
    11  C    0.000000
    12  H    4.622921   0.000000
    13  H    6.824999   2.463072   0.000000
    14  H    8.471893   4.654146   2.609879   0.000000
    15  H    8.652818   5.932445   4.382980   2.479834   0.000000
    16  H    7.065955   4.805837   3.784576   3.063333   1.795226
    17  H    7.226939   4.728781   3.793114   2.506635   1.800275
    18  H    9.534810   6.013757   3.801543   2.466407   2.601351
    19  H    8.854434   4.885235   2.540631   2.505280   3.794232
    20  H    8.131625   4.941241   3.132961   3.059438   3.111308
    21  H    2.151706   4.325534   6.476498   7.778068   8.125614
    22  H    2.168991   4.317223   6.742651   8.516278   9.215090
    23  H    1.097783   4.595204   6.542439   7.969414   7.884797
    24  H    1.100366   4.563970   6.773756   8.665149   8.968318
    25  H    1.101921   5.680342   7.904221   9.480294   9.566596
                   16         17         18         19         20
    16  H    0.000000
    17  H    1.757335   0.000000
    18  H    3.182920   3.812381   0.000000
    19  H    3.783173   4.326737   1.783654   0.000000
    20  H    2.574376   3.769356   1.788623   1.777482   0.000000
    21  H    6.827820   6.457091   9.320039   8.723499   8.227252
    22  H    7.858539   7.624033  10.002994   9.113306   8.793928
    23  H    6.257602   6.527363   8.896791   8.384723   7.493408
    24  H    7.324366   7.659501   9.563528   8.743633   8.055066
    25  H    7.991567   8.107397  10.569948   9.938353   9.176661
                   21         22         23         24         25
    21  H    0.000000
    22  H    1.791644   0.000000
    23  H    2.450518   3.063925   0.000000
    24  H    3.069842   2.530491   1.789112   0.000000
    25  H    2.517302   2.511222   1.791905   1.789892   0.000000
 Stoichiometry    C8H14NO2(1-)
 Framework group  C1[X(C8H14NO2)]
 Deg. of freedom    69
 Full point group                 C1      NOp   1
 Largest Abelian subgroup         C1      NOp   1
 Largest concise Abelian subgroup C1      NOp   1
                         Standard orientation:                         
 ---------------------------------------------------------------------
 Center     Atomic      Atomic             Coordinates (Angstroms)
 Number     Number       Type             X           Y           Z
 ---------------------------------------------------------------------
      1          8           0       -1.629385    1.240710   -0.294494
      2          6           0       -1.446976    0.028339   -0.294843
      3          6           0       -0.260125   -0.733669   -0.286711
      4          7           0        0.948868   -0.128634   -0.268247
      5          6           0        2.068085   -0.756270   -0.266377
      6          6           0        3.399318   -0.039409   -0.250311
      7          6           0        3.215230    1.467559   -0.115552
      8          6           0        4.302408   -0.587454    0.860473
      9          8           0       -2.575613   -0.819859   -0.306319
     10          6           0       -3.814486   -0.169823   -0.302957
     11          6           0       -4.210731    0.301422    1.090477
     12          1           0       -0.350130   -1.829691   -0.297155
     13          1           0        2.112624   -1.867406   -0.285018
     14          1           0        3.925348   -0.233306   -1.209797
     15          1           0        4.184389    1.992576   -0.147759
     16          1           0        2.711156    1.697796    0.834852
     17          1           0        2.559740    1.847125   -0.909567
     18          1           0        5.310289   -0.139445    0.828902
     19          1           0        4.413370   -1.680285    0.776283
     20          1           0        3.857548   -0.373789    1.845662
     21          1           0       -3.793602    0.696620   -0.983086
     22          1           0       -4.548424   -0.900361   -0.683277
     23          1           0       -3.485824    1.056564    1.421233
     24          1           0       -4.195609   -0.542216    1.796771
     25          1           0       -5.219307    0.745275    1.090994
 ---------------------------------------------------------------------
 Rotational constants (GHZ):           3.3322014           0.3700614           0.3554217
 Standard basis: def2SVP (5D, 7F)
 There are   235 symmetry adapted cartesian basis functions of A   symmetry.
 There are   224 symmetry adapted basis functions of A   symmetry.
   224 basis functions,   373 primitive gaussians,   235 cartesian basis functions
    43 alpha electrons       43 beta electrons
       nuclear repulsion energy       596.7533634061 Hartrees.
 NAtoms=   25 NActive=   25 NUniq=   25 SFac= 1.00D+00 NAtFMM=   60 NAOKFM=F Big=F
 Integral buffers will be    131072 words long.
 Raffenetti 2 integral format.
 Two-electron integral symmetry is turned on.
 Nuclear repulsion after empirical dispersion term =      596.7525646562 Hartrees.
 One-electron integrals computed using PRISM.
   1 Symmetry operations used in ECPInt.
 ECPInt:  NShTT=    5886 NPrTT=   20688 LenC2=    5347 LenP2D=   14006.
 LDataN:  DoStor=T MaxTD1= 4 Len=   56
 NBasis=   224 RedAO= T EigKep=  1.18D-03  NBF=   224
 NBsUse=   224 1.00D-06 EigRej= -1.00D+00 NBFU=   224
 Initial guess from the checkpoint file:  "A18_crest_conformers_censo-14.chk"
 B after Tr=    -0.000000    0.000000   -0.000000
         Rot=    1.000000   -0.000791    0.000104    0.000071 Ang=  -0.09 deg.
 Requested convergence on RMS density matrix=1.00D-08 within 128 cycles.
 Requested convergence on MAX density matrix=1.00D-06.
 Requested convergence on             energy=1.00D-06.
 No special actions if energy rises.
 SCF Done:  E(RM062X) =  -517.870610726     A.U. after    9 cycles
            NFock=  9  Conv=0.76D-08     -V/T= 2.0100
   1 Symmetry operations used in ECPInt.
 ECPInt:  NShTT=    5886 NPrTT=   20688 LenC2=    5347 LenP2D=   14006.
 LDataN:  DoStor=T MaxTD1= 5 Len=  102
 Calling FoFJK, ICntrl=      2127 FMM=F ISym2X=0 I1Cent= 0 IOpClX= 0 NMat=1 NMatS=1 NMatT=0.
 ***** Axes restored to original set *****
 -------------------------------------------------------------------
 Center     Atomic                   Forces (Hartrees/Bohr)
 Number     Number              X              Y              Z
 -------------------------------------------------------------------
      1        8           0.000000359   -0.000013581   -0.000008657
      2        6           0.000032729    0.000065790    0.000040842
      3        6          -0.000022892   -0.000022488   -0.000018068
      4        7          -0.000032155    0.000014044    0.000014979
      5        6           0.000016885   -0.000011709   -0.000019651
      6        6           0.000024085    0.000024391   -0.000002279
      7        6          -0.000021933   -0.000009253   -0.000010408
      8        6           0.000003910   -0.000003194    0.000005718
      9        8          -0.000085123   -0.000017657   -0.000030402
     10        6           0.000048470   -0.000007807   -0.000016518
     11        6          -0.000003536   -0.000007135    0.000011056
     12        1           0.000003095    0.000002857    0.000004652
     13        1           0.000003585    0.000005625    0.000021179
     14        1           0.000001712    0.000001713    0.000001880
     15        1          -0.000003013   -0.000012260   -0.000000713
     16        1          -0.000001647   -0.000019842    0.000010108
     17        1           0.000011719    0.000020063    0.000000323
     18        1          -0.000003821    0.000000022   -0.000005002
     19        1           0.000002214    0.000006172   -0.000002095
     20        1           0.000004097   -0.000003186    0.000001523
     21        1          -0.000003399   -0.000006441    0.000012980
     22        1           0.000006455   -0.000004513    0.000004956
     23        1           0.000000312   -0.000003301   -0.000005484
     24        1           0.000004456    0.000006235   -0.000002941
     25        1           0.000013434   -0.000004546   -0.000007981
 -------------------------------------------------------------------
 Cartesian Forces:  Max     0.000085123 RMS     0.000018885

 GradGradGradGradGradGradGradGradGradGradGradGradGradGradGradGradGradGrad
 Berny optimization.
 Using GEDIIS/GDIIS optimizer.
 FormGI is forming the generalized inverse of G from B-inverse, IUseBI=4.
 Internal  Forces:  Max     0.000065148 RMS     0.000012618
 Search for a local minimum.
 Step number  13 out of a maximum of  121
 All quantities printed in internal units (Hartrees-Bohrs-Radians)
 Mixed Optimization -- En-DIIS/RFO-DIIS
 Swapping is turned off.
 Update second derivatives using D2CorX and points    8    9   10   11   12
                                                     13
 DE= -4.22D-07 DEPred=-3.48D-07 R= 1.21D+00
 Trust test= 1.21D+00 RLast= 2.29D-02 DXMaxT set to 1.29D+00
 ITU=  0  1  1  1  1  1  1  1  1  1  1  1  0
     Eigenvalues ---    0.00131   0.00352   0.00372   0.00406   0.00679
     Eigenvalues ---    0.01459   0.01819   0.02218   0.02358   0.02507
     Eigenvalues ---    0.03585   0.03945   0.05011   0.05337   0.05449
     Eigenvalues ---    0.05467   0.05632   0.05660   0.05698   0.05736
     Eigenvalues ---    0.05808   0.05888   0.07994   0.11761   0.14022
     Eigenvalues ---    0.14796   0.15448   0.15908   0.15998   0.16000
     Eigenvalues ---    0.16001   0.16011   0.16025   0.16048   0.16124
     Eigenvalues ---    0.16279   0.17007   0.18282   0.21131   0.22800
     Eigenvalues ---    0.23279   0.24469   0.25292   0.27589   0.29230
     Eigenvalues ---    0.29499   0.29643   0.32600   0.33201   0.33308
     Eigenvalues ---    0.33629   0.33698   0.33870   0.34586   0.34684
     Eigenvalues ---    0.34770   0.34893   0.34918   0.34953   0.34996
     Eigenvalues ---    0.35197   0.35383   0.37376   0.42144   0.47675
     Eigenvalues ---    0.56139   0.58703   0.75023   0.88796
 En-DIIS/RFO-DIIS/Sim-DIIS IScMMF=       -3 using points:    13   12   11   10    9    8    7    6
 RFO step:  Lambda=-1.18673973D-07.
 DidBck=F Rises=F RFO-DIIS coefs:    0.94719    0.10087   -0.03295   -0.04285    0.03162
                  RFO-DIIS coefs:    0.00369   -0.01001    0.00244
 Iteration  1 RMS(Cart)=  0.00149143 RMS(Int)=  0.00000083
 Iteration  2 RMS(Cart)=  0.00000135 RMS(Int)=  0.00000019
 Iteration  3 RMS(Cart)=  0.00000000 RMS(Int)=  0.00000019
 Variable       Old X    -DE/DX   Delta X   Delta X   Delta X     New X
                                 (Linear)    (Quad)   (Total)
    R1        2.31684   0.00001   0.00002   0.00001   0.00003   2.31686
    R2        2.66534   0.00001  -0.00004   0.00006   0.00002   2.66536
    R3        2.66806  -0.00004   0.00002  -0.00017  -0.00015   2.66791
    R4        2.55503  -0.00001  -0.00005   0.00002  -0.00004   2.55499
    R5        2.07825   0.00001   0.00001   0.00002   0.00002   2.07827
    R6        2.42488  -0.00004   0.00000  -0.00004  -0.00004   2.42484
    R7        2.85738  -0.00001   0.00008  -0.00010  -0.00001   2.85737
    R8        2.10172   0.00002  -0.00002   0.00007   0.00005   2.10177
    R9        2.88021   0.00002   0.00006   0.00001   0.00007   2.88027
   R10        2.89675  -0.00000  -0.00006   0.00000  -0.00006   2.89669
   R11        2.09999  -0.00000  -0.00002   0.00003   0.00001   2.10001
   R12        2.08380   0.00001  -0.00001   0.00003   0.00002   2.08382
   R13        2.07902   0.00002  -0.00001   0.00008   0.00008   2.07909
   R14        2.07371   0.00001  -0.00002   0.00004   0.00002   2.07373
   R15        2.08516   0.00001  -0.00002   0.00002   0.00000   2.08516
   R16        2.08186   0.00000  -0.00002   0.00003   0.00001   2.08187
   R17        2.08226   0.00001  -0.00002   0.00004   0.00002   2.08228
   R18        2.64384   0.00007   0.00011   0.00000   0.00012   2.64396
   R19        2.87880   0.00001   0.00003  -0.00001   0.00001   2.87882
   R20        2.08190  -0.00001  -0.00002  -0.00002  -0.00004   2.08187
   R21        2.08470   0.00000   0.00001  -0.00000   0.00000   2.08470
   R22        2.07451   0.00000  -0.00003   0.00003   0.00001   2.07452
   R23        2.07939  -0.00000  -0.00003   0.00002  -0.00001   2.07938
   R24        2.08233   0.00002  -0.00002   0.00006   0.00004   2.08237
    A1        2.29088  -0.00001  -0.00000  -0.00003  -0.00004   2.29084
    A2        2.06592  -0.00001  -0.00008   0.00006  -0.00002   2.06590
    A3        1.92639   0.00001   0.00009  -0.00003   0.00006   1.92644
    A4        2.10685   0.00002   0.00004   0.00003   0.00007   2.10693
    A5        2.05953  -0.00001  -0.00004  -0.00002  -0.00006   2.05946
    A6        2.11680  -0.00001  -0.00000  -0.00001  -0.00001   2.11679
    A7        2.16647  -0.00000   0.00005  -0.00002   0.00002   2.16649
    A8        2.13653  -0.00002  -0.00001  -0.00007  -0.00008   2.13645
    A9        2.12183   0.00001  -0.00003   0.00003   0.00001   2.12183
   A10        2.02480   0.00001   0.00004   0.00004   0.00007   2.02487
   A11        1.94266   0.00001   0.00004  -0.00005  -0.00000   1.94266
   A12        1.93573  -0.00000  -0.00003  -0.00004  -0.00007   1.93566
   A13        1.90165  -0.00000   0.00003   0.00005   0.00008   1.90173
   A14        1.93969  -0.00001   0.00000   0.00000   0.00001   1.93970
   A15        1.88182   0.00000  -0.00007   0.00003  -0.00004   1.88178
   A16        1.85918   0.00000   0.00002   0.00001   0.00003   1.85921
   A17        1.94123   0.00002   0.00003   0.00007   0.00011   1.94134
   A18        1.91626   0.00000   0.00001  -0.00001   0.00000   1.91626
   A19        1.92854  -0.00003  -0.00016  -0.00006  -0.00022   1.92832
   A20        1.90528  -0.00001  -0.00004  -0.00009  -0.00013   1.90515
   A21        1.91684   0.00001   0.00002   0.00010   0.00012   1.91696
   A22        1.85355   0.00001   0.00014  -0.00002   0.00012   1.85367
   A23        1.95221  -0.00000  -0.00002  -0.00002  -0.00004   1.95217
   A24        1.93758  -0.00001  -0.00001  -0.00002  -0.00003   1.93755
   A25        1.91847  -0.00000  -0.00000   0.00002   0.00002   1.91849
   A26        1.88449   0.00001   0.00001   0.00000   0.00002   1.88451
   A27        1.89191   0.00000   0.00000   0.00001   0.00001   1.89192
   A28        1.87690   0.00000   0.00002   0.00001   0.00003   1.87693
   A29        2.01387   0.00005   0.00019  -0.00009   0.00010   2.01397
   A30        1.95654   0.00003   0.00009  -0.00003   0.00006   1.95660
   A31        1.92532  -0.00001  -0.00003  -0.00002  -0.00004   1.92527
   A32        1.85523  -0.00000   0.00000   0.00001   0.00001   1.85524
   A33        1.90321  -0.00001  -0.00001  -0.00002  -0.00003   1.90318
   A34        1.92532  -0.00002  -0.00005  -0.00001  -0.00006   1.92526
   A35        1.89715   0.00001  -0.00001   0.00008   0.00007   1.89722
   A36        1.89296   0.00000  -0.00000   0.00001   0.00001   1.89297
   A37        1.92450  -0.00001  -0.00008   0.00006  -0.00003   1.92447
   A38        1.94239  -0.00000  -0.00003  -0.00002  -0.00005   1.94234
   A39        1.90173   0.00001   0.00005   0.00002   0.00007   1.90180
   A40        1.90412  -0.00000   0.00007  -0.00008  -0.00001   1.90411
   A41        1.89769   0.00000   0.00000   0.00000   0.00001   1.89769
    D1        0.00702  -0.00000   0.00005  -0.00009  -0.00004   0.00698
    D2       -3.13321  -0.00001  -0.00000  -0.00007  -0.00007  -3.13327
    D3       -3.13566   0.00001   0.00015  -0.00005   0.00011  -3.13556
    D4        0.00729   0.00000   0.00010  -0.00002   0.00008   0.00738
    D5       -0.01058  -0.00000  -0.00026   0.00007  -0.00018  -0.01077
    D6        3.13194  -0.00001  -0.00034   0.00003  -0.00031   3.13163
    D7       -3.13550  -0.00000  -0.00007  -0.00008  -0.00015  -3.13565
    D8        0.00468  -0.00000  -0.00002  -0.00011  -0.00012   0.00456
    D9        3.13774  -0.00000  -0.00018  -0.00014  -0.00032   3.13742
   D10        0.00506  -0.00000   0.00004  -0.00018  -0.00015   0.00491
   D11        0.08587   0.00001   0.00251  -0.00000   0.00251   0.08838
   D12        2.25506   0.00000   0.00252  -0.00006   0.00247   2.25753
   D13       -1.98705   0.00000   0.00255  -0.00004   0.00251  -1.98453
   D14       -3.06417   0.00001   0.00231   0.00004   0.00234  -3.06182
   D15       -0.89497   0.00000   0.00232  -0.00002   0.00230  -0.89267
   D16        1.14610   0.00000   0.00234   0.00000   0.00235   1.14845
   D17       -3.09879  -0.00000   0.00079  -0.00009   0.00070  -3.09808
   D18        1.07369  -0.00000   0.00082  -0.00002   0.00080   1.07449
   D19       -0.96510   0.00000   0.00073   0.00005   0.00078  -0.96432
   D20        1.01744   0.00000   0.00080  -0.00001   0.00079   1.01823
   D21       -1.09326   0.00000   0.00083   0.00006   0.00088  -1.09238
   D22       -3.13206   0.00000   0.00074   0.00012   0.00087  -3.13119
   D23       -1.01403   0.00000   0.00082  -0.00004   0.00077  -1.01326
   D24       -3.12473   0.00000   0.00084   0.00003   0.00087  -3.12387
   D25        1.11965   0.00000   0.00075   0.00009   0.00085   1.12050
   D26        3.05176  -0.00000   0.00026   0.00010   0.00036   3.05212
   D27        0.94552   0.00000   0.00026   0.00012   0.00038   0.94590
   D28       -1.12888  -0.00000   0.00025   0.00011   0.00036  -1.12852
   D29       -1.06053  -0.00000   0.00029   0.00001   0.00031  -1.06023
   D30        3.11640   0.00000   0.00030   0.00004   0.00033   3.11674
   D31        1.04201   0.00000   0.00028   0.00002   0.00031   1.04232
   D32        0.98479   0.00000   0.00023   0.00006   0.00028   0.98507
   D33       -1.12146   0.00000   0.00023   0.00008   0.00031  -1.12115
   D34        3.08733   0.00000   0.00022   0.00006   0.00028   3.08762
   D35       -1.39469  -0.00001  -0.00018  -0.00002  -0.00020  -1.39489
   D36        0.72986  -0.00001  -0.00015  -0.00009  -0.00023   0.72962
   D37        2.78358  -0.00000  -0.00017   0.00001  -0.00017   2.78341
   D38        1.11920   0.00000  -0.00017   0.00002  -0.00015   1.11906
   D39       -0.96184  -0.00000  -0.00017  -0.00005  -0.00022  -0.96206
   D40       -3.06927  -0.00000  -0.00010  -0.00008  -0.00018  -3.06945
   D41       -1.01795  -0.00000  -0.00019   0.00008  -0.00011  -1.01806
   D42       -3.09900  -0.00001  -0.00019   0.00001  -0.00018  -3.09918
   D43        1.07676  -0.00000  -0.00012  -0.00002  -0.00014   1.07662
   D44       -3.10019   0.00000  -0.00014   0.00001  -0.00014  -3.10032
   D45        1.10195  -0.00000  -0.00015  -0.00006  -0.00021   1.10174
   D46       -1.00548   0.00000  -0.00008  -0.00009  -0.00017  -1.00565
         Item               Value     Threshold  Converged?
 Maximum Force            0.000065     0.000450     YES
 RMS     Force            0.000013     0.000300     YES
 Maximum Displacement     0.004244     0.001800     NO 
 RMS     Displacement     0.001491     0.001200     NO 
 Predicted change in Energy=-5.813965D-08
 GradGradGradGradGradGradGradGradGradGradGradGradGradGradGradGradGradGrad

                          Input orientation:                          
 ---------------------------------------------------------------------
 Center     Atomic      Atomic             Coordinates (Angstroms)
 Number     Number       Type             X           Y           Z
 ---------------------------------------------------------------------
      1          8           0        1.556789   -0.674941   -1.101374
      2          6           0        1.400503    0.115208   -0.177042
      3          6           0        0.230373    0.639083    0.410936
      4          7           0       -0.991439    0.271686   -0.036514
      5          6           0       -2.096644    0.711214    0.445000
      6          6           0       -3.442924    0.277382   -0.089445
      7          6           0       -3.294468   -0.807842   -1.149331
      8          6           0       -4.360559   -0.183386    1.048673
      9          8           0        2.547005    0.636959    0.460519
     10          6           0        3.771335    0.174823   -0.034442
     11          6           0        4.125198   -1.204098    0.507887
     12          1           0        0.344133    1.353072    1.239657
     13          1           0       -2.116872    1.445262    1.280332
     14          1           0       -3.941381    1.150020   -0.563762
     15          1           0       -4.273471   -1.091883   -1.569860
     16          1           0       -2.819309   -1.696788   -0.708358
     17          1           0       -2.627573   -0.470995   -1.953078
     18          1           0       -5.376659   -0.417524    0.687763
     19          1           0       -4.446262    0.592721    1.825849
     20          1           0       -3.944110   -1.085608    1.524844
     21          1           0        3.747575    0.132991   -1.135067
     22          1           0        4.529335    0.914128    0.275171
     23          1           0        3.376795   -1.921876    0.147573
     24          1           0        4.112060   -1.195779    1.608140
     25          1           0        5.123720   -1.523379    0.168348
 ---------------------------------------------------------------------
                    Distance matrix (angstroms):
                    1          2          3          4          5
     1  O    0.000000
     2  C    1.226031   0.000000
     3  C    2.402732   1.410449   0.000000
     4  N    2.919503   2.401171   1.352042   0.000000
     5  C    4.202413   3.601694   2.328384   1.283168   0.000000
     6  C    5.189224   4.846932   3.724825   2.452062   1.512055
     7  C    4.853314   4.882635   4.117345   2.776271   2.506832
     8  C    6.315009   5.897573   4.707422   3.568710   2.507995
     9  O    2.267403   1.411798   2.317163   3.591804   4.644269
    10  C    2.600895   2.375864   3.598932   4.763759   5.911917
    11  C    3.076760   3.103813   4.310032   5.352970   6.510276
    12  H    3.326229   2.157605   1.099772   2.140505   2.645912
    13  H    4.864521   4.032977   2.629702   2.092358   1.112211
    14  H    5.818022   5.454916   4.314467   3.122758   2.147837
    15  H    5.863894   5.965819   5.215784   3.870685   3.471224
    16  H    4.510972   4.623033   4.001209   2.769002   2.766036
    17  H    4.275030   4.441096   3.871523   2.627114   2.725855
    18  H    7.165192   6.852854   5.712430   4.497748   3.477280
    19  H    6.797957   6.198730   4.886210   3.937926   2.727909
    20  H    6.109465   5.736137   4.652060   3.605323   2.794237
    21  H    2.335259   2.535129   3.875173   4.866653   6.081600
    22  H    3.640885   3.260730   4.309890   5.566761   6.631260
    23  H    2.535180   2.856715   4.065445   4.891531   6.081132
    24  H    3.760605   3.501158   4.457299   5.559141   6.598298
    25  H    3.880082   4.082475   5.355365   6.376472   7.563306
                    6          7          8          9         10
     6  C    0.000000
     7  C    1.524175   0.000000
     8  C    1.532864   2.521451   0.000000
     9  O    6.025861   6.229115   6.980926   0.000000
    10  C    7.215197   7.220400   8.211525   1.399121   0.000000
    11  C    7.734859   7.612807   8.564016   2.425371   1.523405
    12  H    4.155167   4.859653   4.952908   2.443874   3.841525
    13  H    2.235765   3.516599   2.782138   4.803873   6.165519
    14  H    1.111276   2.143504   2.133923   6.588743   7.792122
    15  H    2.180900   1.102710   2.773025   7.323266   8.287397
    16  H    2.160855   1.100208   2.784420   5.967409   6.884306
    17  H    2.167485   1.097372   3.477998   5.816294   6.711502
    18  H    2.196879   2.804065   1.103420   7.996751   9.195555
    19  H    2.185057   3.484236   1.101676   7.125438   8.435889
    20  H    2.171372   2.765936   1.101895   6.799603   7.971710
    21  H    7.267561   7.104628   8.403015   2.059429   1.101676
    22  H    8.005954   8.136724   8.990720   2.010176   1.103176
    23  H    7.169482   6.886856   7.981289   2.708158   2.141247
    24  H    7.882244   7.912699   8.551212   2.669337   2.166269
    25  H    8.757658   8.550682   9.618841   3.375186   2.180357
                   11         12         13         14         15
    11  C    0.000000
    12  H    4.622884   0.000000
    13  H    6.824896   2.463066   0.000000
    14  H    8.471127   4.653942   2.610878   0.000000
    15  H    8.652587   5.932407   4.383106   2.479646   0.000000
    16  H    7.067401   4.806638   3.784281   3.063375   1.795183
    17  H    7.224521   4.727770   3.793125   2.506787   1.800371
    18  H    9.536054   6.013905   3.800964   2.466481   2.601661
    19  H    8.856382   4.885656   2.539778   2.505140   3.794547
    20  H    8.134001   4.941408   3.131116   3.059463   3.112188
    21  H    2.151675   4.325660   6.476723   7.776939   8.125672
    22  H    2.168955   4.317270   6.742737   8.515426   9.215075
    23  H    1.097788   4.595103   6.542257   7.968578   7.884481
    24  H    1.100363   4.563957   6.773636   8.664747   8.968144
    25  H    1.101941   5.680328   7.904144   9.479404   9.566334
                   16         17         18         19         20
    16  H    0.000000
    17  H    1.757458   0.000000
    18  H    3.182092   3.812397   0.000000
    19  H    3.782993   4.326593   1.783669   0.000000
    20  H    2.574085   3.769212   1.788641   1.777512   0.000000
    21  H    6.830383   6.455731   9.320806   8.724526   8.229346
    22  H    7.860456   7.622663  10.003611   9.114233   8.795448
    23  H    6.258992   6.524587   8.898193   8.386896   7.496124
    24  H    7.325370   7.657039   9.564966   8.745914   8.057355
    25  H    7.993146   8.104968  10.571218   9.940309   9.179176
                   21         22         23         24         25
    21  H    0.000000
    22  H    1.791674   0.000000
    23  H    2.450536   3.063911   0.000000
    24  H    3.069799   2.530343   1.789158   0.000000
    25  H    2.517187   2.511204   1.791920   1.789909   0.000000
 Stoichiometry    C8H14NO2(1-)
 Framework group  C1[X(C8H14NO2)]
 Deg. of freedom    69
 Full point group                 C1      NOp   1
 Largest Abelian subgroup         C1      NOp   1
 Largest concise Abelian subgroup C1      NOp   1
                         Standard orientation:                         
 ---------------------------------------------------------------------
 Center     Atomic      Atomic             Coordinates (Angstroms)
 Number     Number       Type             X           Y           Z
 ---------------------------------------------------------------------
      1          8           0       -1.629629    1.240544   -0.295927
      2          6           0       -1.447097    0.028178   -0.295161
      3          6           0       -0.260135   -0.733668   -0.286217
      4          7           0        0.948802   -0.128552   -0.268227
      5          6           0        2.068049   -0.756085   -0.265523
      6          6           0        3.399164   -0.038996   -0.250442
      7          6           0        3.214951    1.467856   -0.114164
      8          6           0        4.303572   -0.587844    0.858831
      9          8           0       -2.575604   -0.820074   -0.305787
     10          6           0       -3.814650   -0.170231   -0.302729
     11          6           0       -4.210959    0.301814    1.090423
     12          1           0       -0.350062   -1.829717   -0.295614
     13          1           0        2.112685   -1.867266   -0.282829
     14          1           0        3.924145   -0.231925   -1.210706
     15          1           0        4.183868    1.993250   -0.147792
     16          1           0        2.712691    1.697247    0.837451
     17          1           0        2.557768    1.847635   -0.906693
     18          1           0        5.311232   -0.139375    0.826683
     19          1           0        4.414887   -1.680542    0.773331
     20          1           0        3.859629   -0.375403    1.844710
     21          1           0       -3.793914    0.695800   -0.983354
     22          1           0       -4.548497   -0.901136   -0.682525
     23          1           0       -3.486104    1.057195    1.420761
     24          1           0       -4.195874   -0.541437    1.797174
     25          1           0       -5.219569    0.745639    1.090592
 ---------------------------------------------------------------------
 Rotational constants (GHZ):           3.3329065           0.3700293           0.3553739
 Standard basis: def2SVP (5D, 7F)
 There are   235 symmetry adapted cartesian basis functions of A   symmetry.
 There are   224 symmetry adapted basis functions of A   symmetry.
   224 basis functions,   373 primitive gaussians,   235 cartesian basis functions
    43 alpha electrons       43 beta electrons
       nuclear repulsion energy       596.7444315537 Hartrees.
 NAtoms=   25 NActive=   25 NUniq=   25 SFac= 1.00D+00 NAtFMM=   60 NAOKFM=F Big=F
 Integral buffers will be    131072 words long.
 Raffenetti 2 integral format.
 Two-electron integral symmetry is turned on.
 Nuclear repulsion after empirical dispersion term =      596.7436328441 Hartrees.
 One-electron integrals computed using PRISM.
   1 Symmetry operations used in ECPInt.
 ECPInt:  NShTT=    5886 NPrTT=   20688 LenC2=    5347 LenP2D=   14006.
 LDataN:  DoStor=T MaxTD1= 4 Len=   56
 NBasis=   224 RedAO= T EigKep=  1.18D-03  NBF=   224
 NBsUse=   224 1.00D-06 EigRej= -1.00D+00 NBFU=   224
 Initial guess from the checkpoint file:  "A18_crest_conformers_censo-14.chk"
 B after Tr=    -0.000000   -0.000000    0.000000
         Rot=    1.000000   -0.000006   -0.000020   -0.000018 Ang=  -0.00 deg.
 Requested convergence on RMS density matrix=1.00D-08 within 128 cycles.
 Requested convergence on MAX density matrix=1.00D-06.
 Requested convergence on             energy=1.00D-06.
 No special actions if energy rises.
 SCF Done:  E(RM062X) =  -517.870610793     A.U. after    8 cycles
            NFock=  8  Conv=0.64D-08     -V/T= 2.0100
   1 Symmetry operations used in ECPInt.
 ECPInt:  NShTT=    5886 NPrTT=   20688 LenC2=    5347 LenP2D=   14006.
 LDataN:  DoStor=T MaxTD1= 5 Len=  102
 Calling FoFJK, ICntrl=      2127 FMM=F ISym2X=0 I1Cent= 0 IOpClX= 0 NMat=1 NMatS=1 NMatT=0.
 ***** Axes restored to original set *****
 -------------------------------------------------------------------
 Center     Atomic                   Forces (Hartrees/Bohr)
 Number     Number              X              Y              Z
 -------------------------------------------------------------------
      1        8          -0.000003391   -0.000006732   -0.000005320
      2        6           0.000018326    0.000019320    0.000017273
      3        6          -0.000003228   -0.000007959   -0.000002454
      4        7           0.000000869    0.000008221    0.000001314
      5        6           0.000000387   -0.000004431   -0.000006904
      6        6           0.000007045   -0.000001032    0.000004038
      7        6          -0.000004817    0.000004622   -0.000006935
      8        6          -0.000003323   -0.000000902    0.000003459
      9        8          -0.000021695   -0.000008719   -0.000011357
     10        6           0.000016527    0.000000394   -0.000007374
     11        6          -0.000005866    0.000002484    0.000005629
     12        1           0.000000721   -0.000000871    0.000002549
     13        1           0.000000984    0.000002982    0.000001269
     14        1          -0.000001808    0.000000714    0.000000163
     15        1          -0.000000218   -0.000001039    0.000003174
     16        1          -0.000001476   -0.000001320    0.000000181
     17        1           0.000002030    0.000000133    0.000003117
     18        1          -0.000001186    0.000001066    0.000000541
     19        1           0.000000172    0.000001668    0.000000486
     20        1           0.000000514    0.000000991   -0.000000164
     21        1          -0.000003162   -0.000001262    0.000003493
     22        1          -0.000000451   -0.000001808    0.000000830
     23        1           0.000000514   -0.000003409   -0.000002237
     24        1           0.000001458   -0.000001735   -0.000001656
     25        1           0.000001072   -0.000001375   -0.000003114
 -------------------------------------------------------------------
 Cartesian Forces:  Max     0.000021695 RMS     0.000005993

 GradGradGradGradGradGradGradGradGradGradGradGradGradGradGradGradGradGrad
 Berny optimization.
 Using GEDIIS/GDIIS optimizer.
 FormGI is forming the generalized inverse of G from B-inverse, IUseBI=4.
 Internal  Forces:  Max     0.000017131 RMS     0.000002862
 Search for a local minimum.
 Step number  14 out of a maximum of  121
 All quantities printed in internal units (Hartrees-Bohrs-Radians)
 Mixed Optimization -- En-DIIS/RFO-DIIS
 Swapping is turned off.
 Update second derivatives using D2CorX and points    8    9   10   11   12
                                                     13   14
 DE= -6.67D-08 DEPred=-5.81D-08 R= 1.15D+00
 Trust test= 1.15D+00 RLast= 6.55D-03 DXMaxT set to 1.29D+00
 ITU=  0  0  1  1  1  1  1  1  1  1  1  1  1  0
     Eigenvalues ---    0.00122   0.00351   0.00372   0.00406   0.00683
     Eigenvalues ---    0.01474   0.01809   0.02204   0.02359   0.02508
     Eigenvalues ---    0.03674   0.04006   0.05010   0.05276   0.05360
     Eigenvalues ---    0.05453   0.05602   0.05658   0.05696   0.05736
     Eigenvalues ---    0.05787   0.05903   0.07877   0.11769   0.14001
     Eigenvalues ---    0.14788   0.15494   0.15804   0.15974   0.16001
     Eigenvalues ---    0.16001   0.16012   0.16028   0.16057   0.16126
     Eigenvalues ---    0.16342   0.17031   0.18275   0.21042   0.22798
     Eigenvalues ---    0.23499   0.24318   0.25323   0.27228   0.29216
     Eigenvalues ---    0.29506   0.29771   0.31415   0.33120   0.33257
     Eigenvalues ---    0.33610   0.33704   0.33806   0.33966   0.34667
     Eigenvalues ---    0.34766   0.34866   0.34920   0.34952   0.34997
     Eigenvalues ---    0.35199   0.35399   0.37446   0.41380   0.47869
     Eigenvalues ---    0.57382   0.58701   0.74906   0.88900
 En-DIIS/RFO-DIIS/Sim-DIIS IScMMF=       -3 using points:    14   13   12   11   10    9    8    7    6
 RFO step:  Lambda=-3.81472809D-09.
 DIIS inversion failure, remove point   9.
 DIIS inversion failure, remove point   8.
 DIIS inversion failure, remove point   7.
 DIIS inversion failure, remove point   6.
 RFO-DIIS uses    5 points instead of    9
 DidBck=F Rises=F RFO-DIIS coefs:    1.23932   -0.24719    0.01096   -0.00525    0.00216
                  RFO-DIIS coefs:    0.00000    0.00000    0.00000    0.00000
 Iteration  1 RMS(Cart)=  0.00048004 RMS(Int)=  0.00000008
 Iteration  2 RMS(Cart)=  0.00000011 RMS(Int)=  0.00000000
 Variable       Old X    -DE/DX   Delta X   Delta X   Delta X     New X
                                 (Linear)    (Quad)   (Total)
    R1        2.31686   0.00001   0.00001   0.00001   0.00001   2.31688
    R2        2.66536   0.00000   0.00001  -0.00000   0.00000   2.66537
    R3        2.66791  -0.00002  -0.00003  -0.00004  -0.00007   2.66784
    R4        2.55499   0.00000  -0.00001   0.00000  -0.00001   2.55498
    R5        2.07827   0.00000   0.00000   0.00000   0.00001   2.07828
    R6        2.42484  -0.00000  -0.00001   0.00001  -0.00000   2.42483
    R7        2.85737   0.00000  -0.00000   0.00001   0.00001   2.85738
    R8        2.10177   0.00000   0.00001  -0.00000   0.00001   2.10179
    R9        2.88027   0.00000   0.00002  -0.00001   0.00001   2.88028
   R10        2.89669   0.00000  -0.00002   0.00002   0.00000   2.89670
   R11        2.10001   0.00000   0.00000   0.00000   0.00001   2.10001
   R12        2.08382  -0.00000   0.00000  -0.00001  -0.00000   2.08382
   R13        2.07909   0.00000   0.00002  -0.00001   0.00001   2.07910
   R14        2.07373  -0.00000   0.00001  -0.00001  -0.00000   2.07373
   R15        2.08516   0.00000   0.00000   0.00000   0.00000   2.08516
   R16        2.08187   0.00000   0.00000  -0.00000   0.00000   2.08187
   R17        2.08228  -0.00000   0.00000  -0.00001  -0.00000   2.08228
   R18        2.64396   0.00001   0.00003   0.00000   0.00003   2.64399
   R19        2.87882   0.00000   0.00000  -0.00000   0.00000   2.87882
   R20        2.08187  -0.00000  -0.00001  -0.00001  -0.00002   2.08185
   R21        2.08470  -0.00000   0.00000  -0.00001  -0.00000   2.08470
   R22        2.07452   0.00000   0.00000   0.00000   0.00000   2.07452
   R23        2.07938  -0.00000  -0.00000  -0.00000  -0.00000   2.07938
   R24        2.08237   0.00000   0.00001  -0.00000   0.00001   2.08237
    A1        2.29084  -0.00001  -0.00001  -0.00003  -0.00004   2.29080
    A2        2.06590   0.00000  -0.00001   0.00002   0.00001   2.06591
    A3        1.92644   0.00001   0.00001   0.00001   0.00003   1.92647
    A4        2.10693   0.00000   0.00002   0.00000   0.00002   2.10695
    A5        2.05946  -0.00000  -0.00001   0.00000  -0.00001   2.05945
    A6        2.11679  -0.00000  -0.00000  -0.00000  -0.00000   2.11679
    A7        2.16649   0.00000   0.00001   0.00000   0.00001   2.16650
    A8        2.13645   0.00001  -0.00002   0.00005   0.00004   2.13648
    A9        2.12183  -0.00000  -0.00000  -0.00002  -0.00002   2.12181
   A10        2.02487  -0.00000   0.00002  -0.00003  -0.00001   2.02486
   A11        1.94266   0.00000   0.00000   0.00003   0.00003   1.94269
   A12        1.93566   0.00000  -0.00002   0.00002   0.00000   1.93566
   A13        1.90173  -0.00000   0.00002  -0.00001   0.00001   1.90175
   A14        1.93970  -0.00000   0.00000   0.00001   0.00001   1.93971
   A15        1.88178  -0.00000  -0.00001  -0.00002  -0.00004   1.88174
   A16        1.85921  -0.00000   0.00001  -0.00003  -0.00002   1.85918
   A17        1.94134   0.00000   0.00003  -0.00002   0.00001   1.94135
   A18        1.91626   0.00000   0.00000  -0.00000  -0.00000   1.91626
   A19        1.92832  -0.00000  -0.00005   0.00003  -0.00003   1.92829
   A20        1.90515  -0.00000  -0.00003  -0.00001  -0.00005   1.90511
   A21        1.91696   0.00000   0.00003   0.00003   0.00006   1.91702
   A22        1.85367  -0.00000   0.00003  -0.00002   0.00001   1.85368
   A23        1.95217   0.00000  -0.00001   0.00001  -0.00000   1.95217
   A24        1.93755  -0.00000  -0.00001   0.00000  -0.00001   1.93755
   A25        1.91849  -0.00000   0.00000  -0.00001  -0.00000   1.91849
   A26        1.88451  -0.00000   0.00000  -0.00001  -0.00000   1.88450
   A27        1.89192   0.00000   0.00000   0.00000   0.00001   1.89193
   A28        1.87693   0.00000   0.00001   0.00000   0.00001   1.87693
   A29        2.01397   0.00001   0.00003   0.00001   0.00003   2.01400
   A30        1.95660   0.00000   0.00002  -0.00002  -0.00000   1.95660
   A31        1.92527  -0.00000  -0.00001  -0.00002  -0.00003   1.92524
   A32        1.85524   0.00000   0.00000  -0.00001  -0.00001   1.85523
   A33        1.90318   0.00000  -0.00001   0.00001   0.00000   1.90319
   A34        1.92526  -0.00000  -0.00002   0.00002  -0.00000   1.92526
   A35        1.89722   0.00000   0.00001   0.00002   0.00004   1.89725
   A36        1.89297   0.00000   0.00000   0.00001   0.00002   1.89298
   A37        1.92447   0.00000  -0.00001   0.00003   0.00002   1.92449
   A38        1.94234  -0.00000  -0.00001  -0.00003  -0.00004   1.94231
   A39        1.90180  -0.00000   0.00002   0.00001   0.00002   1.90182
   A40        1.90411  -0.00000  -0.00000  -0.00002  -0.00002   1.90409
   A41        1.89769   0.00000   0.00000  -0.00000  -0.00000   1.89769
    D1        0.00698  -0.00000  -0.00001  -0.00005  -0.00006   0.00692
    D2       -3.13327  -0.00000  -0.00002  -0.00002  -0.00004  -3.13332
    D3       -3.13556  -0.00000   0.00002  -0.00006  -0.00004  -3.13559
    D4        0.00738  -0.00000   0.00001  -0.00003  -0.00002   0.00736
    D5       -0.01077   0.00000  -0.00006   0.00006  -0.00001  -0.01077
    D6        3.13163  -0.00000  -0.00009   0.00007  -0.00003   3.13161
    D7       -3.13565   0.00000  -0.00003   0.00013   0.00010  -3.13555
    D8        0.00456   0.00000  -0.00003   0.00011   0.00008   0.00464
    D9        3.13742   0.00000  -0.00010   0.00017   0.00008   3.13750
   D10        0.00491   0.00000  -0.00004   0.00018   0.00015   0.00506
   D11        0.08838   0.00000   0.00061  -0.00004   0.00057   0.08894
   D12        2.25753   0.00000   0.00060   0.00000   0.00061   2.25814
   D13       -1.98453   0.00000   0.00061  -0.00003   0.00059  -1.98395
   D14       -3.06182   0.00000   0.00055  -0.00005   0.00050  -3.06132
   D15       -0.89267   0.00000   0.00054  -0.00001   0.00054  -0.89213
   D16        1.14845   0.00000   0.00055  -0.00003   0.00052   1.14897
   D17       -3.09808  -0.00000   0.00017   0.00008   0.00025  -3.09783
   D18        1.07449   0.00000   0.00020   0.00011   0.00031   1.07480
   D19       -0.96432   0.00000   0.00019   0.00012   0.00032  -0.96401
   D20        1.01823  -0.00000   0.00020   0.00002   0.00022   1.01845
   D21       -1.09238  -0.00000   0.00022   0.00006   0.00027  -1.09211
   D22       -3.13119   0.00000   0.00021   0.00007   0.00028  -3.13091
   D23       -1.01326  -0.00000   0.00019   0.00007   0.00026  -1.01299
   D24       -3.12387   0.00000   0.00022   0.00010   0.00032  -3.12355
   D25        1.12050   0.00000   0.00021   0.00011   0.00032   1.12083
   D26        3.05212  -0.00000   0.00009  -0.00004   0.00004   3.05216
   D27        0.94590  -0.00000   0.00009  -0.00004   0.00005   0.94596
   D28       -1.12852  -0.00000   0.00009  -0.00004   0.00005  -1.12847
   D29       -1.06023   0.00000   0.00007   0.00002   0.00009  -1.06014
   D30        3.11674   0.00000   0.00008   0.00002   0.00010   3.11684
   D31        1.04232   0.00000   0.00007   0.00002   0.00010   1.04241
   D32        0.98507  -0.00000   0.00007  -0.00003   0.00004   0.98511
   D33       -1.12115  -0.00000   0.00007  -0.00002   0.00005  -1.12110
   D34        3.08762  -0.00000   0.00007  -0.00002   0.00005   3.08766
   D35       -1.39489  -0.00000  -0.00003   0.00003   0.00001  -1.39489
   D36        0.72962  -0.00000  -0.00003   0.00002  -0.00001   0.72961
   D37        2.78341   0.00000  -0.00002   0.00003   0.00001   2.78342
   D38        1.11906   0.00000  -0.00003   0.00001  -0.00002   1.11904
   D39       -0.96206  -0.00000  -0.00005  -0.00002  -0.00007  -0.96213
   D40       -3.06945  -0.00000  -0.00004  -0.00002  -0.00006  -3.06951
   D41       -1.01806   0.00000  -0.00003   0.00005   0.00002  -1.01804
   D42       -3.09918   0.00000  -0.00005   0.00002  -0.00003  -3.09921
   D43        1.07662   0.00000  -0.00004   0.00002  -0.00002   1.07660
   D44       -3.10032   0.00000  -0.00003   0.00000  -0.00003  -3.10035
   D45        1.10174  -0.00000  -0.00005  -0.00003  -0.00008   1.10166
   D46       -1.00565  -0.00000  -0.00004  -0.00003  -0.00006  -1.00571
         Item               Value     Threshold  Converged?
 Maximum Force            0.000017     0.000450     YES
 RMS     Force            0.000003     0.000300     YES
 Maximum Displacement     0.001537     0.001800     YES
 RMS     Displacement     0.000480     0.001200     YES
 Predicted change in Energy=-4.599200D-09
 Optimization completed.
    -- Stationary point found.
                           ----------------------------
                           !   Optimized Parameters   !
                           ! (Angstroms and Degrees)  !
 --------------------------                            --------------------------
 ! Name  Definition              Value          Derivative Info.                !
 --------------------------------------------------------------------------------
 ! R1    R(1,2)                  1.226          -DE/DX =    0.0                 !
 ! R2    R(2,3)                  1.4104         -DE/DX =    0.0                 !
 ! R3    R(2,9)                  1.4118         -DE/DX =    0.0                 !
 ! R4    R(3,4)                  1.352          -DE/DX =    0.0                 !
 ! R5    R(3,12)                 1.0998         -DE/DX =    0.0                 !
 ! R6    R(4,5)                  1.2832         -DE/DX =    0.0                 !
 ! R7    R(5,6)                  1.5121         -DE/DX =    0.0                 !
 ! R8    R(5,13)                 1.1122         -DE/DX =    0.0                 !
 ! R9    R(6,7)                  1.5242         -DE/DX =    0.0                 !
 ! R10   R(6,8)                  1.5329         -DE/DX =    0.0                 !
 ! R11   R(6,14)                 1.1113         -DE/DX =    0.0                 !
 ! R12   R(7,15)                 1.1027         -DE/DX =    0.0                 !
 ! R13   R(7,16)                 1.1002         -DE/DX =    0.0                 !
 ! R14   R(7,17)                 1.0974         -DE/DX =    0.0                 !
 ! R15   R(8,18)                 1.1034         -DE/DX =    0.0                 !
 ! R16   R(8,19)                 1.1017         -DE/DX =    0.0                 !
 ! R17   R(8,20)                 1.1019         -DE/DX =    0.0                 !
 ! R18   R(9,10)                 1.3991         -DE/DX =    0.0                 !
 ! R19   R(10,11)                1.5234         -DE/DX =    0.0                 !
 ! R20   R(10,21)                1.1017         -DE/DX =    0.0                 !
 ! R21   R(10,22)                1.1032         -DE/DX =    0.0                 !
 ! R22   R(11,23)                1.0978         -DE/DX =    0.0                 !
 ! R23   R(11,24)                1.1004         -DE/DX =    0.0                 !
 ! R24   R(11,25)                1.1019         -DE/DX =    0.0                 !
 ! A1    A(1,2,3)              131.2555         -DE/DX =    0.0                 !
 ! A2    A(1,2,9)              118.3674         -DE/DX =    0.0                 !
 ! A3    A(3,2,9)              110.3771         -DE/DX =    0.0                 !
 ! A4    A(2,3,4)              120.7182         -DE/DX =    0.0                 !
 ! A5    A(2,3,12)             117.9986         -DE/DX =    0.0                 !
 ! A6    A(4,3,12)             121.2832         -DE/DX =    0.0                 !
 ! A7    A(3,4,5)              124.1306         -DE/DX =    0.0                 !
 ! A8    A(4,5,6)              122.4094         -DE/DX =    0.0                 !
 ! A9    A(4,5,13)             121.572          -DE/DX =    0.0                 !
 ! A10   A(6,5,13)             116.0167         -DE/DX =    0.0                 !
 ! A11   A(5,6,7)              111.3062         -DE/DX =    0.0                 !
 ! A12   A(5,6,8)              110.905          -DE/DX =    0.0                 !
 ! A13   A(5,6,14)             108.9612         -DE/DX =    0.0                 !
 ! A14   A(7,6,8)              111.1365         -DE/DX =    0.0                 !
 ! A15   A(7,6,14)             107.8179         -DE/DX =    0.0                 !
 ! A16   A(8,6,14)             106.5249         -DE/DX =    0.0                 !
 ! A17   A(6,7,15)             111.2304         -DE/DX =    0.0                 !
 ! A18   A(6,7,16)             109.7939         -DE/DX =    0.0                 !
 ! A19   A(6,7,17)             110.4846         -DE/DX =    0.0                 !
 ! A20   A(15,7,16)            109.1571         -DE/DX =    0.0                 !
 ! A21   A(15,7,17)            109.8337         -DE/DX =    0.0                 !
 ! A22   A(16,7,17)            106.2075         -DE/DX =    0.0                 !
 ! A23   A(6,8,18)             111.8513         -DE/DX =    0.0                 !
 ! A24   A(6,8,19)             111.0136         -DE/DX =    0.0                 !
 ! A25   A(6,8,20)             109.9211         -DE/DX =    0.0                 !
 ! A26   A(18,8,19)            107.9742         -DE/DX =    0.0                 !
 ! A27   A(18,8,20)            108.3991         -DE/DX =    0.0                 !
 ! A28   A(19,8,20)            107.54           -DE/DX =    0.0                 !
 ! A29   A(2,9,10)             115.3918         -DE/DX =    0.0                 !
 ! A30   A(9,10,11)            112.1048         -DE/DX =    0.0                 !
 ! A31   A(9,10,21)            110.3099         -DE/DX =    0.0                 !
 ! A32   A(9,10,22)            106.2974         -DE/DX =    0.0                 !
 ! A33   A(11,10,21)           109.0443         -DE/DX =    0.0                 !
 ! A34   A(11,10,22)           110.309          -DE/DX =    0.0                 !
 ! A35   A(21,10,22)           108.7025         -DE/DX =    0.0                 !
 ! A36   A(10,11,23)           108.4591         -DE/DX =    0.0                 !
 ! A37   A(10,11,24)           110.264          -DE/DX =    0.0                 !
 ! A38   A(10,11,25)           111.288          -DE/DX =    0.0                 !
 ! A39   A(23,11,24)           108.9649         -DE/DX =    0.0                 !
 ! A40   A(23,11,25)           109.0974         -DE/DX =    0.0                 !
 ! A41   A(24,11,25)           108.7298         -DE/DX =    0.0                 !
 ! D1    D(1,2,3,4)              0.3999         -DE/DX =    0.0                 !
 ! D2    D(1,2,3,12)          -179.5234         -DE/DX =    0.0                 !
 ! D3    D(9,2,3,4)           -179.6542         -DE/DX =    0.0                 !
 ! D4    D(9,2,3,12)             0.4226         -DE/DX =    0.0                 !
 ! D5    D(1,2,9,10)            -0.6169         -DE/DX =    0.0                 !
 ! D6    D(3,2,9,10)           179.4293         -DE/DX =    0.0                 !
 ! D7    D(2,3,4,5)           -179.6594         -DE/DX =    0.0                 !
 ! D8    D(12,3,4,5)             0.2613         -DE/DX =    0.0                 !
 ! D9    D(3,4,5,6)            179.7611         -DE/DX =    0.0                 !
 ! D10   D(3,4,5,13)             0.2814         -DE/DX =    0.0                 !
 ! D11   D(4,5,6,7)              5.0637         -DE/DX =    0.0                 !
 ! D12   D(4,5,6,8)            129.3471         -DE/DX =    0.0                 !
 ! D13   D(4,5,6,14)          -113.7054         -DE/DX =    0.0                 !
 ! D14   D(13,5,6,7)          -175.4296         -DE/DX =    0.0                 !
 ! D15   D(13,5,6,8)           -51.1462         -DE/DX =    0.0                 !
 ! D16   D(13,5,6,14)           65.8013         -DE/DX =    0.0                 !
 ! D17   D(5,6,7,15)          -177.5071         -DE/DX =    0.0                 !
 ! D18   D(5,6,7,16)            61.5638         -DE/DX =    0.0                 !
 ! D19   D(5,6,7,17)           -55.2517         -DE/DX =    0.0                 !
 ! D20   D(8,6,7,15)            58.3403         -DE/DX =    0.0                 !
 ! D21   D(8,6,7,16)           -62.5887         -DE/DX =    0.0                 !
 ! D22   D(8,6,7,17)          -179.4042         -DE/DX =    0.0                 !
 ! D23   D(14,6,7,15)          -58.0554         -DE/DX =    0.0                 !
 ! D24   D(14,6,7,16)         -178.9844         -DE/DX =    0.0                 !
 ! D25   D(14,6,7,17)           64.2001         -DE/DX =    0.0                 !
 ! D26   D(5,6,8,18)           174.8736         -DE/DX =    0.0                 !
 ! D27   D(5,6,8,19)            54.1961         -DE/DX =    0.0                 !
 ! D28   D(5,6,8,20)           -64.6595         -DE/DX =    0.0                 !
 ! D29   D(7,6,8,18)           -60.7466         -DE/DX =    0.0                 !
 ! D30   D(7,6,8,19)           178.576          -DE/DX =    0.0                 !
 ! D31   D(7,6,8,20)            59.7203         -DE/DX =    0.0                 !
 ! D32   D(14,6,8,18)           56.4405         -DE/DX =    0.0                 !
 ! D33   D(14,6,8,19)          -64.237          -DE/DX =    0.0                 !
 ! D34   D(14,6,8,20)          176.9074         -DE/DX =    0.0                 !
 ! D35   D(2,9,10,11)          -79.9215         -DE/DX =    0.0                 !
 ! D36   D(2,9,10,21)           41.8043         -DE/DX =    0.0                 !
 ! D37   D(2,9,10,22)          159.4779         -DE/DX =    0.0                 !
 ! D38   D(9,10,11,23)          64.1172         -DE/DX =    0.0                 !
 ! D39   D(9,10,11,24)         -55.1222         -DE/DX =    0.0                 !
 ! D40   D(9,10,11,25)        -175.8668         -DE/DX =    0.0                 !
 ! D41   D(21,10,11,23)        -58.3305         -DE/DX =    0.0                 !
 ! D42   D(21,10,11,24)       -177.5698         -DE/DX =    0.0                 !
 ! D43   D(21,10,11,25)         61.6856         -DE/DX =    0.0                 !
 ! D44   D(22,10,11,23)       -177.6355         -DE/DX =    0.0                 !
 ! D45   D(22,10,11,24)         63.1251         -DE/DX =    0.0                 !
 ! D46   D(22,10,11,25)        -57.6195         -DE/DX =    0.0                 !
 --------------------------------------------------------------------------------
 GradGradGradGradGradGradGradGradGradGradGradGradGradGradGradGradGradGrad

                          Input orientation:                          
 ---------------------------------------------------------------------
 Center     Atomic      Atomic             Coordinates (Angstroms)
 Number     Number       Type             X           Y           Z
 ---------------------------------------------------------------------
      1          8           0        1.556789   -0.674941   -1.101374
      2          6           0        1.400503    0.115208   -0.177042
      3          6           0        0.230373    0.639083    0.410936
      4          7           0       -0.991439    0.271686   -0.036514
      5          6           0       -2.096644    0.711214    0.445000
      6          6           0       -3.442924    0.277382   -0.089445
      7          6           0       -3.294468   -0.807842   -1.149331
      8          6           0       -4.360559   -0.183386    1.048673
      9          8           0        2.547005    0.636959    0.460519
     10          6           0        3.771335    0.174823   -0.034442
     11          6           0        4.125198   -1.204098    0.507887
     12          1           0        0.344133    1.353072    1.239657
     13          1           0       -2.116872    1.445262    1.280332
     14          1           0       -3.941381    1.150020   -0.563762
     15          1           0       -4.273471   -1.091883   -1.569860
     16          1           0       -2.819309   -1.696788   -0.708358
     17          1           0       -2.627573   -0.470995   -1.953078
     18          1           0       -5.376659   -0.417524    0.687763
     19          1           0       -4.446262    0.592721    1.825849
     20          1           0       -3.944110   -1.085608    1.524844
     21          1           0        3.747575    0.132991   -1.135067
     22          1           0        4.529335    0.914128    0.275171
     23          1           0        3.376795   -1.921876    0.147573
     24          1           0        4.112060   -1.195779    1.608140
     25          1           0        5.123720   -1.523379    0.168348
 ---------------------------------------------------------------------
                    Distance matrix (angstroms):
                    1          2          3          4          5
     1  O    0.000000
     2  C    1.226031   0.000000
     3  C    2.402732   1.410449   0.000000
     4  N    2.919503   2.401171   1.352042   0.000000
     5  C    4.202413   3.601694   2.328384   1.283168   0.000000
     6  C    5.189224   4.846932   3.724825   2.452062   1.512055
     7  C    4.853314   4.882635   4.117345   2.776271   2.506832
     8  C    6.315009   5.897573   4.707422   3.568710   2.507995
     9  O    2.267403   1.411798   2.317163   3.591804   4.644269
    10  C    2.600895   2.375864   3.598932   4.763759   5.911917
    11  C    3.076760   3.103813   4.310032   5.352970   6.510276
    12  H    3.326229   2.157605   1.099772   2.140505   2.645912
    13  H    4.864521   4.032977   2.629702   2.092358   1.112211
    14  H    5.818022   5.454916   4.314467   3.122758   2.147837
    15  H    5.863894   5.965819   5.215784   3.870685   3.471224
    16  H    4.510972   4.623033   4.001209   2.769002   2.766036
    17  H    4.275030   4.441096   3.871523   2.627114   2.725855
    18  H    7.165192   6.852854   5.712430   4.497748   3.477280
    19  H    6.797957   6.198730   4.886210   3.937926   2.727909
    20  H    6.109465   5.736137   4.652060   3.605323   2.794237
    21  H    2.335259   2.535129   3.875173   4.866653   6.081600
    22  H    3.640885   3.260730   4.309890   5.566761   6.631260
    23  H    2.535180   2.856715   4.065445   4.891531   6.081132
    24  H    3.760605   3.501158   4.457299   5.559141   6.598298
    25  H    3.880082   4.082475   5.355365   6.376472   7.563306
                    6          7          8          9         10
     6  C    0.000000
     7  C    1.524175   0.000000
     8  C    1.532864   2.521451   0.000000
     9  O    6.025861   6.229115   6.980926   0.000000
    10  C    7.215197   7.220400   8.211525   1.399121   0.000000
    11  C    7.734859   7.612807   8.564016   2.425371   1.523405
    12  H    4.155167   4.859653   4.952908   2.443874   3.841525
    13  H    2.235765   3.516599   2.782138   4.803873   6.165519
    14  H    1.111276   2.143504   2.133923   6.588743   7.792122
    15  H    2.180900   1.102710   2.773025   7.323266   8.287397
    16  H    2.160855   1.100208   2.784420   5.967409   6.884306
    17  H    2.167485   1.097372   3.477998   5.816294   6.711502
    18  H    2.196879   2.804065   1.103420   7.996751   9.195555
    19  H    2.185057   3.484236   1.101676   7.125438   8.435889
    20  H    2.171372   2.765936   1.101895   6.799603   7.971710
    21  H    7.267561   7.104628   8.403015   2.059429   1.101676
    22  H    8.005954   8.136724   8.990720   2.010176   1.103176
    23  H    7.169482   6.886856   7.981289   2.708158   2.141247
    24  H    7.882244   7.912699   8.551212   2.669337   2.166269
    25  H    8.757658   8.550682   9.618841   3.375186   2.180357
                   11         12         13         14         15
    11  C    0.000000
    12  H    4.622884   0.000000
    13  H    6.824896   2.463066   0.000000
    14  H    8.471127   4.653942   2.610878   0.000000
    15  H    8.652587   5.932407   4.383106   2.479646   0.000000
    16  H    7.067401   4.806638   3.784281   3.063375   1.795183
    17  H    7.224521   4.727770   3.793125   2.506787   1.800371
    18  H    9.536054   6.013905   3.800964   2.466481   2.601661
    19  H    8.856382   4.885656   2.539778   2.505140   3.794547
    20  H    8.134001   4.941408   3.131116   3.059463   3.112188
    21  H    2.151675   4.325660   6.476723   7.776939   8.125672
    22  H    2.168955   4.317270   6.742737   8.515426   9.215075
    23  H    1.097788   4.595103   6.542257   7.968578   7.884481
    24  H    1.100363   4.563957   6.773636   8.664747   8.968144
    25  H    1.101941   5.680328   7.904144   9.479404   9.566334
                   16         17         18         19         20
    16  H    0.000000
    17  H    1.757458   0.000000
    18  H    3.182092   3.812397   0.000000
    19  H    3.782993   4.326593   1.783669   0.000000
    20  H    2.574085   3.769212   1.788641   1.777512   0.000000
    21  H    6.830383   6.455731   9.320806   8.724526   8.229346
    22  H    7.860456   7.622663  10.003611   9.114233   8.795448
    23  H    6.258992   6.524587   8.898193   8.386896   7.496124
    24  H    7.325370   7.657039   9.564966   8.745914   8.057355
    25  H    7.993146   8.104968  10.571218   9.940309   9.179176
                   21         22         23         24         25
    21  H    0.000000
    22  H    1.791674   0.000000
    23  H    2.450536   3.063911   0.000000
    24  H    3.069799   2.530343   1.789158   0.000000
    25  H    2.517187   2.511204   1.791920   1.789909   0.000000
 Stoichiometry    C8H14NO2(1-)
 Framework group  C1[X(C8H14NO2)]
 Deg. of freedom    69
 Full point group                 C1      NOp   1
 Largest Abelian subgroup         C1      NOp   1
 Largest concise Abelian subgroup C1      NOp   1
                         Standard orientation:                         
 ---------------------------------------------------------------------
 Center     Atomic      Atomic             Coordinates (Angstroms)
 Number     Number       Type             X           Y           Z
 ---------------------------------------------------------------------
      1          8           0       -1.629629    1.240544   -0.295927
      2          6           0       -1.447097    0.028178   -0.295161
      3          6           0       -0.260135   -0.733668   -0.286217
      4          7           0        0.948802   -0.128552   -0.268227
      5          6           0        2.068049   -0.756085   -0.265523
      6          6           0        3.399164   -0.038996   -0.250442
      7          6           0        3.214951    1.467856   -0.114164
      8          6           0        4.303572   -0.587844    0.858831
      9          8           0       -2.575604   -0.820074   -0.305787
     10          6           0       -3.814650   -0.170231   -0.302729
     11          6           0       -4.210959    0.301814    1.090423
     12          1           0       -0.350062   -1.829717   -0.295614
     13          1           0        2.112685   -1.867266   -0.282829
     14          1           0        3.924145   -0.231925   -1.210706
     15          1           0        4.183868    1.993250   -0.147792
     16          1           0        2.712691    1.697247    0.837451
     17          1           0        2.557768    1.847635   -0.906693
     18          1           0        5.311232   -0.139375    0.826683
     19          1           0        4.414887   -1.680542    0.773331
     20          1           0        3.859629   -0.375403    1.844710
     21          1           0       -3.793914    0.695800   -0.983354
     22          1           0       -4.548497   -0.901136   -0.682525
     23          1           0       -3.486104    1.057195    1.420761
     24          1           0       -4.195874   -0.541437    1.797174
     25          1           0       -5.219569    0.745639    1.090592
 ---------------------------------------------------------------------
 Rotational constants (GHZ):           3.3329065           0.3700293           0.3553739

 **********************************************************************

            Population analysis using the SCF Density.

 **********************************************************************

 Orbital symmetries:
       Occupied  (A) (A) (A) (A) (A) (A) (A) (A) (A) (A) (A) (A)
                 (A) (A) (A) (A) (A) (A) (A) (A) (A) (A) (A) (A)
                 (A) (A) (A) (A) (A) (A) (A) (A) (A) (A) (A) (A)
                 (A) (A) (A) (A) (A) (A) (A)
       Virtual   (A) (A) (A) (A) (A) (A) (A) (A) (A) (A) (A) (A)
                 (A) (A) (A) (A) (A) (A) (A) (A) (A) (A) (A) (A)
                 (A) (A) (A) (A) (A) (A) (A) (A) (A) (A) (A) (A)
                 (A) (A) (A) (A) (A) (A) (A) (A) (A) (A) (A) (A)
                 (A) (A) (A) (A) (A) (A) (A) (A) (A) (A) (A) (A)
                 (A) (A) (A) (A) (A) (A) (A) (A) (A) (A) (A) (A)
                 (A) (A) (A) (A) (A) (A) (A) (A) (A) (A) (A) (A)
                 (A) (A) (A) (A) (A) (A) (A) (A) (A) (A) (A) (A)
                 (A) (A) (A) (A) (A) (A) (A) (A) (A) (A) (A) (A)
                 (A) (A) (A) (A) (A) (A) (A) (A) (A) (A) (A) (A)
                 (A) (A) (A) (A) (A) (A) (A) (A) (A) (A) (A) (A)
                 (A) (A) (A) (A) (A) (A) (A) (A) (A) (A) (A) (A)
                 (A) (A) (A) (A) (A) (A) (A) (A) (A) (A) (A) (A)
                 (A) (A) (A) (A) (A) (A) (A) (A) (A) (A) (A) (A)
                 (A) (A) (A) (A) (A) (A) (A) (A) (A) (A) (A) (A)
                 (A)
 The electronic state is 1-A.
 Alpha  occ. eigenvalues --  -19.47620 -19.40249 -14.57620 -10.46806 -10.45719
 Alpha  occ. eigenvalues --  -10.42341 -10.41543 -10.41493 -10.40566 -10.39137
 Alpha  occ. eigenvalues --  -10.35229  -1.01073  -0.90912  -0.83433  -0.74529
 Alpha  occ. eigenvalues --   -0.70636  -0.63617  -0.62388  -0.57451  -0.52977
 Alpha  occ. eigenvalues --   -0.47059  -0.43633  -0.41260  -0.39644  -0.38262
 Alpha  occ. eigenvalues --   -0.37538  -0.36138  -0.34871  -0.33409  -0.32392
 Alpha  occ. eigenvalues --   -0.31631  -0.31141  -0.29227  -0.28166  -0.26680
 Alpha  occ. eigenvalues --   -0.26182  -0.25395  -0.23892  -0.22322  -0.18276
 Alpha  occ. eigenvalues --   -0.14995  -0.13105  -0.03416
 Alpha virt. eigenvalues --    0.20351   0.22858   0.23510   0.26163   0.26486
 Alpha virt. eigenvalues --    0.27453   0.28150   0.28408   0.29143   0.29939
 Alpha virt. eigenvalues --    0.30061   0.32094   0.33011   0.33195   0.33947
 Alpha virt. eigenvalues --    0.35225   0.36574   0.38349   0.39929   0.41071
 Alpha virt. eigenvalues --    0.44804   0.46390   0.48410   0.52291   0.56252
 Alpha virt. eigenvalues --    0.57853   0.58863   0.60106   0.60897   0.61372
 Alpha virt. eigenvalues --    0.62807   0.64217   0.66030   0.68350   0.69612
 Alpha virt. eigenvalues --    0.71610   0.73353   0.75108   0.77567   0.78127
 Alpha virt. eigenvalues --    0.79087   0.80618   0.80754   0.81922   0.82832
 Alpha virt. eigenvalues --    0.83177   0.83736   0.84172   0.85288   0.85803
 Alpha virt. eigenvalues --    0.85997   0.86319   0.86870   0.86979   0.87564
 Alpha virt. eigenvalues --    0.88121   0.88834   0.89311   0.89703   0.91038
 Alpha virt. eigenvalues --    0.92166   0.93245   0.95698   1.00320   1.02521
 Alpha virt. eigenvalues --    1.03222   1.05616   1.09619   1.10507   1.11796
 Alpha virt. eigenvalues --    1.17113   1.19558   1.21473   1.26022   1.29510
 Alpha virt. eigenvalues --    1.31286   1.32994   1.33923   1.36048   1.39860
 Alpha virt. eigenvalues --    1.41526   1.44154   1.45087   1.48891   1.50042
 Alpha virt. eigenvalues --    1.53767   1.56491   1.59603   1.60071   1.64368
 Alpha virt. eigenvalues --    1.66522   1.70309   1.71024   1.71994   1.73069
 Alpha virt. eigenvalues --    1.73917   1.75131   1.77610   1.80211   1.88406
 Alpha virt. eigenvalues --    1.90782   1.91381   1.91485   1.92793   1.94600
 Alpha virt. eigenvalues --    1.94878   1.94896   1.96921   1.98173   1.98363
 Alpha virt. eigenvalues --    1.98909   1.99731   2.01347   2.01722   2.02971
 Alpha virt. eigenvalues --    2.04657   2.06088   2.06394   2.06713   2.09596
 Alpha virt. eigenvalues --    2.10683   2.11026   2.12137   2.13660   2.15738
 Alpha virt. eigenvalues --    2.16305   2.19897   2.20201   2.22721   2.26432
 Alpha virt. eigenvalues --    2.29102   2.30613   2.32650   2.36301   2.38245
 Alpha virt. eigenvalues --    2.41704   2.42585   2.46120   2.47766   2.52322
 Alpha virt. eigenvalues --    2.52873   2.53891   2.55566   2.58864   2.65117
 Alpha virt. eigenvalues --    2.66027   2.68943   2.69579   2.72493   2.75107
 Alpha virt. eigenvalues --    2.76773   2.82035   2.82998   2.85773   2.90387
 Alpha virt. eigenvalues --    2.91790   2.93188   2.95490   2.96166   2.99255
 Alpha virt. eigenvalues --    3.00560   3.02545   3.03281   3.04861   3.06184
 Alpha virt. eigenvalues --    3.07782   3.08504   3.13447   3.15665   3.16906
 Alpha virt. eigenvalues --    3.20401   3.21615   3.24926   3.28674   3.39193
 Alpha virt. eigenvalues --    3.44823   3.55024   3.57150   3.68792   3.84029
 Alpha virt. eigenvalues --    3.94651
          Condensed to atoms (all electrons):
               1          2          3          4          5          6
     1  O    7.868499   0.674721  -0.102837   0.001222   0.000274   0.000023
     2  C    0.674721   4.595030   0.330512  -0.060749   0.012145   0.000203
     3  C   -0.102837   0.330512   5.383891   0.428092  -0.115560   0.018874
     4  N    0.001222  -0.060749   0.428092   6.245119   0.652824  -0.133886
     5  C    0.000274   0.012145  -0.115560   0.652824   5.116554   0.185067
     6  C    0.000023   0.000203   0.018874  -0.133886   0.185067   5.253588
     7  C   -0.000084  -0.000258  -0.000353   0.018648  -0.038256   0.354288
     8  C   -0.000000  -0.000002  -0.000081   0.002525  -0.081025   0.385814
     9  O   -0.098453   0.284038  -0.113705   0.001971  -0.000097  -0.000000
    10  C    0.007509  -0.041311   0.010772  -0.000180   0.000012  -0.000000
    11  C   -0.019702  -0.006103  -0.001201   0.000013  -0.000002   0.000000
    12  H    0.003672  -0.060614   0.373052  -0.045655  -0.014503  -0.002502
    13  H   -0.000019  -0.001449  -0.018153  -0.040588   0.414050  -0.147246
    14  H   -0.000001   0.000032   0.000051   0.000168  -0.023864   0.337409
    15  H    0.000000  -0.000007   0.000005   0.001229   0.010533  -0.034735
    16  H    0.000075  -0.000066  -0.000640   0.008050  -0.006959  -0.021082
    17  H    0.000204  -0.000102  -0.000602   0.015784  -0.010855  -0.011672
    18  H    0.000000   0.000000   0.000002  -0.000166   0.010097  -0.016484
    19  H   -0.000000  -0.000001  -0.000039   0.000088  -0.005021  -0.024790
    20  H    0.000000  -0.000005  -0.000323   0.000864   0.005784  -0.029122
    21  H    0.027058  -0.009802   0.002333  -0.000005   0.000001   0.000000
    22  H    0.000833   0.006871   0.000049   0.000003  -0.000000  -0.000000
    23  H    0.022737   0.002274  -0.000466  -0.000004   0.000005  -0.000000
    24  H    0.000554  -0.000235  -0.000158   0.000001   0.000000  -0.000000
    25  H    0.000097   0.000135  -0.000008  -0.000000   0.000000  -0.000000
               7          8          9         10         11         12
     1  O   -0.000084  -0.000000  -0.098453   0.007509  -0.019702   0.003672
     2  C   -0.000258  -0.000002   0.284038  -0.041311  -0.006103  -0.060614
     3  C   -0.000353  -0.000081  -0.113705   0.010772  -0.001201   0.373052
     4  N    0.018648   0.002525   0.001971  -0.000180   0.000013  -0.045655
     5  C   -0.038256  -0.081025  -0.000097   0.000012  -0.000002  -0.014503
     6  C    0.354288   0.385814  -0.000000  -0.000000   0.000000  -0.002502
     7  C    4.584897  -0.046872  -0.000000   0.000000  -0.000000   0.000213
     8  C   -0.046872   4.751013  -0.000000  -0.000000   0.000000   0.000023
     9  O   -0.000000  -0.000000   8.165205   0.290115  -0.052206   0.010420
    10  C    0.000000  -0.000000   0.290115   4.423329   0.421100  -0.000208
    11  C   -0.000000   0.000000  -0.052206   0.421100   4.764727   0.000094
    12  H    0.000213   0.000023   0.010420  -0.000208   0.000094   0.783228
    13  H    0.013065   0.000572   0.000000   0.000003  -0.000000   0.018603
    14  H   -0.026787  -0.061338  -0.000000   0.000000  -0.000000   0.000036
    15  H    0.372355  -0.006956   0.000000   0.000000  -0.000000   0.000007
    16  H    0.389053  -0.012736   0.000001   0.000000  -0.000000   0.000061
    17  H    0.383528   0.009931   0.000002  -0.000000   0.000000   0.000128
    18  H   -0.008042   0.353115   0.000000   0.000000  -0.000000   0.000000
    19  H    0.009409   0.379042   0.000000   0.000000  -0.000000   0.000028
    20  H   -0.008124   0.372650   0.000000   0.000000  -0.000000   0.000006
    21  H    0.000000   0.000000  -0.034201   0.379971  -0.042370  -0.000044
    22  H    0.000000  -0.000000  -0.031853   0.380501  -0.045585  -0.000200
    23  H   -0.000000  -0.000000  -0.006596  -0.009198   0.375951  -0.000130
    24  H    0.000000  -0.000000   0.004003  -0.019339   0.366772   0.000062
    25  H   -0.000000  -0.000000   0.005091  -0.013283   0.342914  -0.000002
              13         14         15         16         17         18
     1  O   -0.000019  -0.000001   0.000000   0.000075   0.000204   0.000000
     2  C   -0.001449   0.000032  -0.000007  -0.000066  -0.000102   0.000000
     3  C   -0.018153   0.000051   0.000005  -0.000640  -0.000602   0.000002
     4  N   -0.040588   0.000168   0.001229   0.008050   0.015784  -0.000166
     5  C    0.414050  -0.023864   0.010533  -0.006959  -0.010855   0.010097
     6  C   -0.147246   0.337409  -0.034735  -0.021082  -0.011672  -0.016484
     7  C    0.013065  -0.026787   0.372355   0.389053   0.383528  -0.008042
     8  C    0.000572  -0.061338  -0.006956  -0.012736   0.009931   0.353115
     9  O    0.000000  -0.000000   0.000000   0.000001   0.000002   0.000000
    10  C    0.000003   0.000000   0.000000   0.000000  -0.000000   0.000000
    11  C   -0.000000  -0.000000  -0.000000  -0.000000   0.000000  -0.000000
    12  H    0.018603   0.000036   0.000007   0.000061   0.000128   0.000000
    13  H    0.816866   0.001377  -0.000272   0.000668   0.001041  -0.000291
    14  H    0.001377   0.781275  -0.006324   0.010258  -0.008460  -0.004408
    15  H   -0.000272  -0.006324   0.731898  -0.029455  -0.026674   0.005528
    16  H    0.000668   0.010258  -0.029455   0.648306  -0.018754  -0.000505
    17  H    0.001041  -0.008460  -0.026674  -0.018754   0.624172  -0.000335
    18  H   -0.000291  -0.004408   0.005528  -0.000505  -0.000335   0.716726
    19  H    0.007279  -0.005499  -0.000012   0.000109  -0.000431  -0.028063
    20  H   -0.000410   0.011650  -0.000924   0.008818  -0.000192  -0.023973
    21  H   -0.000000  -0.000000  -0.000000  -0.000000  -0.000000  -0.000000
    22  H    0.000000   0.000000   0.000000   0.000000  -0.000000   0.000000
    23  H   -0.000000   0.000000   0.000000   0.000001  -0.000000   0.000000
    24  H   -0.000000   0.000000   0.000000   0.000000  -0.000000   0.000000
    25  H    0.000000   0.000000   0.000000   0.000000  -0.000000   0.000000
              19         20         21         22         23         24
     1  O   -0.000000   0.000000   0.027058   0.000833   0.022737   0.000554
     2  C   -0.000001  -0.000005  -0.009802   0.006871   0.002274  -0.000235
     3  C   -0.000039  -0.000323   0.002333   0.000049  -0.000466  -0.000158
     4  N    0.000088   0.000864  -0.000005   0.000003  -0.000004   0.000001
     5  C   -0.005021   0.005784   0.000001  -0.000000   0.000005   0.000000
     6  C   -0.024790  -0.029122   0.000000  -0.000000  -0.000000  -0.000000
     7  C    0.009409  -0.008124   0.000000   0.000000  -0.000000   0.000000
     8  C    0.379042   0.372650   0.000000  -0.000000  -0.000000  -0.000000
     9  O    0.000000   0.000000  -0.034201  -0.031853  -0.006596   0.004003
    10  C    0.000000   0.000000   0.379971   0.380501  -0.009198  -0.019339
    11  C   -0.000000  -0.000000  -0.042370  -0.045585   0.375951   0.366772
    12  H    0.000028   0.000006  -0.000044  -0.000200  -0.000130   0.000062
    13  H    0.007279  -0.000410  -0.000000   0.000000  -0.000000  -0.000000
    14  H   -0.005499   0.011650  -0.000000   0.000000   0.000000   0.000000
    15  H   -0.000012  -0.000924  -0.000000   0.000000   0.000000   0.000000
    16  H    0.000109   0.008818  -0.000000   0.000000   0.000001   0.000000
    17  H   -0.000431  -0.000192  -0.000000  -0.000000  -0.000000  -0.000000
    18  H   -0.028063  -0.023973  -0.000000   0.000000   0.000000   0.000000
    19  H    0.679232  -0.024428   0.000000  -0.000000  -0.000000   0.000000
    20  H   -0.024428   0.666710  -0.000000   0.000000   0.000000   0.000000
    21  H    0.000000  -0.000000   0.702218  -0.037114  -0.012742   0.010167
    22  H   -0.000000   0.000000  -0.037114   0.741268   0.008482  -0.010490
    23  H   -0.000000   0.000000  -0.012742   0.008482   0.601468  -0.023863
    24  H    0.000000   0.000000   0.010167  -0.010490  -0.023863   0.676133
    25  H    0.000000   0.000000   0.000433  -0.001684  -0.018817  -0.023097
              25
     1  O    0.000097
     2  C    0.000135
     3  C   -0.000008
     4  N   -0.000000
     5  C    0.000000
     6  C   -0.000000
     7  C   -0.000000
     8  C   -0.000000
     9  O    0.005091
    10  C   -0.013283
    11  C    0.342914
    12  H   -0.000002
    13  H    0.000000
    14  H    0.000000
    15  H    0.000000
    16  H    0.000000
    17  H   -0.000000
    18  H    0.000000
    19  H    0.000000
    20  H    0.000000
    21  H    0.000433
    22  H   -0.001684
    23  H   -0.018817
    24  H   -0.023097
    25  H    0.712237
 Mulliken charges:
               1
     1  O   -0.386383
     2  C    0.274743
     3  C   -0.193508
     4  N   -0.095367
     5  C   -0.111204
     6  C   -0.113749
     7  C    0.003321
     8  C   -0.045676
     9  O   -0.423733
    10  C    0.170209
    11  C   -0.104400
    12  H   -0.065777
    13  H   -0.065096
    14  H   -0.005576
    15  H   -0.016194
    16  H    0.024799
    17  H    0.043290
    18  H   -0.003202
    19  H    0.013098
    20  H    0.021018
    21  H    0.014097
    22  H   -0.011081
    23  H    0.060897
    24  H    0.019489
    25  H   -0.004016
 Sum of Mulliken charges =  -1.00000
 Mulliken charges with hydrogens summed into heavy atoms:
               1
     1  O   -0.386383
     2  C    0.274743
     3  C   -0.259285
     4  N   -0.095367
     5  C   -0.176299
     6  C   -0.119325
     7  C    0.055215
     8  C   -0.014761
     9  O   -0.423733
    10  C    0.173226
    11  C   -0.028030
 Electronic spatial extent (au):  <R**2>=           3242.3859
 Charge=             -1.0000 electrons
 Dipole moment (field-independent basis, Debye):
    X=              0.7127    Y=             -0.9495    Z=              0.8583  Tot=              1.4650
 Quadrupole moment (field-independent basis, Debye-Ang):
   XX=            -93.3651   YY=            -79.0537   ZZ=            -73.4031
   XY=              1.1726   XZ=             -0.5593   YZ=              0.3007
 Traceless Quadrupole moment (field-independent basis, Debye-Ang):
   XX=            -11.4245   YY=              2.8870   ZZ=              8.5375
   XY=              1.1726   XZ=             -0.5593   YZ=              0.3007
 Octapole moment (field-independent basis, Debye-Ang**2):
  XXX=            -46.9620  YYY=             -2.2452  ZZZ=             -2.5376  XYY=             -1.6200
  XXY=              0.8923  XXZ=            -10.8059  XZZ=             -7.5226  YZZ=              3.3170
  YYZ=              1.1224  XYZ=              1.6129
 Hexadecapole moment (field-independent basis, Debye-Ang**3):
 XXXX=          -4255.8376 YYYY=           -403.0543 ZZZZ=           -237.7067 XXXY=              7.8275
 XXXZ=              6.5973 YYYX=             -0.3181 YYYZ=             -0.0266 ZZZX=              8.7928
 ZZZY=             -2.7405 XXYY=           -759.8440 XXZZ=           -727.0721 YYZZ=           -105.4595
 XXYZ=              1.0433 YYXZ=             -2.9689 ZZXY=              5.5912
 N-N= 5.967436328441D+02 E-N=-2.412884811128D+03  KE= 5.127246449971D+02
 Unable to Open any file for archive entry.
 1\1\GINC-NOTCH152\FOpt\RM062X\def2SVP\C8H14N1O2(1-)\U6067110\18-Jul-20
 25\0\\#N OPT FREQ=NORAMAN Integral(Ultrafine) M062X EmpiricalDispersio
 n=GD3 def2SVP\\A18_crest_conformers_censo-14\\-1,1\O,1.5567891538,-0.6
 749407221,-1.1013740135\C,1.4005029597,0.1152084026,-0.1770415053\C,0.
 2303732228,0.6390831376,0.4109362641\N,-0.9914393133,0.2716860451,-0.0
 365141575\C,-2.0966443592,0.7112140169,0.4450003523\C,-3.4429235883,0.
 2773817429,-0.0894446632\C,-3.2944679599,-0.8078422347,-1.1493307346\C
 ,-4.3605588739,-0.1833860658,1.0486730916\O,2.5470051896,0.6369585037,
 0.4605191266\C,3.7713347394,0.1748226541,-0.0344424623\C,4.1251977059,
 -1.2040976807,0.5078867801\H,0.3441325017,1.3530716668,1.239657089\H,-
 2.1168715868,1.445261963,1.2803317953\H,-3.9413808299,1.1500197575,-0.
 5637616343\H,-4.2734708158,-1.0918827582,-1.5698599546\H,-2.8193085762
 ,-1.6967879346,-0.7083582196\H,-2.6275731905,-0.4709949567,-1.95307791
 14\H,-5.3766587924,-0.417524316,0.6877625347\H,-4.446262099,0.59272148
 51,1.8258486905\H,-3.9441104616,-1.0856077268,1.5248442435\H,3.7475752
 764,0.1329910932,-1.135067437\H,4.5293346779,0.9141284354,0.2751712826
 \H,3.3767949951,-1.9218761419,0.147573421\H,4.1120603071,-1.1957793543
 ,1.6081396379\H,5.1237197172,-1.5233790121,0.1683483839\\Version=ES64L
 -G16RevC.01\State=1-A\HF=-517.8706108\RMSD=6.415e-09\RMSF=5.993e-06\Di
 pole=-0.2799682,-0.006398,0.5037629\Quadrupole=-8.4622956,4.7763246,3.
 685971,0.6632019,0.8875708,-2.0667215\PG=C01 [X(C8H14N1O2)]\\@
 The archive entry for this job was punched.


 IF I HAVE SEEN FARTHER, IT IS BY STANDING ON THE
 SHOULDERS OF GIANTS. -- SIR ISAAC NEWTON
 Job cpu time:       0 days  3 hours 28 minutes 53.8 seconds.
 Elapsed time:       0 days  0 hours  7 minutes 39.0 seconds.
 File lengths (MBytes):  RWF=     50 Int=      0 D2E=      0 Chk=      6 Scr=      2
 Normal termination of Gaussian 16 at Fri Jul 18 23:21:20 2025.
 Link1:  Proceeding to internal job step number  2.
 -------------------------------------------------------------------
 #N Geom=AllCheck Guess=TCheck SCRF=Check GenChk RM062X/def2SVP Freq
 -------------------------------------------------------------------
 1/10=4,29=7,30=1,38=1,40=1/1,3;
 2/12=2,40=1/2;
 3/5=43,7=101,11=2,14=-4,25=1,30=1,70=2,71=2,74=-55,75=-5,116=1,124=31,140=1/1,2,3;
 4/5=101/1;
 5/5=2,38=6,98=1/2;
 8/6=4,10=90,11=11/1;
 11/6=1,8=1,9=11,15=111,16=1/1,2,10;
 10/6=1/2;
 6/7=2,8=2,9=2,10=2,28=1/1;
 7/8=1,10=1,25=1/1,2,3,16;
 1/10=4,30=1/3;
 99//99;
 Structure from the checkpoint file:  "A18_crest_conformers_censo-14.chk"
 -----------------------------
 A18_crest_conformers_censo-14
 -----------------------------
 Charge = -1 Multiplicity = 1
 Redundant internal coordinates found in file.  (old form).
 O,0,1.5567891538,-0.6749407221,-1.1013740135
 C,0,1.4005029597,0.1152084026,-0.1770415053
 C,0,0.2303732228,0.6390831376,0.4109362641
 N,0,-0.9914393133,0.2716860451,-0.0365141575
 C,0,-2.0966443592,0.7112140169,0.4450003523
 C,0,-3.4429235883,0.2773817429,-0.0894446632
 C,0,-3.2944679599,-0.8078422347,-1.1493307346
 C,0,-4.3605588739,-0.1833860658,1.0486730916
 O,0,2.5470051896,0.6369585037,0.4605191266
 C,0,3.7713347394,0.1748226541,-0.0344424623
 C,0,4.1251977059,-1.2040976807,0.5078867801
 H,0,0.3441325017,1.3530716668,1.239657089
 H,0,-2.1168715868,1.445261963,1.2803317953
 H,0,-3.9413808299,1.1500197575,-0.5637616343
 H,0,-4.2734708158,-1.0918827582,-1.5698599546
 H,0,-2.8193085762,-1.6967879346,-0.7083582196
 H,0,-2.6275731905,-0.4709949567,-1.9530779114
 H,0,-5.3766587924,-0.417524316,0.6877625347
 H,0,-4.446262099,0.5927214851,1.8258486905
 H,0,-3.9441104616,-1.0856077268,1.5248442435
 H,0,3.7475752764,0.1329910932,-1.135067437
 H,0,4.5293346779,0.9141284354,0.2751712826
 H,0,3.3767949951,-1.9218761419,0.147573421
 H,0,4.1120603071,-1.1957793543,1.6081396379
 H,0,5.1237197172,-1.5233790121,0.1683483839
 Recover connectivity data from disk.

 GradGradGradGradGradGradGradGradGradGradGradGradGradGradGradGradGradGrad
 Berny optimization.
 Initialization pass.
                           ----------------------------
                           !    Initial Parameters    !
                           ! (Angstroms and Degrees)  !
 --------------------------                            --------------------------
 ! Name  Definition              Value          Derivative Info.                !
 --------------------------------------------------------------------------------
 ! R1    R(1,2)                  1.226          calculate D2E/DX2 analytically  !
 ! R2    R(2,3)                  1.4104         calculate D2E/DX2 analytically  !
 ! R3    R(2,9)                  1.4118         calculate D2E/DX2 analytically  !
 ! R4    R(3,4)                  1.352          calculate D2E/DX2 analytically  !
 ! R5    R(3,12)                 1.0998         calculate D2E/DX2 analytically  !
 ! R6    R(4,5)                  1.2832         calculate D2E/DX2 analytically  !
 ! R7    R(5,6)                  1.5121         calculate D2E/DX2 analytically  !
 ! R8    R(5,13)                 1.1122         calculate D2E/DX2 analytically  !
 ! R9    R(6,7)                  1.5242         calculate D2E/DX2 analytically  !
 ! R10   R(6,8)                  1.5329         calculate D2E/DX2 analytically  !
 ! R11   R(6,14)                 1.1113         calculate D2E/DX2 analytically  !
 ! R12   R(7,15)                 1.1027         calculate D2E/DX2 analytically  !
 ! R13   R(7,16)                 1.1002         calculate D2E/DX2 analytically  !
 ! R14   R(7,17)                 1.0974         calculate D2E/DX2 analytically  !
 ! R15   R(8,18)                 1.1034         calculate D2E/DX2 analytically  !
 ! R16   R(8,19)                 1.1017         calculate D2E/DX2 analytically  !
 ! R17   R(8,20)                 1.1019         calculate D2E/DX2 analytically  !
 ! R18   R(9,10)                 1.3991         calculate D2E/DX2 analytically  !
 ! R19   R(10,11)                1.5234         calculate D2E/DX2 analytically  !
 ! R20   R(10,21)                1.1017         calculate D2E/DX2 analytically  !
 ! R21   R(10,22)                1.1032         calculate D2E/DX2 analytically  !
 ! R22   R(11,23)                1.0978         calculate D2E/DX2 analytically  !
 ! R23   R(11,24)                1.1004         calculate D2E/DX2 analytically  !
 ! R24   R(11,25)                1.1019         calculate D2E/DX2 analytically  !
 ! A1    A(1,2,3)              131.2555         calculate D2E/DX2 analytically  !
 ! A2    A(1,2,9)              118.3674         calculate D2E/DX2 analytically  !
 ! A3    A(3,2,9)              110.3771         calculate D2E/DX2 analytically  !
 ! A4    A(2,3,4)              120.7182         calculate D2E/DX2 analytically  !
 ! A5    A(2,3,12)             117.9986         calculate D2E/DX2 analytically  !
 ! A6    A(4,3,12)             121.2832         calculate D2E/DX2 analytically  !
 ! A7    A(3,4,5)              124.1306         calculate D2E/DX2 analytically  !
 ! A8    A(4,5,6)              122.4094         calculate D2E/DX2 analytically  !
 ! A9    A(4,5,13)             121.572          calculate D2E/DX2 analytically  !
 ! A10   A(6,5,13)             116.0167         calculate D2E/DX2 analytically  !
 ! A11   A(5,6,7)              111.3062         calculate D2E/DX2 analytically  !
 ! A12   A(5,6,8)              110.905          calculate D2E/DX2 analytically  !
 ! A13   A(5,6,14)             108.9612         calculate D2E/DX2 analytically  !
 ! A14   A(7,6,8)              111.1365         calculate D2E/DX2 analytically  !
 ! A15   A(7,6,14)             107.8179         calculate D2E/DX2 analytically  !
 ! A16   A(8,6,14)             106.5249         calculate D2E/DX2 analytically  !
 ! A17   A(6,7,15)             111.2304         calculate D2E/DX2 analytically  !
 ! A18   A(6,7,16)             109.7939         calculate D2E/DX2 analytically  !
 ! A19   A(6,7,17)             110.4846         calculate D2E/DX2 analytically  !
 ! A20   A(15,7,16)            109.1571         calculate D2E/DX2 analytically  !
 ! A21   A(15,7,17)            109.8337         calculate D2E/DX2 analytically  !
 ! A22   A(16,7,17)            106.2075         calculate D2E/DX2 analytically  !
 ! A23   A(6,8,18)             111.8513         calculate D2E/DX2 analytically  !
 ! A24   A(6,8,19)             111.0136         calculate D2E/DX2 analytically  !
 ! A25   A(6,8,20)             109.9211         calculate D2E/DX2 analytically  !
 ! A26   A(18,8,19)            107.9742         calculate D2E/DX2 analytically  !
 ! A27   A(18,8,20)            108.3991         calculate D2E/DX2 analytically  !
 ! A28   A(19,8,20)            107.54           calculate D2E/DX2 analytically  !
 ! A29   A(2,9,10)             115.3918         calculate D2E/DX2 analytically  !
 ! A30   A(9,10,11)            112.1048         calculate D2E/DX2 analytically  !
 ! A31   A(9,10,21)            110.3099         calculate D2E/DX2 analytically  !
 ! A32   A(9,10,22)            106.2974         calculate D2E/DX2 analytically  !
 ! A33   A(11,10,21)           109.0443         calculate D2E/DX2 analytically  !
 ! A34   A(11,10,22)           110.309          calculate D2E/DX2 analytically  !
 ! A35   A(21,10,22)           108.7025         calculate D2E/DX2 analytically  !
 ! A36   A(10,11,23)           108.4591         calculate D2E/DX2 analytically  !
 ! A37   A(10,11,24)           110.264          calculate D2E/DX2 analytically  !
 ! A38   A(10,11,25)           111.288          calculate D2E/DX2 analytically  !
 ! A39   A(23,11,24)           108.9649         calculate D2E/DX2 analytically  !
 ! A40   A(23,11,25)           109.0974         calculate D2E/DX2 analytically  !
 ! A41   A(24,11,25)           108.7298         calculate D2E/DX2 analytically  !
 ! D1    D(1,2,3,4)              0.3999         calculate D2E/DX2 analytically  !
 ! D2    D(1,2,3,12)          -179.5234         calculate D2E/DX2 analytically  !
 ! D3    D(9,2,3,4)           -179.6542         calculate D2E/DX2 analytically  !
 ! D4    D(9,2,3,12)             0.4226         calculate D2E/DX2 analytically  !
 ! D5    D(1,2,9,10)            -0.6169         calculate D2E/DX2 analytically  !
 ! D6    D(3,2,9,10)           179.4293         calculate D2E/DX2 analytically  !
 ! D7    D(2,3,4,5)           -179.6594         calculate D2E/DX2 analytically  !
 ! D8    D(12,3,4,5)             0.2613         calculate D2E/DX2 analytically  !
 ! D9    D(3,4,5,6)            179.7611         calculate D2E/DX2 analytically  !
 ! D10   D(3,4,5,13)             0.2814         calculate D2E/DX2 analytically  !
 ! D11   D(4,5,6,7)              5.0637         calculate D2E/DX2 analytically  !
 ! D12   D(4,5,6,8)            129.3471         calculate D2E/DX2 analytically  !
 ! D13   D(4,5,6,14)          -113.7054         calculate D2E/DX2 analytically  !
 ! D14   D(13,5,6,7)          -175.4296         calculate D2E/DX2 analytically  !
 ! D15   D(13,5,6,8)           -51.1462         calculate D2E/DX2 analytically  !
 ! D16   D(13,5,6,14)           65.8013         calculate D2E/DX2 analytically  !
 ! D17   D(5,6,7,15)          -177.5071         calculate D2E/DX2 analytically  !
 ! D18   D(5,6,7,16)            61.5638         calculate D2E/DX2 analytically  !
 ! D19   D(5,6,7,17)           -55.2517         calculate D2E/DX2 analytically  !
 ! D20   D(8,6,7,15)            58.3403         calculate D2E/DX2 analytically  !
 ! D21   D(8,6,7,16)           -62.5887         calculate D2E/DX2 analytically  !
 ! D22   D(8,6,7,17)          -179.4042         calculate D2E/DX2 analytically  !
 ! D23   D(14,6,7,15)          -58.0554         calculate D2E/DX2 analytically  !
 ! D24   D(14,6,7,16)         -178.9844         calculate D2E/DX2 analytically  !
 ! D25   D(14,6,7,17)           64.2001         calculate D2E/DX2 analytically  !
 ! D26   D(5,6,8,18)           174.8736         calculate D2E/DX2 analytically  !
 ! D27   D(5,6,8,19)            54.1961         calculate D2E/DX2 analytically  !
 ! D28   D(5,6,8,20)           -64.6595         calculate D2E/DX2 analytically  !
 ! D29   D(7,6,8,18)           -60.7466         calculate D2E/DX2 analytically  !
 ! D30   D(7,6,8,19)           178.576          calculate D2E/DX2 analytically  !
 ! D31   D(7,6,8,20)            59.7203         calculate D2E/DX2 analytically  !
 ! D32   D(14,6,8,18)           56.4405         calculate D2E/DX2 analytically  !
 ! D33   D(14,6,8,19)          -64.237          calculate D2E/DX2 analytically  !
 ! D34   D(14,6,8,20)          176.9074         calculate D2E/DX2 analytically  !
 ! D35   D(2,9,10,11)          -79.9215         calculate D2E/DX2 analytically  !
 ! D36   D(2,9,10,21)           41.8043         calculate D2E/DX2 analytically  !
 ! D37   D(2,9,10,22)          159.4779         calculate D2E/DX2 analytically  !
 ! D38   D(9,10,11,23)          64.1172         calculate D2E/DX2 analytically  !
 ! D39   D(9,10,11,24)         -55.1222         calculate D2E/DX2 analytically  !
 ! D40   D(9,10,11,25)        -175.8668         calculate D2E/DX2 analytically  !
 ! D41   D(21,10,11,23)        -58.3305         calculate D2E/DX2 analytically  !
 ! D42   D(21,10,11,24)       -177.5698         calculate D2E/DX2 analytically  !
 ! D43   D(21,10,11,25)         61.6856         calculate D2E/DX2 analytically  !
 ! D44   D(22,10,11,23)       -177.6355         calculate D2E/DX2 analytically  !
 ! D45   D(22,10,11,24)         63.1251         calculate D2E/DX2 analytically  !
 ! D46   D(22,10,11,25)        -57.6195         calculate D2E/DX2 analytically  !
 --------------------------------------------------------------------------------
 Trust Radius=3.00D-01 FncErr=1.00D-07 GrdErr=1.00D-07 EigMax=2.50D+02 EigMin=1.00D-04
 Number of steps in this run=      2 maximum allowed number of steps=      2.
 GradGradGradGradGradGradGradGradGradGradGradGradGradGradGradGradGradGrad

                          Input orientation:                          
 ---------------------------------------------------------------------
 Center     Atomic      Atomic             Coordinates (Angstroms)
 Number     Number       Type             X           Y           Z
 ---------------------------------------------------------------------
      1          8           0        1.556789   -0.674941   -1.101374
      2          6           0        1.400503    0.115208   -0.177042
      3          6           0        0.230373    0.639083    0.410936
      4          7           0       -0.991439    0.271686   -0.036514
      5          6           0       -2.096644    0.711214    0.445000
      6          6           0       -3.442924    0.277382   -0.089445
      7          6           0       -3.294468   -0.807842   -1.149331
      8          6           0       -4.360559   -0.183386    1.048673
      9          8           0        2.547005    0.636959    0.460519
     10          6           0        3.771335    0.174823   -0.034442
     11          6           0        4.125198   -1.204098    0.507887
     12          1           0        0.344133    1.353072    1.239657
     13          1           0       -2.116872    1.445262    1.280332
     14          1           0       -3.941381    1.150020   -0.563762
     15          1           0       -4.273471   -1.091883   -1.569860
     16          1           0       -2.819309   -1.696788   -0.708358
     17          1           0       -2.627573   -0.470995   -1.953078
     18          1           0       -5.376659   -0.417524    0.687763
     19          1           0       -4.446262    0.592721    1.825849
     20          1           0       -3.944110   -1.085608    1.524844
     21          1           0        3.747575    0.132991   -1.135067
     22          1           0        4.529335    0.914128    0.275171
     23          1           0        3.376795   -1.921876    0.147573
     24          1           0        4.112060   -1.195779    1.608140
     25          1           0        5.123720   -1.523379    0.168348
 ---------------------------------------------------------------------
                    Distance matrix (angstroms):
                    1          2          3          4          5
     1  O    0.000000
     2  C    1.226031   0.000000
     3  C    2.402732   1.410449   0.000000
     4  N    2.919503   2.401171   1.352042   0.000000
     5  C    4.202413   3.601694   2.328384   1.283168   0.000000
     6  C    5.189224   4.846932   3.724825   2.452062   1.512055
     7  C    4.853314   4.882635   4.117345   2.776271   2.506832
     8  C    6.315009   5.897573   4.707422   3.568710   2.507995
     9  O    2.267403   1.411798   2.317163   3.591804   4.644269
    10  C    2.600895   2.375864   3.598932   4.763759   5.911917
    11  C    3.076760   3.103813   4.310032   5.352970   6.510276
    12  H    3.326229   2.157605   1.099772   2.140505   2.645912
    13  H    4.864521   4.032977   2.629702   2.092358   1.112211
    14  H    5.818022   5.454916   4.314467   3.122758   2.147837
    15  H    5.863894   5.965819   5.215784   3.870685   3.471224
    16  H    4.510972   4.623033   4.001209   2.769002   2.766036
    17  H    4.275030   4.441096   3.871523   2.627114   2.725855
    18  H    7.165192   6.852854   5.712430   4.497748   3.477280
    19  H    6.797957   6.198730   4.886210   3.937926   2.727909
    20  H    6.109465   5.736137   4.652060   3.605323   2.794237
    21  H    2.335259   2.535129   3.875173   4.866653   6.081600
    22  H    3.640885   3.260730   4.309890   5.566761   6.631260
    23  H    2.535180   2.856715   4.065445   4.891531   6.081132
    24  H    3.760605   3.501158   4.457299   5.559141   6.598298
    25  H    3.880082   4.082475   5.355365   6.376472   7.563306
                    6          7          8          9         10
     6  C    0.000000
     7  C    1.524175   0.000000
     8  C    1.532864   2.521451   0.000000
     9  O    6.025861   6.229115   6.980926   0.000000
    10  C    7.215197   7.220400   8.211525   1.399121   0.000000
    11  C    7.734859   7.612807   8.564016   2.425371   1.523405
    12  H    4.155167   4.859653   4.952908   2.443874   3.841525
    13  H    2.235765   3.516599   2.782138   4.803873   6.165519
    14  H    1.111276   2.143504   2.133923   6.588743   7.792122
    15  H    2.180900   1.102710   2.773025   7.323266   8.287397
    16  H    2.160855   1.100208   2.784420   5.967409   6.884306
    17  H    2.167485   1.097372   3.477998   5.816294   6.711502
    18  H    2.196879   2.804065   1.103420   7.996751   9.195555
    19  H    2.185057   3.484236   1.101676   7.125438   8.435889
    20  H    2.171372   2.765936   1.101895   6.799603   7.971710
    21  H    7.267561   7.104628   8.403015   2.059429   1.101676
    22  H    8.005954   8.136724   8.990720   2.010176   1.103176
    23  H    7.169482   6.886856   7.981289   2.708158   2.141247
    24  H    7.882244   7.912699   8.551212   2.669337   2.166269
    25  H    8.757658   8.550682   9.618841   3.375186   2.180357
                   11         12         13         14         15
    11  C    0.000000
    12  H    4.622884   0.000000
    13  H    6.824896   2.463066   0.000000
    14  H    8.471127   4.653942   2.610878   0.000000
    15  H    8.652587   5.932407   4.383106   2.479646   0.000000
    16  H    7.067401   4.806638   3.784281   3.063375   1.795183
    17  H    7.224521   4.727770   3.793125   2.506787   1.800371
    18  H    9.536054   6.013905   3.800964   2.466481   2.601661
    19  H    8.856382   4.885656   2.539778   2.505140   3.794547
    20  H    8.134001   4.941408   3.131116   3.059463   3.112188
    21  H    2.151675   4.325660   6.476723   7.776939   8.125672
    22  H    2.168955   4.317270   6.742737   8.515426   9.215075
    23  H    1.097788   4.595103   6.542257   7.968578   7.884481
    24  H    1.100363   4.563957   6.773636   8.664747   8.968144
    25  H    1.101941   5.680328   7.904144   9.479404   9.566334
                   16         17         18         19         20
    16  H    0.000000
    17  H    1.757458   0.000000
    18  H    3.182092   3.812397   0.000000
    19  H    3.782993   4.326593   1.783669   0.000000
    20  H    2.574085   3.769212   1.788641   1.777512   0.000000
    21  H    6.830383   6.455731   9.320806   8.724526   8.229346
    22  H    7.860456   7.622663  10.003611   9.114233   8.795448
    23  H    6.258992   6.524587   8.898193   8.386896   7.496124
    24  H    7.325370   7.657039   9.564966   8.745914   8.057355
    25  H    7.993146   8.104968  10.571218   9.940309   9.179176
                   21         22         23         24         25
    21  H    0.000000
    22  H    1.791674   0.000000
    23  H    2.450536   3.063911   0.000000
    24  H    3.069799   2.530343   1.789158   0.000000
    25  H    2.517187   2.511204   1.791920   1.789909   0.000000
 Stoichiometry    C8H14NO2(1-)
 Framework group  C1[X(C8H14NO2)]
 Deg. of freedom    69
 Full point group                 C1      NOp   1
 Largest Abelian subgroup         C1      NOp   1
 Largest concise Abelian subgroup C1      NOp   1
                         Standard orientation:                         
 ---------------------------------------------------------------------
 Center     Atomic      Atomic             Coordinates (Angstroms)
 Number     Number       Type             X           Y           Z
 ---------------------------------------------------------------------
      1          8           0       -1.629629    1.240544   -0.295927
      2          6           0       -1.447097    0.028178   -0.295161
      3          6           0       -0.260135   -0.733668   -0.286217
      4          7           0        0.948802   -0.128552   -0.268227
      5          6           0        2.068049   -0.756085   -0.265523
      6          6           0        3.399164   -0.038996   -0.250442
      7          6           0        3.214951    1.467856   -0.114164
      8          6           0        4.303572   -0.587844    0.858831
      9          8           0       -2.575604   -0.820074   -0.305787
     10          6           0       -3.814650   -0.170231   -0.302729
     11          6           0       -4.210959    0.301814    1.090423
     12          1           0       -0.350062   -1.829717   -0.295614
     13          1           0        2.112685   -1.867266   -0.282829
     14          1           0        3.924145   -0.231925   -1.210706
     15          1           0        4.183868    1.993250   -0.147792
     16          1           0        2.712691    1.697247    0.837451
     17          1           0        2.557768    1.847635   -0.906693
     18          1           0        5.311232   -0.139375    0.826683
     19          1           0        4.414887   -1.680542    0.773331
     20          1           0        3.859629   -0.375403    1.844710
     21          1           0       -3.793914    0.695800   -0.983354
     22          1           0       -4.548497   -0.901136   -0.682525
     23          1           0       -3.486104    1.057195    1.420761
     24          1           0       -4.195874   -0.541437    1.797174
     25          1           0       -5.219569    0.745639    1.090592
 ---------------------------------------------------------------------
 Rotational constants (GHZ):           3.3329065           0.3700293           0.3553739
 Standard basis: def2SVP (5D, 7F)
 There are   235 symmetry adapted cartesian basis functions of A   symmetry.
 There are   224 symmetry adapted basis functions of A   symmetry.
   224 basis functions,   373 primitive gaussians,   235 cartesian basis functions
    43 alpha electrons       43 beta electrons
       nuclear repulsion energy       596.7444315537 Hartrees.
 NAtoms=   25 NActive=   25 NUniq=   25 SFac= 1.00D+00 NAtFMM=   60 NAOKFM=F Big=F
 Integral buffers will be    131072 words long.
 Raffenetti 2 integral format.
 Two-electron integral symmetry is turned on.
 Nuclear repulsion after empirical dispersion term =      596.7436328441 Hartrees.
 One-electron integrals computed using PRISM.
   1 Symmetry operations used in ECPInt.
 ECPInt:  NShTT=    5886 NPrTT=   20688 LenC2=    5347 LenP2D=   14006.
 LDataN:  DoStor=T MaxTD1= 4 Len=   56
 NBasis=   224 RedAO= T EigKep=  1.18D-03  NBF=   224
 NBsUse=   224 1.00D-06 EigRej= -1.00D+00 NBFU=   224
 Initial guess from the checkpoint file:  "A18_crest_conformers_censo-14.chk"
 B after Tr=    -0.000000    0.000000    0.000000
         Rot=    1.000000   -0.000000    0.000000    0.000000 Ang=   0.00 deg.
 Requested convergence on RMS density matrix=1.00D-08 within 128 cycles.
 Requested convergence on MAX density matrix=1.00D-06.
 Requested convergence on             energy=1.00D-06.
 No special actions if energy rises.
 SCF Done:  E(RM062X) =  -517.870610793     A.U. after    1 cycles
            NFock=  1  Conv=0.28D-08     -V/T= 2.0100
 DoSCS=F DFT=T ScalE2(SS,OS)=  1.000000  1.000000
 Range of M.O.s used for correlation:     1   224
 NBasis=   224 NAE=    43 NBE=    43 NFC=     0 NFV=     0
 NROrb=    224 NOA=    43 NOB=    43 NVA=   181 NVB=   181
   1 Symmetry operations used in ECPInt.
 ECPInt:  NShTT=    5886 NPrTT=   20688 LenC2=    5347 LenP2D=   14006.
 LDataN:  DoStor=T MaxTD1= 5 Len=  102
 Symmetrizing basis deriv contribution to polar:
 IMax=3 JMax=2 DiffMx= 0.00D+00
 G2DrvN: will do    26 centers at a time, making    1 passes.
 Calling FoFCou, ICntrl=  3107 FMM=F I1Cent=   0 AccDes= 0.00D+00.
 End of G2Drv F.D. properties file   721 does not exist.
 End of G2Drv F.D. properties file   722 does not exist.
 End of G2Drv F.D. properties file   788 does not exist.
          IDoAtm=1111111111111111111111111
          Differentiating once with respect to electric field.
                with respect to dipole field.
          Differentiating once with respect to nuclear coordinates.
 Keep R1 ints in memory in canonical form, NReq=351527234.
          There are    78 degrees of freedom in the 1st order CPHF.  IDoFFX=6 NUNeed=     3.
     75 vectors produced by pass  0 Test12= 9.98D-15 1.28D-09 XBig12= 1.26D+02 8.06D+00.
 AX will form    75 AO Fock derivatives at one time.
     75 vectors produced by pass  1 Test12= 9.98D-15 1.28D-09 XBig12= 1.08D+01 7.31D-01.
     75 vectors produced by pass  2 Test12= 9.98D-15 1.28D-09 XBig12= 2.31D-01 5.61D-02.
     75 vectors produced by pass  3 Test12= 9.98D-15 1.28D-09 XBig12= 2.70D-03 8.84D-03.
     75 vectors produced by pass  4 Test12= 9.98D-15 1.28D-09 XBig12= 1.84D-05 4.89D-04.
     75 vectors produced by pass  5 Test12= 9.98D-15 1.28D-09 XBig12= 6.26D-08 2.30D-05.
     39 vectors produced by pass  6 Test12= 9.98D-15 1.28D-09 XBig12= 1.77D-10 1.09D-06.
      4 vectors produced by pass  7 Test12= 9.98D-15 1.28D-09 XBig12= 4.08D-13 5.54D-08.
      1 vectors produced by pass  8 Test12= 9.98D-15 1.28D-09 XBig12= 9.54D-16 2.98D-09.
 InvSVY:  IOpt=1 It=  1 EMax= 4.44D-15
 Solved reduced A of dimension   494 with    78 vectors.
 Isotropic polarizability for W=    0.000000      126.12 Bohr**3.
 End of Minotr F.D. properties file   721 does not exist.
 End of Minotr F.D. properties file   722 does not exist.
 End of Minotr F.D. properties file   788 does not exist.

 **********************************************************************

            Population analysis using the SCF Density.

 **********************************************************************

 Orbital symmetries:
       Occupied  (A) (A) (A) (A) (A) (A) (A) (A) (A) (A) (A) (A)
                 (A) (A) (A) (A) (A) (A) (A) (A) (A) (A) (A) (A)
                 (A) (A) (A) (A) (A) (A) (A) (A) (A) (A) (A) (A)
                 (A) (A) (A) (A) (A) (A) (A)
       Virtual   (A) (A) (A) (A) (A) (A) (A) (A) (A) (A) (A) (A)
                 (A) (A) (A) (A) (A) (A) (A) (A) (A) (A) (A) (A)
                 (A) (A) (A) (A) (A) (A) (A) (A) (A) (A) (A) (A)
                 (A) (A) (A) (A) (A) (A) (A) (A) (A) (A) (A) (A)
                 (A) (A) (A) (A) (A) (A) (A) (A) (A) (A) (A) (A)
                 (A) (A) (A) (A) (A) (A) (A) (A) (A) (A) (A) (A)
                 (A) (A) (A) (A) (A) (A) (A) (A) (A) (A) (A) (A)
                 (A) (A) (A) (A) (A) (A) (A) (A) (A) (A) (A) (A)
                 (A) (A) (A) (A) (A) (A) (A) (A) (A) (A) (A) (A)
                 (A) (A) (A) (A) (A) (A) (A) (A) (A) (A) (A) (A)
                 (A) (A) (A) (A) (A) (A) (A) (A) (A) (A) (A) (A)
                 (A) (A) (A) (A) (A) (A) (A) (A) (A) (A) (A) (A)
                 (A) (A) (A) (A) (A) (A) (A) (A) (A) (A) (A) (A)
                 (A) (A) (A) (A) (A) (A) (A) (A) (A) (A) (A) (A)
                 (A) (A) (A) (A) (A) (A) (A) (A) (A) (A) (A) (A)
                 (A)
 The electronic state is 1-A.
 Alpha  occ. eigenvalues --  -19.47620 -19.40249 -14.57620 -10.46806 -10.45719
 Alpha  occ. eigenvalues --  -10.42341 -10.41543 -10.41493 -10.40566 -10.39137
 Alpha  occ. eigenvalues --  -10.35229  -1.01073  -0.90912  -0.83433  -0.74529
 Alpha  occ. eigenvalues --   -0.70636  -0.63617  -0.62388  -0.57451  -0.52977
 Alpha  occ. eigenvalues --   -0.47059  -0.43633  -0.41260  -0.39644  -0.38262
 Alpha  occ. eigenvalues --   -0.37538  -0.36138  -0.34871  -0.33409  -0.32392
 Alpha  occ. eigenvalues --   -0.31631  -0.31141  -0.29227  -0.28166  -0.26680
 Alpha  occ. eigenvalues --   -0.26182  -0.25395  -0.23893  -0.22322  -0.18276
 Alpha  occ. eigenvalues --   -0.14995  -0.13105  -0.03416
 Alpha virt. eigenvalues --    0.20351   0.22858   0.23510   0.26163   0.26486
 Alpha virt. eigenvalues --    0.27453   0.28150   0.28408   0.29143   0.29939
 Alpha virt. eigenvalues --    0.30061   0.32094   0.33011   0.33195   0.33947
 Alpha virt. eigenvalues --    0.35225   0.36574   0.38349   0.39929   0.41071
 Alpha virt. eigenvalues --    0.44804   0.46390   0.48410   0.52291   0.56252
 Alpha virt. eigenvalues --    0.57853   0.58863   0.60106   0.60897   0.61372
 Alpha virt. eigenvalues --    0.62807   0.64217   0.66030   0.68350   0.69612
 Alpha virt. eigenvalues --    0.71610   0.73353   0.75108   0.77567   0.78127
 Alpha virt. eigenvalues --    0.79087   0.80618   0.80754   0.81922   0.82832
 Alpha virt. eigenvalues --    0.83177   0.83736   0.84172   0.85288   0.85803
 Alpha virt. eigenvalues --    0.85997   0.86319   0.86870   0.86979   0.87564
 Alpha virt. eigenvalues --    0.88121   0.88834   0.89311   0.89703   0.91038
 Alpha virt. eigenvalues --    0.92166   0.93245   0.95698   1.00320   1.02521
 Alpha virt. eigenvalues --    1.03222   1.05616   1.09619   1.10507   1.11796
 Alpha virt. eigenvalues --    1.17113   1.19558   1.21473   1.26022   1.29510
 Alpha virt. eigenvalues --    1.31286   1.32994   1.33923   1.36048   1.39860
 Alpha virt. eigenvalues --    1.41526   1.44154   1.45087   1.48891   1.50042
 Alpha virt. eigenvalues --    1.53767   1.56491   1.59603   1.60071   1.64368
 Alpha virt. eigenvalues --    1.66522   1.70309   1.71024   1.71994   1.73069
 Alpha virt. eigenvalues --    1.73917   1.75131   1.77610   1.80211   1.88406
 Alpha virt. eigenvalues --    1.90782   1.91381   1.91485   1.92793   1.94600
 Alpha virt. eigenvalues --    1.94878   1.94896   1.96921   1.98173   1.98363
 Alpha virt. eigenvalues --    1.98909   1.99731   2.01347   2.01722   2.02971
 Alpha virt. eigenvalues --    2.04657   2.06088   2.06394   2.06713   2.09596
 Alpha virt. eigenvalues --    2.10683   2.11026   2.12137   2.13660   2.15738
 Alpha virt. eigenvalues --    2.16305   2.19897   2.20201   2.22721   2.26432
 Alpha virt. eigenvalues --    2.29102   2.30613   2.32650   2.36301   2.38245
 Alpha virt. eigenvalues --    2.41704   2.42585   2.46120   2.47766   2.52322
 Alpha virt. eigenvalues --    2.52873   2.53891   2.55566   2.58864   2.65117
 Alpha virt. eigenvalues --    2.66027   2.68943   2.69579   2.72493   2.75107
 Alpha virt. eigenvalues --    2.76773   2.82035   2.82998   2.85773   2.90387
 Alpha virt. eigenvalues --    2.91790   2.93188   2.95490   2.96166   2.99255
 Alpha virt. eigenvalues --    3.00560   3.02545   3.03281   3.04861   3.06184
 Alpha virt. eigenvalues --    3.07782   3.08504   3.13447   3.15665   3.16906
 Alpha virt. eigenvalues --    3.20401   3.21615   3.24926   3.28674   3.39193
 Alpha virt. eigenvalues --    3.44823   3.55024   3.57150   3.68792   3.84029
 Alpha virt. eigenvalues --    3.94651
          Condensed to atoms (all electrons):
               1          2          3          4          5          6
     1  O    7.868499   0.674721  -0.102837   0.001222   0.000274   0.000023
     2  C    0.674721   4.595030   0.330512  -0.060749   0.012145   0.000203
     3  C   -0.102837   0.330512   5.383892   0.428092  -0.115560   0.018874
     4  N    0.001222  -0.060749   0.428092   6.245119   0.652824  -0.133886
     5  C    0.000274   0.012145  -0.115560   0.652824   5.116554   0.185068
     6  C    0.000023   0.000203   0.018874  -0.133886   0.185068   5.253588
     7  C   -0.000084  -0.000258  -0.000353   0.018648  -0.038256   0.354289
     8  C   -0.000000  -0.000002  -0.000081   0.002525  -0.081025   0.385814
     9  O   -0.098453   0.284038  -0.113705   0.001971  -0.000097  -0.000000
    10  C    0.007509  -0.041311   0.010772  -0.000180   0.000012  -0.000000
    11  C   -0.019702  -0.006103  -0.001201   0.000013  -0.000002   0.000000
    12  H    0.003672  -0.060614   0.373052  -0.045655  -0.014503  -0.002502
    13  H   -0.000019  -0.001449  -0.018153  -0.040588   0.414050  -0.147246
    14  H   -0.000001   0.000032   0.000051   0.000168  -0.023864   0.337409
    15  H    0.000000  -0.000007   0.000005   0.001229   0.010533  -0.034735
    16  H    0.000075  -0.000066  -0.000640   0.008050  -0.006959  -0.021082
    17  H    0.000204  -0.000102  -0.000602   0.015784  -0.010855  -0.011672
    18  H    0.000000   0.000000   0.000002  -0.000166   0.010097  -0.016484
    19  H   -0.000000  -0.000001  -0.000039   0.000088  -0.005021  -0.024790
    20  H    0.000000  -0.000005  -0.000323   0.000864   0.005784  -0.029122
    21  H    0.027058  -0.009802   0.002333  -0.000005   0.000001   0.000000
    22  H    0.000833   0.006871   0.000049   0.000003  -0.000000  -0.000000
    23  H    0.022737   0.002274  -0.000466  -0.000004   0.000005  -0.000000
    24  H    0.000554  -0.000235  -0.000158   0.000001   0.000000  -0.000000
    25  H    0.000097   0.000135  -0.000008  -0.000000   0.000000  -0.000000
               7          8          9         10         11         12
     1  O   -0.000084  -0.000000  -0.098453   0.007509  -0.019702   0.003672
     2  C   -0.000258  -0.000002   0.284038  -0.041311  -0.006103  -0.060614
     3  C   -0.000353  -0.000081  -0.113705   0.010772  -0.001201   0.373052
     4  N    0.018648   0.002525   0.001971  -0.000180   0.000013  -0.045655
     5  C   -0.038256  -0.081025  -0.000097   0.000012  -0.000002  -0.014503
     6  C    0.354289   0.385814  -0.000000  -0.000000   0.000000  -0.002502
     7  C    4.584897  -0.046872  -0.000000   0.000000  -0.000000   0.000213
     8  C   -0.046872   4.751014  -0.000000  -0.000000   0.000000   0.000023
     9  O   -0.000000  -0.000000   8.165205   0.290115  -0.052206   0.010420
    10  C    0.000000  -0.000000   0.290115   4.423329   0.421100  -0.000208
    11  C   -0.000000   0.000000  -0.052206   0.421100   4.764727   0.000094
    12  H    0.000213   0.000023   0.010420  -0.000208   0.000094   0.783228
    13  H    0.013065   0.000572   0.000000   0.000003  -0.000000   0.018603
    14  H   -0.026787  -0.061338  -0.000000   0.000000  -0.000000   0.000036
    15  H    0.372355  -0.006956   0.000000   0.000000  -0.000000   0.000007
    16  H    0.389053  -0.012736   0.000001   0.000000  -0.000000   0.000061
    17  H    0.383528   0.009931   0.000002  -0.000000   0.000000   0.000128
    18  H   -0.008042   0.353115   0.000000   0.000000  -0.000000   0.000000
    19  H    0.009409   0.379042   0.000000   0.000000  -0.000000   0.000028
    20  H   -0.008124   0.372650   0.000000   0.000000  -0.000000   0.000006
    21  H    0.000000   0.000000  -0.034201   0.379971  -0.042370  -0.000044
    22  H    0.000000  -0.000000  -0.031853   0.380501  -0.045585  -0.000200
    23  H   -0.000000  -0.000000  -0.006596  -0.009198   0.375951  -0.000130
    24  H    0.000000  -0.000000   0.004003  -0.019339   0.366772   0.000062
    25  H   -0.000000  -0.000000   0.005091  -0.013283   0.342914  -0.000002
              13         14         15         16         17         18
     1  O   -0.000019  -0.000001   0.000000   0.000075   0.000204   0.000000
     2  C   -0.001449   0.000032  -0.000007  -0.000066  -0.000102   0.000000
     3  C   -0.018153   0.000051   0.000005  -0.000640  -0.000602   0.000002
     4  N   -0.040588   0.000168   0.001229   0.008050   0.015784  -0.000166
     5  C    0.414050  -0.023864   0.010533  -0.006959  -0.010855   0.010097
     6  C   -0.147246   0.337409  -0.034735  -0.021082  -0.011672  -0.016484
     7  C    0.013065  -0.026787   0.372355   0.389053   0.383528  -0.008042
     8  C    0.000572  -0.061338  -0.006956  -0.012736   0.009931   0.353115
     9  O    0.000000  -0.000000   0.000000   0.000001   0.000002   0.000000
    10  C    0.000003   0.000000   0.000000   0.000000  -0.000000   0.000000
    11  C   -0.000000  -0.000000  -0.000000  -0.000000   0.000000  -0.000000
    12  H    0.018603   0.000036   0.000007   0.000061   0.000128   0.000000
    13  H    0.816866   0.001377  -0.000272   0.000668   0.001041  -0.000291
    14  H    0.001377   0.781276  -0.006324   0.010258  -0.008460  -0.004408
    15  H   -0.000272  -0.006324   0.731898  -0.029455  -0.026674   0.005528
    16  H    0.000668   0.010258  -0.029455   0.648307  -0.018754  -0.000505
    17  H    0.001041  -0.008460  -0.026674  -0.018754   0.624172  -0.000335
    18  H   -0.000291  -0.004408   0.005528  -0.000505  -0.000335   0.716726
    19  H    0.007279  -0.005499  -0.000012   0.000109  -0.000431  -0.028063
    20  H   -0.000410   0.011650  -0.000924   0.008818  -0.000192  -0.023973
    21  H   -0.000000  -0.000000  -0.000000  -0.000000  -0.000000  -0.000000
    22  H    0.000000   0.000000   0.000000   0.000000  -0.000000   0.000000
    23  H   -0.000000   0.000000   0.000000   0.000001  -0.000000   0.000000
    24  H   -0.000000   0.000000   0.000000   0.000000  -0.000000   0.000000
    25  H    0.000000   0.000000   0.000000   0.000000  -0.000000   0.000000
              19         20         21         22         23         24
     1  O   -0.000000   0.000000   0.027058   0.000833   0.022737   0.000554
     2  C   -0.000001  -0.000005  -0.009802   0.006871   0.002274  -0.000235
     3  C   -0.000039  -0.000323   0.002333   0.000049  -0.000466  -0.000158
     4  N    0.000088   0.000864  -0.000005   0.000003  -0.000004   0.000001
     5  C   -0.005021   0.005784   0.000001  -0.000000   0.000005   0.000000
     6  C   -0.024790  -0.029122   0.000000  -0.000000  -0.000000  -0.000000
     7  C    0.009409  -0.008124   0.000000   0.000000  -0.000000   0.000000
     8  C    0.379042   0.372650   0.000000  -0.000000  -0.000000  -0.000000
     9  O    0.000000   0.000000  -0.034201  -0.031853  -0.006596   0.004003
    10  C    0.000000   0.000000   0.379971   0.380501  -0.009198  -0.019339
    11  C   -0.000000  -0.000000  -0.042370  -0.045585   0.375951   0.366772
    12  H    0.000028   0.000006  -0.000044  -0.000200  -0.000130   0.000062
    13  H    0.007279  -0.000410  -0.000000   0.000000  -0.000000  -0.000000
    14  H   -0.005499   0.011650  -0.000000   0.000000   0.000000   0.000000
    15  H   -0.000012  -0.000924  -0.000000   0.000000   0.000000   0.000000
    16  H    0.000109   0.008818  -0.000000   0.000000   0.000001   0.000000
    17  H   -0.000431  -0.000192  -0.000000  -0.000000  -0.000000  -0.000000
    18  H   -0.028063  -0.023973  -0.000000   0.000000   0.000000   0.000000
    19  H    0.679232  -0.024428   0.000000  -0.000000  -0.000000   0.000000
    20  H   -0.024428   0.666710  -0.000000   0.000000   0.000000   0.000000
    21  H    0.000000  -0.000000   0.702218  -0.037114  -0.012742   0.010167
    22  H   -0.000000   0.000000  -0.037114   0.741268   0.008482  -0.010490
    23  H   -0.000000   0.000000  -0.012742   0.008482   0.601468  -0.023863
    24  H    0.000000   0.000000   0.010167  -0.010490  -0.023863   0.676133
    25  H    0.000000   0.000000   0.000433  -0.001684  -0.018817  -0.023097
              25
     1  O    0.000097
     2  C    0.000135
     3  C   -0.000008
     4  N   -0.000000
     5  C    0.000000
     6  C   -0.000000
     7  C   -0.000000
     8  C   -0.000000
     9  O    0.005091
    10  C   -0.013283
    11  C    0.342914
    12  H   -0.000002
    13  H    0.000000
    14  H    0.000000
    15  H    0.000000
    16  H    0.000000
    17  H   -0.000000
    18  H    0.000000
    19  H    0.000000
    20  H    0.000000
    21  H    0.000433
    22  H   -0.001684
    23  H   -0.018817
    24  H   -0.023097
    25  H    0.712237
 Mulliken charges:
               1
     1  O   -0.386383
     2  C    0.274743
     3  C   -0.193508
     4  N   -0.095368
     5  C   -0.111203
     6  C   -0.113748
     7  C    0.003321
     8  C   -0.045676
     9  O   -0.423733
    10  C    0.170210
    11  C   -0.104400
    12  H   -0.065777
    13  H   -0.065096
    14  H   -0.005576
    15  H   -0.016194
    16  H    0.024799
    17  H    0.043290
    18  H   -0.003202
    19  H    0.013098
    20  H    0.021018
    21  H    0.014097
    22  H   -0.011081
    23  H    0.060897
    24  H    0.019489
    25  H   -0.004016
 Sum of Mulliken charges =  -1.00000
 Mulliken charges with hydrogens summed into heavy atoms:
               1
     1  O   -0.386383
     2  C    0.274743
     3  C   -0.259285
     4  N   -0.095368
     5  C   -0.176299
     6  C   -0.119325
     7  C    0.055215
     8  C   -0.014762
     9  O   -0.423733
    10  C    0.173226
    11  C   -0.028030
 APT charges:
               1
     1  O   -1.014772
     2  C    1.773498
     3  C   -0.895184
     4  N    0.402302
     5  C   -0.262979
     6  C    0.228720
     7  C    0.018388
     8  C    0.050933
     9  O   -1.168388
    10  C    0.682093
    11  C   -0.043549
    12  H   -0.045536
    13  H   -0.111410
    14  H   -0.189293
    15  H   -0.070962
    16  H   -0.004130
    17  H    0.011857
    18  H   -0.104912
    19  H   -0.031738
    20  H   -0.013531
    21  H   -0.045266
    22  H   -0.115732
    23  H    0.046947
    24  H   -0.028527
    25  H   -0.068829
 Sum of APT charges =  -1.00000
 APT charges with hydrogens summed into heavy atoms:
               1
     1  O   -1.014772
     2  C    1.773498
     3  C   -0.940720
     4  N    0.402302
     5  C   -0.374389
     6  C    0.039427
     7  C   -0.044847
     8  C   -0.099248
     9  O   -1.168388
    10  C    0.521095
    11  C   -0.093958
 Electronic spatial extent (au):  <R**2>=           3242.3859
 Charge=             -1.0000 electrons
 Dipole moment (field-independent basis, Debye):
    X=              0.7127    Y=             -0.9495    Z=              0.8583  Tot=              1.4650
 Quadrupole moment (field-independent basis, Debye-Ang):
   XX=            -93.3651   YY=            -79.0537   ZZ=            -73.4031
   XY=              1.1726   XZ=             -0.5593   YZ=              0.3007
 Traceless Quadrupole moment (field-independent basis, Debye-Ang):
   XX=            -11.4245   YY=              2.8870   ZZ=              8.5375
   XY=              1.1726   XZ=             -0.5593   YZ=              0.3007
 Octapole moment (field-independent basis, Debye-Ang**2):
  XXX=            -46.9620  YYY=             -2.2452  ZZZ=             -2.5376  XYY=             -1.6200
  XXY=              0.8923  XXZ=            -10.8059  XZZ=             -7.5226  YZZ=              3.3170
  YYZ=              1.1224  XYZ=              1.6129
 Hexadecapole moment (field-independent basis, Debye-Ang**3):
 XXXX=          -4255.8378 YYYY=           -403.0543 ZZZZ=           -237.7067 XXXY=              7.8275
 XXXZ=              6.5973 YYYX=             -0.3181 YYYZ=             -0.0266 ZZZX=              8.7928
 ZZZY=             -2.7405 XXYY=           -759.8441 XXZZ=           -727.0721 YYZZ=           -105.4595
 XXYZ=              1.0434 YYXZ=             -2.9689 ZZXY=              5.5912
 N-N= 5.967436328441D+02 E-N=-2.412884811848D+03  KE= 5.127246458031D+02
  Exact polarizability:     200.236     -11.117      99.493       1.390      -0.088      78.634
 Approx polarizability:     189.404     -17.557     124.277       0.867      -0.161      94.588
   1 Symmetry operations used in ECPInt.
 ECPInt:  NShTT=    5886 NPrTT=   20688 LenC2=    5347 LenP2D=   14006.
 LDataN:  DoStor=T MaxTD1= 6 Len=  172
 Calling FoFJK, ICntrl=    100127 FMM=F ISym2X=0 I1Cent= 0 IOpClX= 0 NMat=1 NMatS=1 NMatT=0.
 Full mass-weighted force constant matrix:
 Low frequencies ---   -6.6119   -3.2902    0.0008    0.0009    0.0010    5.1182
 Low frequencies ---   32.8031   50.7636   72.6078
 Diagonal vibrational polarizability:
       63.3101013      19.1199053      66.9318633
 Harmonic frequencies (cm**-1), IR intensities (KM/Mole), Raman scattering
 activities (A**4/AMU), depolarization ratios for plane and unpolarized
 incident light, reduced masses (AMU), force constants (mDyne/A),
 and normal coordinates:
                      1                      2                      3
                      A                      A                      A
 Frequencies --     32.6975                50.7612                72.6059
 Red. masses --      2.7182                 4.2871                 3.9116
 Frc consts  --      0.0017                 0.0065                 0.0121
 IR Inten    --      0.2455                 5.0508                 3.5680
  Atom  AN      X      Y      Z        X      Y      Z        X      Y      Z
     1   8     0.02   0.02   0.07     0.02   0.02   0.27    -0.13   0.08  -0.13
     2   6     0.01   0.02  -0.02     0.02   0.01   0.15    -0.04   0.10  -0.03
     3   6     0.00   0.01  -0.09     0.01   0.01   0.11    -0.01   0.16   0.07
     4   7     0.01  -0.01  -0.04     0.02  -0.00   0.10     0.00   0.15   0.03
     5   6    -0.00  -0.02  -0.06     0.01  -0.01  -0.01    -0.04   0.07   0.11
     6   6     0.01  -0.04   0.02     0.02  -0.03  -0.07     0.03  -0.07   0.01
     7   6     0.02  -0.02  -0.16     0.05  -0.02  -0.18     0.21  -0.04  -0.06
     8   6    -0.14   0.07   0.20     0.03   0.04  -0.04     0.03  -0.12  -0.01
     9   8     0.00   0.03  -0.08     0.02   0.02   0.03     0.02   0.01  -0.02
    10   6     0.01   0.04   0.03     0.02   0.02  -0.14    -0.03  -0.10   0.01
    11   6     0.07  -0.11   0.10    -0.22  -0.05  -0.19    -0.05  -0.18   0.04
    12   1    -0.01   0.01  -0.15     0.01   0.01   0.00     0.01   0.15   0.17
    13   1    -0.02  -0.02  -0.10    -0.00  -0.01  -0.07    -0.14   0.06   0.22
    14   1     0.12  -0.16   0.11     0.00  -0.11  -0.06    -0.04  -0.18  -0.01
    15   1     0.03  -0.05  -0.06     0.06  -0.04  -0.20     0.27  -0.15  -0.17
    16   1    -0.14   0.08  -0.27     0.04   0.06  -0.20     0.31   0.07  -0.04
    17   1     0.16  -0.09  -0.31     0.07  -0.06  -0.21     0.20  -0.02  -0.04
    18   1    -0.12   0.04   0.27     0.04   0.01  -0.10     0.08  -0.24  -0.09
    19   1    -0.15   0.06   0.34     0.01   0.03   0.04    -0.11  -0.14   0.03
    20   1    -0.25   0.20   0.12     0.06   0.12  -0.05     0.11  -0.02   0.00
    21   1    -0.01   0.12   0.13     0.13   0.05  -0.10    -0.11  -0.07   0.05
    22   1    -0.01   0.09  -0.02     0.08   0.04  -0.29     0.02  -0.14  -0.00
    23   1     0.09  -0.15   0.16    -0.27  -0.07  -0.03    -0.11  -0.13   0.05
    24   1     0.09  -0.18   0.01    -0.34  -0.08  -0.22     0.04  -0.21   0.01
    25   1     0.07  -0.10   0.19    -0.21  -0.04  -0.33    -0.09  -0.27   0.08
                      4                      5                      6
                      A                      A                      A
 Frequencies --     83.9146               142.9123               186.4059
 Red. masses --      3.3348                 3.3725                 3.6447
 Frc consts  --      0.0138                 0.0406                 0.0746
 IR Inten    --      0.5952                 3.6442                 0.2890
  Atom  AN      X      Y      Z        X      Y      Z        X      Y      Z
     1   8    -0.06  -0.01   0.03    -0.10  -0.04   0.17     0.03   0.01  -0.13
     2   6     0.01  -0.00   0.03    -0.05  -0.04   0.03     0.03   0.01   0.06
     3   6     0.04   0.05  -0.11    -0.02   0.02   0.03     0.01   0.01   0.31
     4   7     0.03   0.07  -0.10    -0.03   0.05   0.09     0.01   0.02   0.17
     5   6     0.02   0.06  -0.18    -0.04   0.05   0.03     0.00   0.02  -0.18
     6   6     0.04   0.01  -0.01    -0.02  -0.00  -0.00    -0.01   0.03  -0.09
     7   6     0.09   0.01   0.04     0.06   0.01  -0.03    -0.06   0.01   0.00
     8   6    -0.13  -0.08   0.09    -0.01  -0.02  -0.02    -0.14  -0.06  -0.02
     9   8     0.05  -0.06   0.19    -0.01  -0.07  -0.18     0.03   0.00  -0.04
    10   6     0.01  -0.12   0.04    -0.02  -0.09  -0.04     0.04   0.01  -0.03
    11   6    -0.08   0.10  -0.06     0.22   0.15  -0.05     0.07  -0.04  -0.01
    12   1     0.07   0.05  -0.14     0.03   0.01  -0.10     0.02   0.01   0.27
    13   1    -0.01   0.06  -0.28    -0.06   0.05  -0.04     0.00   0.02  -0.40
    14   1     0.15   0.03   0.05    -0.05  -0.05  -0.01     0.07   0.08  -0.05
    15   1     0.12  -0.03   0.22     0.08  -0.04  -0.07    -0.05   0.02   0.32
    16   1    -0.05  -0.02  -0.02     0.09   0.06  -0.03    -0.33  -0.09  -0.12
    17   1     0.23   0.08  -0.04     0.07   0.02  -0.04     0.16   0.09  -0.14
    18   1    -0.10  -0.13   0.24     0.02  -0.09  -0.07    -0.14  -0.04   0.16
    19   1    -0.17  -0.08   0.05    -0.08  -0.03   0.01    -0.12  -0.05  -0.11
    20   1    -0.25  -0.11   0.03     0.04   0.04  -0.01    -0.29  -0.15  -0.07
    21   1    -0.01  -0.24  -0.11    -0.19  -0.21  -0.19     0.04   0.03  -0.01
    22   1     0.06  -0.23   0.14    -0.07  -0.18   0.22     0.03   0.02  -0.05
    23   1    -0.14   0.21  -0.17     0.22   0.27  -0.33     0.09  -0.06  -0.00
    24   1    -0.06   0.23   0.09     0.42   0.28   0.10     0.09  -0.07  -0.05
    25   1    -0.11   0.04  -0.19     0.17   0.05   0.06     0.08  -0.03   0.04
                      7                      8                      9
                      A                      A                      A
 Frequencies --    210.2175               229.9193               259.2498
 Red. masses --      2.0727                 1.0931                 1.3836
 Frc consts  --      0.0540                 0.0340                 0.0548
 IR Inten    --      5.3500                 0.2892                 1.6917
  Atom  AN      X      Y      Z        X      Y      Z        X      Y      Z
     1   8     0.02  -0.10  -0.02    -0.01  -0.01  -0.01    -0.06   0.03   0.02
     2   6    -0.02  -0.11  -0.00    -0.01  -0.01  -0.01    -0.00   0.04   0.00
     3   6    -0.00  -0.07   0.02    -0.00  -0.00  -0.03     0.01   0.06  -0.01
     4   7    -0.04   0.03   0.00    -0.00   0.00   0.01     0.02   0.04  -0.02
     5   6    -0.01   0.09  -0.01    -0.00   0.01   0.02    -0.01  -0.02   0.02
     6   6     0.01   0.06  -0.00     0.00   0.00   0.01    -0.01  -0.03   0.00
     7   6     0.15   0.08  -0.00     0.00  -0.00   0.02    -0.07  -0.04  -0.01
     8   6    -0.05  -0.03   0.00     0.06   0.01  -0.02     0.01  -0.01  -0.00
     9   8    -0.07  -0.05  -0.00    -0.02  -0.01   0.00     0.04  -0.02   0.01
    10   6    -0.01   0.08  -0.00    -0.01   0.01   0.01     0.03  -0.05  -0.01
    11   6    -0.00   0.02   0.02    -0.01   0.01   0.01     0.05  -0.00  -0.02
    12   1     0.08  -0.08   0.03     0.01  -0.00  -0.05    -0.00   0.06   0.01
    13   1     0.02   0.09  -0.00     0.00   0.01  -0.02    -0.06  -0.02   0.07
    14   1     0.00   0.02   0.00    -0.02   0.00  -0.00    -0.01  -0.03   0.00
    15   1     0.19  -0.01  -0.15     0.04  -0.04   0.48    -0.09   0.00   0.02
    16   1     0.32   0.15   0.07    -0.43  -0.05  -0.20    -0.12  -0.06  -0.03
    17   1     0.08   0.12   0.07     0.38   0.09  -0.26    -0.06  -0.08  -0.03
    18   1    -0.00  -0.14   0.02     0.13  -0.19  -0.25    -0.05   0.13   0.08
    19   1    -0.17  -0.04   0.01    -0.16  -0.03   0.13     0.17   0.02  -0.09
    20   1    -0.04   0.02  -0.00     0.25   0.25   0.01    -0.06  -0.15  -0.00
    21   1     0.13   0.14   0.08     0.00   0.01   0.01     0.03  -0.06  -0.02
    22   1    -0.08   0.20  -0.10    -0.02   0.02  -0.00     0.03  -0.06   0.01
    23   1     0.22  -0.28   0.20     0.03  -0.05   0.04     0.36  -0.35   0.12
    24   1    -0.40  -0.07  -0.08    -0.09  -0.00  -0.00    -0.46  -0.05  -0.06
    25   1     0.16   0.40  -0.05     0.02   0.08  -0.01     0.27   0.49  -0.13
                     10                     11                     12
                      A                      A                      A
 Frequencies --    271.2387               290.5516               327.6394
 Red. masses --      1.3650                 1.9582                 3.1902
 Frc consts  --      0.0592                 0.0974                 0.2018
 IR Inten    --      1.3878                 1.1664                 5.1135
  Atom  AN      X      Y      Z        X      Y      Z        X      Y      Z
     1   8    -0.04  -0.02  -0.01     0.06  -0.02   0.05     0.08  -0.02  -0.04
     2   6    -0.03  -0.02  -0.01     0.02  -0.03   0.02     0.03  -0.02  -0.06
     3   6    -0.01  -0.01  -0.00     0.01  -0.02   0.03     0.01  -0.01  -0.19
     4   7     0.01  -0.02   0.03    -0.03   0.05  -0.15    -0.04   0.07   0.25
     5   6     0.02  -0.01  -0.01    -0.04   0.05   0.13    -0.06   0.05   0.09
     6   6     0.04  -0.01   0.01    -0.04   0.03   0.00    -0.07   0.02   0.07
     7   6     0.08  -0.00  -0.01    -0.03   0.04  -0.03    -0.06   0.03  -0.10
     8   6     0.07   0.03   0.01    -0.07  -0.08  -0.04    -0.02  -0.09  -0.03
     9   8    -0.05   0.00  -0.03     0.02  -0.01   0.01     0.04  -0.01   0.08
    10   6    -0.05   0.02   0.01     0.04   0.02  -0.02     0.06   0.01   0.00
    11   6    -0.04   0.02   0.02     0.03  -0.01  -0.02     0.01  -0.01  -0.01
    12   1    -0.02  -0.01  -0.04     0.06  -0.02   0.26     0.08  -0.01  -0.52
    13   1     0.04  -0.01  -0.08    -0.05   0.04   0.56    -0.09   0.06  -0.38
    14   1     0.05  -0.02   0.02    -0.08   0.02  -0.02    -0.16  -0.05   0.03
    15   1     0.12  -0.06   0.18    -0.01   0.01   0.18    -0.07   0.03  -0.17
    16   1    -0.10   0.02  -0.11    -0.25   0.06  -0.16    -0.09   0.18  -0.15
    17   1     0.27   0.05  -0.14     0.17   0.05  -0.20    -0.05  -0.10  -0.17
    18   1    -0.10   0.43   0.26    -0.11   0.02   0.14    -0.04  -0.04   0.03
    19   1     0.51   0.10  -0.25     0.03  -0.05  -0.26     0.03  -0.07  -0.26
    20   1    -0.15  -0.39  -0.00    -0.18  -0.33  -0.03    -0.01  -0.31   0.02
    21   1    -0.06   0.02   0.02     0.10   0.04  -0.00     0.13   0.02   0.02
    22   1    -0.06   0.03   0.03     0.04   0.05  -0.07     0.06   0.04  -0.05
    23   1    -0.06   0.04   0.01    -0.05   0.07  -0.04    -0.04   0.04  -0.00
    24   1    -0.01   0.03   0.03     0.18  -0.02  -0.03     0.07  -0.01  -0.01
    25   1    -0.05  -0.01   0.03    -0.03  -0.15   0.03    -0.02  -0.09  -0.01
                     13                     14                     15
                      A                      A                      A
 Frequencies --    363.8055               382.1783               412.7308
 Red. masses --      2.7062                 2.7526                 3.6041
 Frc consts  --      0.2110                 0.2369                 0.3617
 IR Inten    --     11.1702                 1.3323                 3.3379
  Atom  AN      X      Y      Z        X      Y      Z        X      Y      Z
     1   8     0.16   0.07   0.01     0.10   0.05   0.00     0.15  -0.07   0.00
     2   6     0.04   0.06  -0.03     0.01   0.04   0.02     0.05  -0.08  -0.04
     3   6    -0.02  -0.05   0.00    -0.07  -0.04  -0.04     0.08   0.03   0.03
     4   7    -0.00  -0.09   0.02    -0.10  -0.03   0.01    -0.00   0.23  -0.00
     5   6     0.03  -0.01   0.04    -0.11  -0.04   0.01    -0.08   0.07  -0.02
     6   6    -0.00   0.07   0.01    -0.12  -0.05  -0.06    -0.03  -0.11  -0.06
     7   6     0.03   0.08  -0.03     0.13  -0.03   0.08    -0.04  -0.15   0.04
     8   6    -0.04  -0.05  -0.02    -0.06   0.14  -0.05     0.00   0.07  -0.00
     9   8     0.01   0.07  -0.10     0.04   0.03   0.09     0.00  -0.04  -0.13
    10   6    -0.10  -0.16   0.08     0.02  -0.06  -0.05    -0.00  -0.02   0.09
    11   6    -0.09   0.01   0.03     0.08  -0.05  -0.05    -0.12   0.05   0.06
    12   1    -0.09  -0.05  -0.01    -0.11  -0.03  -0.06     0.30   0.02   0.03
    13   1     0.14  -0.01   0.08    -0.12  -0.04  -0.04    -0.30   0.07  -0.01
    14   1    -0.01   0.07   0.00    -0.17  -0.07  -0.08    -0.04  -0.14  -0.06
    15   1     0.04   0.06  -0.02     0.27  -0.28   0.20    -0.05  -0.12   0.09
    16   1    -0.00   0.15  -0.06     0.19  -0.06   0.12    -0.02  -0.30   0.09
    17   1     0.07   0.06  -0.08     0.26   0.27   0.12    -0.09  -0.06   0.13
    18   1    -0.00  -0.14   0.05    -0.15   0.34  -0.10    -0.07   0.23  -0.05
    19   1    -0.14  -0.05  -0.12     0.15   0.15   0.10     0.18   0.08   0.18
    20   1    -0.05  -0.11  -0.01    -0.10   0.20  -0.08    -0.04   0.17  -0.04
    21   1    -0.42  -0.25  -0.06     0.01  -0.09  -0.09    -0.08  -0.02   0.10
    22   1    -0.01  -0.36   0.29     0.06  -0.11  -0.03    -0.02  -0.02   0.13
    23   1     0.03  -0.09   0.01     0.17  -0.11  -0.10    -0.22   0.13   0.11
    24   1    -0.36   0.11   0.15     0.10  -0.07  -0.08    -0.23   0.14   0.17
    25   1     0.01   0.24  -0.13     0.11   0.02   0.05    -0.13   0.01  -0.17
                     16                     17                     18
                      A                      A                      A
 Frequencies --    455.1981               508.8152               642.0417
 Red. masses --      3.2602                 2.7958                 3.2845
 Frc consts  --      0.3980                 0.4265                 0.7977
 IR Inten    --      1.6071                 1.8313                 2.0559
  Atom  AN      X      Y      Z        X      Y      Z        X      Y      Z
     1   8     0.15   0.01   0.00    -0.03   0.02  -0.00    -0.01   0.04   0.00
     2   6    -0.03  -0.02   0.06     0.02   0.02   0.01    -0.04   0.03  -0.02
     3   6    -0.03  -0.01   0.05    -0.06  -0.03   0.07    -0.15  -0.12  -0.01
     4   7    -0.06   0.09  -0.08    -0.10  -0.03  -0.08    -0.18  -0.05   0.02
     5   6    -0.04   0.09  -0.13    -0.10  -0.02  -0.13    -0.03   0.20   0.02
     6   6     0.04  -0.02   0.11    -0.11   0.00   0.16     0.19   0.01  -0.11
     7   6    -0.04  -0.02  -0.03     0.02   0.05  -0.01     0.02  -0.06  -0.01
     8   6     0.15  -0.05   0.08     0.08  -0.02   0.04     0.08  -0.03   0.05
     9   8    -0.10   0.04   0.09     0.11  -0.03  -0.08     0.06   0.01  -0.01
    10   6    -0.15  -0.04  -0.09     0.16  -0.00   0.07     0.10  -0.02   0.03
    11   6     0.06  -0.05  -0.05    -0.02   0.02   0.02     0.02  -0.01  -0.01
    12   1     0.06  -0.02   0.13    -0.12  -0.03   0.18    -0.24  -0.11  -0.10
    13   1    -0.11   0.09  -0.19    -0.09  -0.01  -0.24     0.06   0.19   0.12
    14   1     0.11  -0.02   0.15    -0.04   0.02   0.19     0.13  -0.11  -0.12
    15   1    -0.11   0.09  -0.13     0.09  -0.10  -0.13    -0.19   0.32   0.11
    16   1    -0.08   0.09  -0.07     0.05   0.34  -0.06    -0.13  -0.43   0.00
    17   1    -0.10  -0.23  -0.08     0.09  -0.02  -0.11    -0.16  -0.17   0.07
    18   1     0.13  -0.02  -0.08     0.04   0.05  -0.23     0.11  -0.07   0.28
    19   1     0.19  -0.04   0.00     0.15  -0.00  -0.08     0.04  -0.04   0.16
    20   1     0.32  -0.11   0.17     0.36  -0.12   0.19    -0.15   0.05  -0.07
    21   1    -0.19  -0.09  -0.16     0.17   0.03   0.11     0.10  -0.01   0.04
    22   1    -0.10  -0.12  -0.03     0.13   0.05   0.03     0.09  -0.01   0.01
    23   1     0.26  -0.17  -0.20    -0.18   0.13   0.14    -0.07   0.05   0.06
    24   1     0.19  -0.11  -0.13    -0.15   0.09   0.11    -0.06   0.03   0.04
    25   1     0.12   0.07   0.27    -0.06  -0.06  -0.27     0.00  -0.05  -0.18
                     19                     20                     21
                      A                      A                      A
 Frequencies --    702.7400               715.9873               767.4573
 Red. masses --      3.0768                 1.1736                10.4633
 Frc consts  --      0.8952                 0.3545                 3.6310
 IR Inten    --     30.2718                11.7984                15.4559
  Atom  AN      X      Y      Z        X      Y      Z        X      Y      Z
     1   8    -0.14  -0.11  -0.01     0.00   0.01   0.02     0.02   0.01  -0.24
     2   6     0.07  -0.07   0.02    -0.00   0.00  -0.00    -0.02   0.01   0.82
     3   6     0.08  -0.14  -0.01    -0.00   0.00  -0.11    -0.01   0.02  -0.25
     4   7    -0.02   0.02  -0.00    -0.00  -0.00   0.03     0.00  -0.00  -0.04
     5   6    -0.01   0.05   0.00     0.01   0.01   0.03     0.00  -0.00   0.06
     6   6    -0.03  -0.01   0.02     0.01   0.00  -0.01     0.01   0.00  -0.00
     7   6    -0.00  -0.03   0.00     0.00  -0.01  -0.00     0.00  -0.00  -0.00
     8   6    -0.01   0.00  -0.01    -0.00   0.00  -0.00     0.00   0.00  -0.01
     9   8     0.09   0.25   0.01    -0.00  -0.01  -0.01    -0.02  -0.03  -0.17
    10   6     0.00   0.07  -0.02    -0.00  -0.00  -0.00     0.02   0.01  -0.00
    11   6    -0.00  -0.00  -0.01     0.00  -0.00  -0.00     0.02   0.00   0.01
    12   1     0.19  -0.15   0.08    -0.02  -0.00   0.93    -0.03   0.02  -0.31
    13   1    -0.03   0.06  -0.06     0.02   0.01  -0.34     0.02  -0.00  -0.05
    14   1    -0.03  -0.03   0.02    -0.03  -0.03  -0.02    -0.04  -0.02  -0.03
    15   1     0.01  -0.06  -0.01    -0.01   0.02   0.01    -0.01   0.02   0.01
    16   1     0.00  -0.01  -0.00    -0.00  -0.03   0.00    -0.00  -0.03   0.00
    17   1     0.00  -0.03  -0.01    -0.01  -0.01   0.01    -0.01  -0.00   0.01
    18   1    -0.03   0.04  -0.07     0.00  -0.01   0.03     0.01  -0.01   0.05
    19   1     0.02   0.01  -0.01    -0.02  -0.00   0.00    -0.02  -0.00   0.01
    20   1     0.03  -0.00   0.01    -0.04   0.01  -0.02    -0.05   0.01  -0.03
    21   1    -0.43  -0.16  -0.32     0.02   0.00   0.01    -0.07  -0.00  -0.02
    22   1     0.21  -0.34   0.37    -0.01   0.01  -0.01    -0.02  -0.00   0.09
    23   1    -0.01  -0.09   0.21     0.00   0.00  -0.01    -0.09   0.06   0.12
    24   1    -0.02  -0.19  -0.24     0.00   0.01   0.01    -0.08   0.00   0.02
    25   1    -0.02  -0.04   0.08     0.00   0.00  -0.00    -0.00  -0.04  -0.12
                     22                     23                     24
                      A                      A                      A
 Frequencies --    804.4248               840.5925               863.9486
 Red. masses --      1.3117                 2.6575                 1.6033
 Frc consts  --      0.5001                 1.1064                 0.7051
 IR Inten    --      4.4727                11.8023                23.2359
  Atom  AN      X      Y      Z        X      Y      Z        X      Y      Z
     1   8     0.04   0.01   0.01    -0.00  -0.05  -0.00     0.00  -0.00  -0.00
     2   6    -0.03   0.01  -0.02    -0.01  -0.04   0.00    -0.00  -0.00   0.01
     3   6    -0.03   0.06   0.00     0.00   0.03  -0.02    -0.00  -0.00  -0.09
     4   7     0.00   0.00   0.01    -0.02   0.05   0.02    -0.00   0.00   0.13
     5   6    -0.01  -0.04  -0.00    -0.11  -0.16  -0.01    -0.00   0.00  -0.16
     6   6     0.01  -0.00  -0.02     0.01  -0.05  -0.12     0.00  -0.00   0.00
     7   6    -0.00   0.03  -0.00    -0.03   0.21  -0.02     0.00  -0.01   0.01
     8   6     0.02  -0.01   0.01     0.13  -0.08   0.08    -0.02   0.00   0.01
     9   8    -0.03  -0.07   0.01     0.03   0.07  -0.00    -0.00   0.00  -0.00
    10   6     0.04   0.05  -0.00     0.00  -0.01   0.01     0.00  -0.00   0.00
    11   6     0.03   0.04  -0.02    -0.00  -0.02  -0.00     0.00  -0.00  -0.00
    12   1    -0.05   0.06   0.01     0.08   0.02   0.04    -0.00  -0.00   0.22
    13   1    -0.04  -0.04   0.02    -0.35  -0.17   0.08    -0.03  -0.02   0.90
    14   1     0.01   0.01  -0.02    -0.04   0.01  -0.16     0.18   0.09   0.08
    15   1    -0.00   0.04   0.01    -0.02   0.20   0.08     0.01  -0.03  -0.02
    16   1     0.00   0.01   0.00     0.03   0.08   0.05     0.00   0.04  -0.00
    17   1    -0.00   0.05   0.01    -0.03   0.43   0.08     0.02  -0.03  -0.02
    18   1     0.03  -0.03   0.06     0.16  -0.11   0.36    -0.04   0.04  -0.13
    19   1     0.00  -0.01   0.03     0.12  -0.10   0.32     0.05   0.01  -0.04
    20   1    -0.02   0.00  -0.01    -0.12   0.05  -0.06     0.12  -0.02   0.07
    21   1    -0.10  -0.22  -0.35    -0.02   0.06   0.09    -0.00   0.00   0.01
    22   1    -0.07  -0.08   0.46     0.08  -0.03  -0.10     0.00  -0.00  -0.00
    23   1    -0.15  -0.01   0.49     0.04   0.00  -0.16    -0.00   0.00  -0.00
    24   1    -0.04  -0.28  -0.39    -0.00   0.09   0.12    -0.00   0.00   0.01
    25   1    -0.07  -0.20  -0.05     0.03   0.05  -0.03     0.00  -0.00  -0.01
                     25                     26                     27
                      A                      A                      A
 Frequencies --    906.2530               914.3661               955.7138
 Red. masses --      2.2641                 1.1704                 1.8107
 Frc consts  --      1.0956                 0.5765                 0.9744
 IR Inten    --     58.0073                 1.3245               110.3851
  Atom  AN      X      Y      Z        X      Y      Z        X      Y      Z
     1   8    -0.03   0.06  -0.00    -0.00   0.01  -0.00    -0.03   0.05   0.00
     2   6     0.12   0.06   0.01     0.01   0.01   0.00     0.07   0.05   0.00
     3   6     0.04  -0.08  -0.00    -0.00  -0.02  -0.00     0.05  -0.08   0.00
     4   7    -0.02  -0.01   0.00    -0.01   0.00   0.00     0.03  -0.01  -0.00
     5   6    -0.02   0.03  -0.01    -0.00   0.01  -0.01     0.04   0.06   0.01
     6   6    -0.03  -0.02  -0.03     0.02  -0.01   0.02    -0.05  -0.06  -0.02
     7   6    -0.01   0.04  -0.03     0.00  -0.01   0.08     0.01   0.09  -0.01
     8   6     0.01  -0.03   0.04     0.02  -0.04  -0.06    -0.05  -0.11   0.01
     9   8     0.07  -0.11  -0.02     0.01  -0.01  -0.00    -0.07  -0.02   0.01
    10   6    -0.04  -0.01  -0.11    -0.00  -0.00  -0.02    -0.02   0.01   0.05
    11   6    -0.13   0.10   0.11    -0.02   0.01   0.02     0.05  -0.03  -0.05
    12   1    -0.01  -0.07   0.00    -0.01  -0.01   0.00     0.06  -0.08  -0.00
    13   1    -0.03   0.03   0.03    -0.02   0.01   0.03     0.11   0.06  -0.01
    14   1    -0.04  -0.15  -0.00    -0.13   0.34  -0.14    -0.09  -0.23  -0.01
    15   1    -0.01   0.04   0.08    -0.00  -0.02  -0.20    -0.07   0.24   0.05
    16   1     0.03  -0.13   0.03    -0.10   0.44  -0.09    -0.05  -0.04  -0.00
    17   1    -0.04   0.19   0.07     0.10  -0.37  -0.18    -0.07   0.09   0.06
    18   1    -0.01   0.02  -0.03    -0.05   0.12   0.13    -0.25   0.31  -0.34
    19   1     0.08  -0.02   0.04     0.12  -0.06   0.35     0.40  -0.09   0.35
    20   1     0.09  -0.03   0.07    -0.28   0.26  -0.25     0.13   0.16   0.04
    21   1     0.11  -0.10  -0.22     0.02  -0.01  -0.03    -0.05   0.04   0.09
    22   1     0.00  -0.03  -0.13     0.00  -0.01  -0.02    -0.15   0.10   0.09
    23   1     0.10  -0.11   0.10     0.01  -0.02   0.02    -0.05   0.04   0.01
    24   1     0.16  -0.08  -0.11     0.02  -0.01  -0.01    -0.05  -0.01  -0.03
    25   1    -0.09   0.18   0.75    -0.01   0.03   0.11     0.02  -0.09  -0.28
                     28                     29                     30
                      A                      A                      A
 Frequencies --    964.0488              1002.9544              1085.3014
 Red. masses --      1.7768                 2.4072                 1.5579
 Frc consts  --      0.9729                 1.4267                 1.0811
 IR Inten    --     55.0868                84.5985                10.3373
  Atom  AN      X      Y      Z        X      Y      Z        X      Y      Z
     1   8     0.03  -0.05  -0.00     0.05  -0.07   0.00    -0.00   0.02   0.00
     2   6    -0.06  -0.05  -0.00    -0.13  -0.07  -0.00    -0.04   0.00  -0.00
     3   6    -0.04   0.09   0.00    -0.06   0.15  -0.00    -0.02  -0.05  -0.00
     4   7    -0.00  -0.01  -0.00     0.02  -0.06   0.00    -0.01   0.04  -0.00
     5   6    -0.03  -0.06   0.01     0.10   0.11   0.01     0.01  -0.02   0.08
     6   6     0.06  -0.03   0.04    -0.08   0.01  -0.05     0.11  -0.03  -0.09
     7   6     0.11   0.07   0.02    -0.08  -0.02  -0.03    -0.07   0.01   0.03
     8   6    -0.10   0.00  -0.05     0.01  -0.10   0.05    -0.07  -0.01   0.02
     9   8     0.05   0.03  -0.01     0.05   0.04  -0.01    -0.01   0.01   0.00
    10   6     0.02  -0.00  -0.03     0.04  -0.00  -0.03     0.02  -0.02  -0.04
    11   6    -0.04   0.02   0.03    -0.03   0.01   0.04     0.01   0.01   0.03
    12   1    -0.06   0.09  -0.01    -0.20   0.15  -0.00     0.05  -0.06  -0.01
    13   1    -0.03  -0.06  -0.06     0.43   0.12   0.01    -0.22  -0.03  -0.15
    14   1     0.12  -0.18   0.11    -0.11   0.02  -0.07     0.60   0.28   0.11
    15   1    -0.19   0.60   0.03     0.10  -0.35   0.01     0.07  -0.23  -0.10
    16   1    -0.18  -0.13  -0.08     0.11   0.02   0.06     0.08   0.29   0.04
    17   1    -0.13  -0.33   0.03     0.05   0.29   0.01     0.12   0.11  -0.08
    18   1    -0.19   0.18  -0.32    -0.11   0.16  -0.12    -0.12   0.08  -0.31
    19   1     0.10   0.02  -0.03     0.30  -0.09   0.31     0.12   0.02  -0.09
    20   1     0.09   0.06   0.01     0.10   0.09   0.05     0.21  -0.03   0.15
    21   1     0.02  -0.03  -0.06     0.04  -0.04  -0.07     0.05  -0.03  -0.04
    22   1     0.13  -0.09  -0.06     0.18  -0.12  -0.06     0.02  -0.02  -0.05
    23   1     0.04  -0.03  -0.02     0.03  -0.02  -0.01    -0.04   0.03   0.08
    24   1     0.03   0.01   0.03     0.02   0.02   0.05    -0.04   0.02   0.06
    25   1    -0.01   0.07   0.18    -0.01   0.06   0.15    -0.00  -0.01  -0.01
                     31                     32                     33
                      A                      A                      A
 Frequencies --   1104.4551              1143.2706              1161.2122
 Red. masses --      2.2136                 2.2260                 1.9247
 Frc consts  --      1.5909                 1.7142                 1.5291
 IR Inten    --      9.0495                 7.0915                98.8933
  Atom  AN      X      Y      Z        X      Y      Z        X      Y      Z
     1   8     0.00  -0.02  -0.00     0.01   0.04  -0.00     0.00   0.09  -0.00
     2   6     0.03  -0.00   0.01    -0.09  -0.02   0.00    -0.17  -0.02   0.00
     3   6    -0.01   0.04  -0.00    -0.04  -0.06   0.00     0.02  -0.08  -0.00
     4   7    -0.02  -0.01  -0.00     0.03   0.03   0.00     0.03   0.03   0.00
     5   6    -0.01   0.00   0.02     0.06   0.03  -0.03     0.01  -0.05   0.00
     6   6     0.03   0.01  -0.04     0.09  -0.14   0.15    -0.06   0.06  -0.03
     7   6    -0.01  -0.01   0.01    -0.08   0.07  -0.02     0.05  -0.03  -0.01
     8   6    -0.02  -0.01   0.02     0.00   0.02  -0.12     0.00  -0.01   0.04
     9   8     0.06  -0.03  -0.03    -0.01   0.02  -0.02    -0.02   0.04  -0.02
    10   6    -0.03   0.06   0.23     0.05  -0.03   0.05     0.05  -0.08   0.05
    11   6    -0.08   0.00  -0.17    -0.03   0.02  -0.02    -0.02   0.05  -0.02
    12   1    -0.15   0.05  -0.01     0.10  -0.08   0.00     0.69  -0.14   0.00
    13   1    -0.04   0.00  -0.04    -0.04   0.02   0.05     0.13  -0.04   0.00
    14   1     0.16   0.12   0.01     0.06  -0.50   0.21    -0.13   0.19  -0.09
    15   1     0.02  -0.06  -0.04     0.04  -0.13   0.10    -0.02   0.08  -0.00
    16   1     0.01   0.06   0.00     0.13   0.15   0.08    -0.06  -0.15  -0.04
    17   1     0.04  -0.01  -0.03     0.02   0.37   0.04    -0.05  -0.14   0.02
    18   1    -0.03   0.02  -0.09    -0.01   0.05   0.06     0.01  -0.01   0.01
    19   1     0.05   0.00  -0.02    -0.17   0.00  -0.02     0.06  -0.01   0.05
    20   1     0.09  -0.02   0.07    -0.34   0.14  -0.31     0.10  -0.04   0.09
    21   1    -0.01   0.05   0.23     0.16  -0.05   0.02     0.34  -0.08   0.07
    22   1    -0.02   0.06   0.22     0.09  -0.03  -0.01     0.07  -0.01  -0.11
    23   1     0.27  -0.25  -0.39     0.07  -0.07  -0.03     0.06  -0.07   0.09
    24   1     0.30  -0.20  -0.42     0.09  -0.06  -0.12     0.08  -0.11  -0.21
    25   1    -0.02   0.10   0.27    -0.02   0.02   0.14    -0.05  -0.03   0.16
                     34                     35                     36
                      A                      A                      A
 Frequencies --   1187.3473              1193.2020              1197.1484
 Red. masses --      1.8749                 1.7300                 3.2200
 Frc consts  --      1.5574                 1.4512                 2.7190
 IR Inten    --     12.9965                46.2982               678.0843
  Atom  AN      X      Y      Z        X      Y      Z        X      Y      Z
     1   8     0.01   0.08   0.00    -0.00  -0.01  -0.00     0.01   0.04  -0.00
     2   6    -0.07  -0.01  -0.00     0.01  -0.00   0.00    -0.11  -0.04   0.00
     3   6    -0.00  -0.04   0.00     0.00   0.01   0.00     0.04   0.04  -0.00
     4   7     0.00   0.00   0.00    -0.03   0.00  -0.00    -0.06  -0.08  -0.00
     5   6     0.00  -0.01   0.00    -0.03  -0.04   0.01     0.00   0.05  -0.00
     6   6    -0.00   0.02   0.02     0.03   0.10   0.13    -0.00  -0.08  -0.04
     7   6     0.00  -0.01  -0.02     0.01  -0.03  -0.12    -0.02   0.03   0.05
     8   6    -0.00  -0.01  -0.01    -0.00  -0.07  -0.06     0.01   0.03   0.00
     9   8     0.01  -0.09   0.01     0.05  -0.01   0.00     0.23  -0.06   0.02
    10   6     0.05   0.18  -0.02    -0.07  -0.00  -0.01    -0.26   0.06  -0.02
    11   6    -0.05  -0.11   0.02     0.02   0.02   0.00     0.07   0.03   0.01
    12   1     0.36  -0.07   0.01     0.04   0.00   0.00     0.56  -0.02   0.01
    13   1     0.03  -0.02  -0.00    -0.12  -0.04  -0.03     0.12   0.04   0.01
    14   1     0.02   0.07   0.01     0.27   0.48   0.18     0.05  -0.26   0.02
    15   1     0.01  -0.01   0.03     0.05  -0.10   0.21    -0.02   0.03  -0.07
    16   1     0.01  -0.07   0.00     0.14  -0.44   0.05    -0.03   0.23  -0.01
    17   1    -0.02   0.02   0.02    -0.11   0.20   0.10     0.06  -0.01  -0.04
    18   1    -0.01   0.02   0.00    -0.11   0.18   0.00     0.05  -0.07   0.01
    19   1     0.02  -0.01   0.03     0.10  -0.07   0.23    -0.07   0.03  -0.09
    20   1    -0.01   0.03  -0.02    -0.12   0.21  -0.18    -0.03  -0.07   0.00
    21   1    -0.34  -0.01  -0.27    -0.01   0.05   0.07    -0.09   0.17   0.16
    22   1     0.24  -0.18   0.33    -0.10   0.06  -0.05    -0.26   0.12  -0.09
    23   1     0.05  -0.01  -0.42    -0.03   0.03   0.08    -0.10   0.12   0.16
    24   1     0.04   0.17   0.34    -0.05  -0.03  -0.05    -0.18  -0.06  -0.10
    25   1     0.09   0.21  -0.06    -0.01  -0.06  -0.06    -0.02  -0.17  -0.23
                     37                     38                     39
                      A                      A                      A
 Frequencies --   1267.9584              1306.0525              1330.5479
 Red. masses --      2.9304                 1.2918                 1.2562
 Frc consts  --      2.7758                 1.2983                 1.3103
 IR Inten    --     42.5266                50.1105                75.8408
  Atom  AN      X      Y      Z        X      Y      Z        X      Y      Z
     1   8    -0.01  -0.03   0.00    -0.00  -0.01   0.00     0.00  -0.00   0.00
     2   6     0.09   0.04   0.00     0.02   0.01   0.00    -0.03  -0.01   0.00
     3   6     0.13   0.17   0.00    -0.00  -0.01  -0.00     0.03  -0.00   0.00
     4   7    -0.13  -0.21  -0.00    -0.03   0.06   0.00     0.01  -0.02  -0.00
     5   6    -0.08   0.09   0.01    -0.01  -0.04   0.02     0.03   0.04   0.01
     6   6     0.02  -0.01  -0.00    -0.11  -0.02  -0.04    -0.06  -0.08   0.00
     7   6    -0.02  -0.00   0.00     0.02  -0.00   0.02     0.03  -0.00  -0.02
     8   6     0.02  -0.00  -0.02     0.04   0.01  -0.05     0.02   0.02   0.02
     9   8    -0.12   0.03  -0.00    -0.01   0.00   0.00     0.03   0.04  -0.01
    10   6     0.09  -0.04   0.01     0.01  -0.00   0.00    -0.01   0.00  -0.01
    11   6    -0.02  -0.01  -0.01    -0.00  -0.01  -0.00    -0.02  -0.05   0.01
    12   1     0.80   0.11   0.01    -0.04   0.00  -0.00    -0.14   0.00  -0.00
    13   1    -0.16   0.06  -0.01     0.62  -0.00  -0.01    -0.16   0.04  -0.01
    14   1     0.28  -0.04   0.15     0.60  -0.10   0.35     0.07   0.30  -0.01
    15   1    -0.01  -0.01   0.00    -0.03   0.07  -0.05    -0.05   0.15   0.04
    16   1     0.04   0.05   0.02    -0.08   0.03  -0.04    -0.04   0.02  -0.05
    17   1     0.04   0.05  -0.02    -0.02  -0.04   0.02    -0.06   0.08   0.08
    18   1     0.01   0.02   0.02     0.08  -0.07   0.18     0.02  -0.01  -0.05
    19   1    -0.03  -0.01   0.01    -0.02  -0.02   0.16    -0.10   0.01  -0.05
    20   1    -0.08   0.03  -0.07    -0.07  -0.04  -0.08    -0.09  -0.05  -0.02
    21   1     0.03  -0.07  -0.04     0.00  -0.01  -0.01     0.48  -0.23  -0.27
    22   1     0.00   0.03   0.01    -0.03   0.02   0.02    -0.43   0.24   0.33
    23   1     0.01  -0.04   0.01    -0.01  -0.00   0.00     0.00  -0.01  -0.14
    24   1     0.07   0.04   0.05     0.01   0.02   0.02     0.00   0.06   0.14
    25   1     0.02   0.06   0.08     0.01   0.02   0.02     0.03   0.06  -0.00
                     40                     41                     42
                      A                      A                      A
 Frequencies --   1333.3096              1342.4921              1358.0480
 Red. masses --      1.4858                 1.3292                 1.2911
 Frc consts  --      1.5562                 1.4114                 1.4030
 IR Inten    --     54.8820                11.4538                18.0629
  Atom  AN      X      Y      Z        X      Y      Z        X      Y      Z
     1   8     0.00   0.01  -0.00    -0.00  -0.02   0.00     0.00  -0.00   0.00
     2   6    -0.03   0.00  -0.00     0.04   0.02   0.00    -0.03   0.00  -0.00
     3   6     0.03  -0.01   0.00    -0.03   0.01   0.00    -0.01  -0.01   0.00
     4   7     0.01  -0.03   0.00    -0.05   0.04  -0.00     0.02  -0.00   0.00
     5   6     0.05   0.06   0.01    -0.04  -0.04  -0.01     0.02   0.01   0.00
     6   6    -0.09  -0.13   0.00     0.08  -0.07   0.03    -0.02  -0.00  -0.00
     7   6     0.04  -0.00  -0.03    -0.01  -0.04  -0.03     0.01   0.02   0.00
     8   6     0.04   0.03   0.02    -0.01   0.01   0.05     0.00   0.00  -0.01
     9   8    -0.03  -0.03   0.00    -0.00   0.00   0.00     0.01  -0.00   0.01
    10   6     0.00   0.01   0.01     0.01  -0.01  -0.01     0.02  -0.01  -0.01
    11   6     0.02   0.04   0.00     0.00  -0.01  -0.03     0.02  -0.04  -0.14
    12   1    -0.14  -0.00  -0.00     0.17   0.01   0.00    -0.01  -0.01  -0.00
    13   1    -0.20   0.06  -0.01     0.61  -0.03   0.01    -0.15   0.01  -0.00
    14   1     0.15   0.47   0.01    -0.25   0.30  -0.22     0.03  -0.00   0.02
    15   1    -0.09   0.25   0.07    -0.13   0.21   0.11     0.03  -0.04  -0.01
    16   1    -0.06   0.05  -0.09     0.13   0.19  -0.01    -0.04  -0.06  -0.00
    17   1    -0.09   0.13   0.14     0.05   0.27   0.06    -0.03  -0.06  -0.00
    18   1     0.04  -0.02  -0.07    -0.04   0.03  -0.23     0.01  -0.02   0.04
    19   1    -0.16   0.01  -0.08    -0.06   0.03  -0.21     0.00  -0.00   0.04
    20   1    -0.15  -0.08  -0.04    -0.09   0.03  -0.01     0.02  -0.03   0.01
    21   1    -0.29   0.13   0.16    -0.08   0.04   0.05    -0.17   0.15   0.20
    22   1     0.41  -0.24  -0.28    -0.08   0.06   0.04    -0.10   0.05   0.14
    23   1     0.01   0.01   0.07    -0.05  -0.01   0.08    -0.28  -0.00   0.45
    24   1     0.00  -0.07  -0.12     0.00   0.06   0.06    -0.07   0.34   0.32
    25   1    -0.02  -0.05  -0.04     0.01   0.03   0.10     0.08   0.12   0.54
                     43                     44                     45
                      A                      A                      A
 Frequencies --   1374.8708              1392.1495              1416.0122
 Red. masses --      1.4017                 1.4140                 1.4048
 Frc consts  --      1.5611                 1.6146                 1.6595
 IR Inten    --      4.0309                 7.3899                68.7948
  Atom  AN      X      Y      Z        X      Y      Z        X      Y      Z
     1   8    -0.00  -0.00   0.00    -0.00  -0.01   0.00    -0.00   0.01   0.00
     2   6     0.01   0.00   0.00     0.02   0.01   0.00     0.02  -0.01  -0.00
     3   6     0.00   0.01   0.00    -0.01   0.01   0.00     0.05   0.00   0.00
     4   7    -0.01  -0.01  -0.00    -0.03   0.01   0.00    -0.03   0.00   0.00
     5   6     0.00   0.02  -0.00     0.01   0.00  -0.00    -0.03  -0.01  -0.00
     6   6     0.03  -0.08   0.04     0.01  -0.09   0.01     0.02   0.00   0.00
     7   6    -0.01   0.02  -0.02    -0.01   0.16   0.00    -0.01   0.01  -0.00
     8   6    -0.10   0.07  -0.10     0.01   0.02   0.03    -0.00  -0.00   0.00
     9   8    -0.00   0.00   0.00    -0.00  -0.00   0.00    -0.02  -0.01  -0.02
    10   6     0.00  -0.00  -0.00     0.01  -0.01  -0.00    -0.10   0.07   0.09
    11   6    -0.00   0.00   0.00    -0.01   0.00   0.01     0.06  -0.04  -0.05
    12   1     0.03   0.01   0.00     0.06   0.01   0.00    -0.11   0.02  -0.00
    13   1     0.08   0.02  -0.01     0.21   0.00  -0.00     0.11  -0.00   0.00
    14   1    -0.10   0.24  -0.10    -0.04   0.21  -0.09    -0.03  -0.01  -0.02
    15   1     0.00   0.02   0.12     0.29  -0.42  -0.01     0.01  -0.02   0.02
    16   1     0.09  -0.02   0.04    -0.06  -0.48   0.12     0.06  -0.03   0.04
    17   1    -0.03   0.01  -0.01    -0.14  -0.45  -0.18     0.03  -0.04  -0.06
    18   1     0.12  -0.35   0.38     0.02  -0.03  -0.20     0.00  -0.01  -0.03
    19   1     0.29   0.06   0.41    -0.07   0.02  -0.11     0.02   0.00  -0.02
    20   1     0.41  -0.32   0.22    -0.17  -0.06  -0.04    -0.01   0.01  -0.00
    21   1    -0.00  -0.00  -0.01    -0.04   0.00   0.00     0.48  -0.29  -0.33
    22   1    -0.00   0.01  -0.01    -0.03   0.03  -0.00     0.44  -0.27  -0.27
    23   1     0.01  -0.00  -0.01     0.02  -0.01  -0.03    -0.18   0.12   0.09
    24   1     0.01  -0.01  -0.01     0.03  -0.02  -0.02    -0.22   0.10   0.12
    25   1    -0.00  -0.00  -0.02    -0.00   0.00  -0.04     0.06  -0.02   0.16
                     46                     47                     48
                      A                      A                      A
 Frequencies --   1445.7088              1449.7652              1454.1429
 Red. masses --      1.0470                 1.0467                 1.0669
 Frc consts  --      1.2893                 1.2962                 1.3292
 IR Inten    --      1.7442                26.7036                 1.0804
  Atom  AN      X      Y      Z        X      Y      Z        X      Y      Z
     1   8    -0.00   0.00   0.00     0.00  -0.01   0.00     0.00   0.01   0.00
     2   6     0.00  -0.00  -0.00    -0.01   0.01  -0.00    -0.02  -0.01  -0.00
     3   6    -0.00  -0.00  -0.00     0.00  -0.00  -0.00     0.03  -0.00  -0.00
     4   7     0.00  -0.00   0.00    -0.00   0.00   0.00     0.00   0.00   0.00
     5   6    -0.00  -0.00   0.00     0.00  -0.00  -0.00    -0.01  -0.00   0.00
     6   6    -0.01   0.02  -0.02     0.00   0.00   0.00    -0.02   0.02  -0.02
     7   6     0.01  -0.00  -0.04     0.00  -0.00   0.00    -0.04  -0.01  -0.01
     8   6    -0.01   0.00   0.02    -0.00  -0.00   0.00     0.03   0.01  -0.00
     9   8    -0.00   0.00   0.00     0.01   0.00  -0.00    -0.00   0.00   0.00
    10   6     0.00  -0.00  -0.00    -0.02  -0.01   0.02    -0.00  -0.01  -0.02
    11   6    -0.00   0.00   0.00    -0.03  -0.03   0.01    -0.01   0.00   0.00
    12   1    -0.00  -0.00  -0.00    -0.01  -0.00  -0.00    -0.07  -0.00  -0.00
    13   1    -0.03   0.00   0.00    -0.01  -0.00   0.00    -0.02  -0.00   0.00
    14   1     0.04  -0.09   0.03    -0.01  -0.01  -0.00     0.01  -0.03   0.01
    15   1     0.08  -0.11   0.63     0.00  -0.00  -0.01    -0.14   0.22   0.24
    16   1     0.18   0.40  -0.04    -0.01   0.01  -0.01     0.50  -0.03   0.27
    17   1    -0.39  -0.30   0.15    -0.01   0.01   0.01     0.27  -0.20  -0.34
    18   1     0.08  -0.18  -0.07    -0.00  -0.00   0.01    -0.04   0.14  -0.16
    19   1     0.20   0.03  -0.09     0.01   0.00  -0.01    -0.22  -0.04   0.25
    20   1    -0.11   0.09  -0.05     0.01   0.02   0.00    -0.09  -0.31   0.02
    21   1    -0.00   0.00   0.00    -0.03  -0.08  -0.08     0.05   0.09   0.10
    22   1    -0.00  -0.00   0.00     0.01   0.05  -0.17     0.01  -0.07   0.11
    23   1     0.00  -0.00  -0.00    -0.28   0.09   0.28    -0.01   0.00   0.01
    24   1    -0.00   0.00   0.00     0.58  -0.07  -0.06     0.05  -0.02  -0.02
    25   1    -0.00  -0.00   0.00     0.24   0.55  -0.29     0.01   0.04  -0.02
                     49                     50                     51
                      A                      A                      A
 Frequencies --   1461.0462              1465.3223              1474.7146
 Red. masses --      1.1165                 1.0574                 1.0955
 Frc consts  --      1.4042                 1.3377                 1.4037
 IR Inten    --      2.1847                 2.6142                23.9386
  Atom  AN      X      Y      Z        X      Y      Z        X      Y      Z
     1   8    -0.00   0.01   0.00    -0.00  -0.00   0.00     0.00   0.01  -0.00
     2   6     0.00  -0.01  -0.00     0.01   0.00  -0.00    -0.03  -0.01   0.00
     3   6     0.04   0.00   0.00    -0.00   0.00  -0.00     0.05  -0.01   0.00
     4   7    -0.01  -0.00  -0.00    -0.00   0.00   0.00    -0.00  -0.00  -0.00
     5   6    -0.02  -0.00  -0.00    -0.00   0.00   0.00    -0.00   0.01   0.00
     6   6     0.01  -0.00   0.01     0.00  -0.04  -0.02    -0.04  -0.03   0.00
     7   6     0.00   0.00   0.00     0.00   0.02  -0.01    -0.02   0.01   0.00
     8   6    -0.01  -0.00   0.01     0.01  -0.04  -0.02    -0.03  -0.02   0.01
     9   8    -0.02   0.00  -0.00    -0.00  -0.00  -0.00     0.00  -0.00   0.00
    10   6    -0.03  -0.01  -0.07    -0.01   0.00  -0.01     0.02  -0.00   0.01
    11   6    -0.01  -0.00   0.01     0.00  -0.00   0.00    -0.01   0.01  -0.00
    12   1    -0.08   0.01  -0.00     0.01   0.00   0.00    -0.11   0.00  -0.00
    13   1     0.05   0.00   0.00     0.06   0.00  -0.00     0.01   0.01  -0.00
    14   1    -0.00   0.01   0.00    -0.01   0.05  -0.05     0.04   0.05   0.03
    15   1     0.01  -0.03  -0.08     0.05  -0.06   0.18    -0.10   0.18   0.01
    16   1    -0.08  -0.04  -0.03     0.04   0.09  -0.01     0.27  -0.14   0.19
    17   1    -0.00   0.05   0.03    -0.13  -0.12   0.03     0.25  -0.08  -0.25
    18   1     0.05  -0.14  -0.00    -0.20   0.47   0.43     0.07  -0.18   0.25
    19   1     0.17   0.03  -0.10    -0.43  -0.06  -0.15     0.30   0.05  -0.42
    20   1    -0.04   0.12  -0.03     0.43   0.20   0.13     0.10   0.50  -0.05
    21   1     0.39   0.33   0.39     0.07   0.05   0.06    -0.11  -0.04  -0.05
    22   1     0.13  -0.42   0.47     0.03  -0.07   0.07    -0.05   0.09  -0.06
    23   1    -0.08   0.08  -0.02    -0.02   0.02  -0.01     0.07  -0.08   0.03
    24   1     0.07  -0.07  -0.08     0.00  -0.01  -0.01     0.03   0.04   0.04
    25   1     0.05   0.13  -0.04     0.01   0.02  -0.00    -0.03  -0.05  -0.02
                     52                     53                     54
                      A                      A                      A
 Frequencies --   1489.1047              1514.0911              1673.0725
 Red. masses --      1.0741                 2.9149                 8.4015
 Frc consts  --      1.4033                 3.9372                13.8559
 IR Inten    --     13.7461               479.3042               541.3513
  Atom  AN      X      Y      Z        X      Y      Z        X      Y      Z
     1   8     0.00  -0.01   0.00     0.01   0.08  -0.00     0.02  -0.12   0.00
     2   6     0.01   0.01  -0.00    -0.15  -0.07  -0.00    -0.02   0.21  -0.00
     3   6    -0.04   0.00  -0.00     0.33  -0.02   0.00     0.08   0.01   0.00
     4   7     0.01   0.00   0.00    -0.10  -0.01  -0.00    -0.44   0.15  -0.00
     5   6     0.01   0.00   0.00    -0.08  -0.03  -0.01     0.54  -0.20  -0.01
     6   6    -0.01  -0.01  -0.00     0.07   0.03   0.01    -0.05   0.03   0.01
     7   6    -0.00   0.00   0.00     0.00   0.00  -0.00     0.01  -0.01   0.00
     8   6    -0.00  -0.00   0.00    -0.00  -0.00  -0.01    -0.02  -0.01  -0.00
     9   8     0.00   0.00   0.00    -0.00   0.00   0.01    -0.01  -0.02  -0.00
    10   6     0.03  -0.02   0.01     0.07  -0.03  -0.00    -0.00   0.01  -0.00
    11   6     0.04  -0.03   0.02    -0.00   0.00   0.01    -0.00   0.00   0.00
    12   1     0.07  -0.01   0.00    -0.61   0.03  -0.01     0.12  -0.01   0.00
    13   1    -0.04   0.00  -0.00     0.21  -0.00   0.01    -0.41  -0.20   0.01
    14   1     0.02   0.01   0.01    -0.10  -0.08  -0.07    -0.24  -0.21  -0.08
    15   1    -0.03   0.04   0.01     0.09  -0.16  -0.02    -0.04   0.08   0.02
    16   1     0.05  -0.02   0.03    -0.15   0.06  -0.09     0.02   0.03  -0.00
    17   1     0.05  -0.01  -0.05    -0.13   0.04   0.13     0.02   0.00   0.00
    18   1     0.01  -0.03   0.03    -0.05   0.10  -0.06    -0.02   0.01   0.02
    19   1     0.04   0.01  -0.05    -0.09  -0.02   0.09     0.03  -0.00   0.03
    20   1    -0.00   0.05  -0.01     0.03  -0.10   0.03     0.06   0.01   0.03
    21   1    -0.10  -0.01   0.02    -0.31  -0.02   0.01     0.06   0.04   0.02
    22   1    -0.07   0.09  -0.03    -0.15   0.23  -0.07     0.06  -0.07   0.05
    23   1    -0.36   0.50  -0.34    -0.06   0.10  -0.10     0.04  -0.01  -0.06
    24   1    -0.34  -0.28  -0.29    -0.08  -0.08  -0.09    -0.03  -0.00  -0.00
    25   1     0.14   0.26   0.27     0.02   0.06   0.12    -0.01  -0.04  -0.01
                     55                     56                     57
                      A                      A                      A
 Frequencies --   1804.2692              2948.3966              2965.8546
 Red. masses --     11.3425                 1.0822                 1.0813
 Frc consts  --     21.7551                 5.5428                 5.6039
 IR Inten    --    700.2923               117.4099               135.0407
  Atom  AN      X      Y      Z        X      Y      Z        X      Y      Z
     1   8     0.08  -0.40   0.00     0.00  -0.00   0.00     0.00   0.00  -0.00
     2   6    -0.31   0.70  -0.00    -0.00   0.00  -0.00     0.00  -0.00   0.00
     3   6     0.13  -0.15   0.00     0.00  -0.00  -0.00    -0.00   0.00  -0.00
     4   7     0.17  -0.03   0.00    -0.00   0.00  -0.00     0.00  -0.00  -0.00
     5   6    -0.22   0.06  -0.00     0.00   0.02   0.00     0.00  -0.08  -0.00
     6   6     0.03   0.01   0.00     0.03  -0.01  -0.07     0.01  -0.01  -0.02
     7   6    -0.01   0.00  -0.00    -0.00  -0.00   0.00    -0.00  -0.00   0.00
     8   6     0.00  -0.00   0.00    -0.00   0.00   0.00    -0.00   0.00   0.00
     9   8     0.04  -0.05  -0.00     0.00   0.00   0.00     0.00   0.00  -0.00
    10   6    -0.01   0.04   0.00     0.00   0.00   0.00     0.00   0.00   0.00
    11   6     0.00  -0.00   0.01     0.00  -0.00  -0.00     0.00  -0.00  -0.00
    12   1     0.01  -0.17  -0.00    -0.00   0.00   0.00     0.01  -0.03  -0.00
    13   1     0.13   0.08   0.00     0.01  -0.31  -0.00    -0.03   0.95   0.02
    14   1     0.00  -0.01  -0.02    -0.44   0.17   0.82    -0.14   0.05   0.26
    15   1     0.02  -0.04  -0.01     0.03   0.01   0.00     0.03   0.02  -0.00
    16   1    -0.02   0.01  -0.00     0.01  -0.01  -0.03    -0.00   0.00   0.01
    17   1    -0.02   0.01   0.01    -0.01   0.00  -0.01    -0.01   0.00  -0.01
    18   1    -0.00   0.02  -0.02     0.03   0.01  -0.00     0.03   0.02  -0.00
    19   1     0.00  -0.00   0.00    -0.00  -0.02  -0.00    -0.00  -0.04  -0.01
    20   1    -0.01   0.00   0.00     0.02  -0.01  -0.04    -0.00   0.00   0.00
    21   1     0.11   0.06   0.00     0.00   0.00  -0.00     0.00   0.00  -0.00
    22   1     0.12  -0.11   0.07    -0.00  -0.00  -0.00    -0.00  -0.00  -0.00
    23   1     0.07  -0.01  -0.11     0.00   0.00   0.00     0.00   0.00   0.00
    24   1    -0.05   0.00  -0.00    -0.00  -0.00   0.00     0.00  -0.00   0.00
    25   1    -0.02  -0.05  -0.02    -0.00   0.00  -0.00    -0.00   0.00  -0.00
                     58                     59                     60
                      A                      A                      A
 Frequencies --   3028.1430              3043.3299              3044.7679
 Red. masses --      1.0365                 1.0559                 1.0415
 Frc consts  --      5.5997                 5.7617                 5.6888
 IR Inten    --     84.4462                94.9073                64.5824
  Atom  AN      X      Y      Z        X      Y      Z        X      Y      Z
     1   8    -0.00   0.00   0.00     0.00  -0.00   0.00    -0.00   0.00  -0.00
     2   6     0.00  -0.00   0.00     0.00   0.00  -0.00     0.00  -0.00   0.00
     3   6    -0.00  -0.00   0.00    -0.00  -0.00  -0.00    -0.00  -0.00  -0.00
     4   7     0.00  -0.00  -0.00     0.00   0.00   0.00     0.00   0.00   0.00
     5   6     0.00   0.00  -0.00    -0.00   0.00  -0.00     0.00   0.00  -0.00
     6   6     0.00  -0.00   0.00    -0.00   0.00   0.00    -0.00   0.00   0.00
     7   6     0.00   0.01   0.00    -0.00  -0.01  -0.00    -0.02  -0.05  -0.01
     8   6    -0.04   0.01  -0.03    -0.00  -0.00  -0.00    -0.00   0.00  -0.00
     9   8    -0.00  -0.00   0.00    -0.00   0.00   0.00     0.00  -0.00  -0.00
    10   6    -0.00  -0.00  -0.00    -0.04  -0.01  -0.04     0.00   0.00   0.00
    11   6    -0.00   0.00   0.00     0.02  -0.01  -0.02    -0.00   0.00   0.00
    12   1     0.00   0.01   0.00     0.00   0.00  -0.00     0.00   0.01  -0.00
    13   1     0.00  -0.04  -0.00    -0.00  -0.00  -0.00    -0.00  -0.03  -0.00
    14   1     0.01  -0.00  -0.02     0.00  -0.00  -0.00     0.02  -0.01  -0.03
    15   1    -0.09  -0.04   0.00     0.09   0.05  -0.00     0.69   0.36  -0.03
    16   1     0.02  -0.01  -0.05    -0.03   0.01   0.05    -0.22   0.09   0.40
    17   1     0.03  -0.01   0.03    -0.03   0.02  -0.03    -0.22   0.11  -0.26
    18   1     0.62   0.29  -0.03     0.00   0.00   0.00     0.06   0.03  -0.00
    19   1     0.04  -0.50  -0.05     0.00  -0.00   0.00     0.01  -0.06  -0.00
    20   1    -0.22   0.10   0.46    -0.00   0.00   0.00    -0.03   0.01   0.06
    21   1    -0.00  -0.01   0.01    -0.02  -0.36   0.27     0.00   0.04  -0.03
    22   1     0.01   0.01   0.01     0.50   0.51   0.25    -0.05  -0.05  -0.03
    23   1    -0.00  -0.00  -0.00     0.10   0.10   0.04    -0.03  -0.03  -0.01
    24   1    -0.00   0.00  -0.00     0.01  -0.18   0.15    -0.00   0.04  -0.04
    25   1     0.00  -0.00  -0.00    -0.33   0.15  -0.01     0.07  -0.03   0.00
                     61                     62                     63
                      A                      A                      A
 Frequencies --   3050.6936              3101.7059              3102.5331
 Red. masses --      1.0429                 1.0996                 1.0907
 Frc consts  --      5.7184                 6.2326                 6.1857
 IR Inten    --     89.5792                 1.4210                90.5827
  Atom  AN      X      Y      Z        X      Y      Z        X      Y      Z
     1   8     0.00  -0.00   0.00    -0.00   0.00  -0.00    -0.00   0.00  -0.00
     2   6     0.00   0.00  -0.00     0.00  -0.00  -0.00    -0.00  -0.00  -0.00
     3   6    -0.00   0.00  -0.00     0.00   0.05   0.00    -0.00  -0.07  -0.00
     4   7     0.00   0.00   0.00     0.00   0.00   0.00    -0.00  -0.00  -0.00
     5   6    -0.00  -0.00  -0.00    -0.00   0.00   0.00     0.00  -0.00  -0.00
     6   6     0.00  -0.00  -0.00     0.00  -0.00   0.00    -0.00   0.00  -0.00
     7   6     0.00   0.00   0.00     0.00  -0.00  -0.00    -0.00   0.00   0.00
     8   6     0.00  -0.00   0.00    -0.00  -0.00  -0.00     0.00   0.00   0.00
     9   8    -0.00   0.00   0.00     0.00  -0.00   0.00     0.00   0.00   0.00
    10   6    -0.02  -0.00  -0.03    -0.03  -0.07   0.02    -0.02  -0.04   0.02
    11   6    -0.02   0.01   0.04    -0.00   0.02  -0.01    -0.00   0.01  -0.00
    12   1     0.00  -0.00  -0.00    -0.04  -0.54  -0.00     0.07   0.84   0.01
    13   1    -0.00   0.00   0.00     0.01  -0.02  -0.00    -0.01   0.02   0.00
    14   1    -0.00   0.00   0.01     0.00  -0.00  -0.00    -0.00   0.00   0.00
    15   1    -0.03  -0.02   0.00    -0.00  -0.00   0.00     0.01   0.00  -0.00
    16   1     0.01  -0.00  -0.02    -0.00   0.00   0.01     0.01  -0.00  -0.01
    17   1     0.01  -0.01   0.01    -0.00   0.00  -0.00     0.01  -0.00   0.01
    18   1    -0.01  -0.00   0.00     0.01   0.00  -0.00    -0.01  -0.01   0.00
    19   1    -0.00   0.01   0.00    -0.00   0.00   0.00     0.00  -0.01  -0.00
    20   1     0.01  -0.00  -0.01    -0.00   0.00   0.00     0.00  -0.00  -0.00
    21   1    -0.01  -0.21   0.16     0.02   0.55  -0.43     0.01   0.35  -0.28
    22   1     0.24   0.25   0.12     0.28   0.29   0.15     0.18   0.18   0.09
    23   1    -0.26  -0.27  -0.11    -0.05  -0.04  -0.02    -0.03  -0.03  -0.01
    24   1    -0.01   0.40  -0.32     0.00  -0.10   0.08     0.00  -0.07   0.05
    25   1     0.56  -0.25   0.00     0.10  -0.04   0.00     0.07  -0.03   0.00
                     64                     65                     66
                      A                      A                      A
 Frequencies --   3109.6718              3125.5309              3134.1798
 Red. masses --      1.1019                 1.1035                 1.0998
 Frc consts  --      6.2781                 6.3513                 6.3654
 IR Inten    --     69.7096                34.6276                50.9755
  Atom  AN      X      Y      Z        X      Y      Z        X      Y      Z
     1   8    -0.00   0.00  -0.00     0.00   0.00   0.00     0.00   0.00   0.00
     2   6     0.00  -0.00   0.00    -0.00   0.00  -0.00    -0.00  -0.00  -0.00
     3   6    -0.00  -0.00  -0.00     0.00  -0.00  -0.00    -0.00  -0.00  -0.00
     4   7     0.00  -0.00  -0.00    -0.00   0.00   0.00     0.00   0.00   0.00
     5   6    -0.00   0.00  -0.00    -0.00  -0.00   0.00     0.00  -0.00   0.00
     6   6    -0.00  -0.00   0.00     0.00  -0.00  -0.00     0.00  -0.00  -0.00
     7   6     0.00  -0.00  -0.00    -0.01   0.00   0.01     0.08   0.00  -0.05
     8   6    -0.06  -0.06   0.03     0.04  -0.06  -0.06     0.01  -0.00  -0.01
     9   8    -0.00  -0.00  -0.00     0.00   0.00   0.00     0.00   0.00  -0.00
    10   6     0.00   0.00   0.00    -0.00  -0.00   0.00    -0.00  -0.00   0.00
    11   6    -0.00   0.00  -0.00     0.00  -0.00   0.00     0.00  -0.00   0.00
    12   1     0.00   0.02   0.00     0.00   0.00  -0.00     0.00   0.02   0.00
    13   1     0.00   0.00   0.00     0.00   0.01  -0.00    -0.00   0.00  -0.00
    14   1     0.01  -0.00  -0.02    -0.02   0.01   0.04    -0.02   0.01   0.04
    15   1    -0.02  -0.01  -0.00     0.05   0.03  -0.00    -0.48  -0.26   0.01
    16   1    -0.02   0.01   0.05     0.04  -0.02  -0.09    -0.35   0.16   0.69
    17   1    -0.00   0.00  -0.01     0.01  -0.01   0.02    -0.11   0.07  -0.16
    18   1     0.65   0.29  -0.03    -0.08  -0.05  -0.01    -0.05  -0.02   0.00
    19   1    -0.07   0.57   0.06    -0.06   0.64   0.05    -0.00   0.04   0.00
    20   1     0.15  -0.09  -0.35    -0.31   0.14   0.67    -0.04   0.02   0.09
    21   1     0.00   0.00  -0.00     0.00   0.00  -0.00     0.00   0.01  -0.01
    22   1    -0.00  -0.00  -0.00     0.00   0.00   0.00     0.00   0.00   0.00
    23   1     0.00   0.00   0.00    -0.00  -0.00  -0.00    -0.01  -0.01  -0.00
    24   1     0.00  -0.00   0.00    -0.00   0.00  -0.00    -0.00   0.04  -0.03
    25   1     0.00  -0.00   0.00    -0.00   0.00   0.00    -0.04   0.02   0.00
                     67                     68                     69
                      A                      A                      A
 Frequencies --   3134.9700              3169.9983              3176.9478
 Red. masses --      1.1023                 1.1008                 1.1034
 Frc consts  --      6.3827                 6.5172                 6.5613
 IR Inten    --     55.9626                13.2694                13.0100
  Atom  AN      X      Y      Z        X      Y      Z        X      Y      Z
     1   8     0.00  -0.00   0.00    -0.00  -0.00   0.00    -0.00   0.00   0.00
     2   6     0.00   0.00  -0.00     0.00   0.00   0.00     0.00  -0.00  -0.00
     3   6    -0.00   0.00   0.00     0.00   0.00   0.00    -0.00  -0.00  -0.00
     4   7     0.00   0.00   0.00    -0.00  -0.00   0.00     0.00   0.00  -0.00
     5   6    -0.00  -0.00   0.00    -0.00   0.00   0.00    -0.00  -0.00  -0.00
     6   6     0.00  -0.00  -0.00     0.00  -0.00  -0.00     0.00   0.00  -0.00
     7   6     0.01   0.00  -0.00    -0.04   0.01  -0.08     0.00   0.00   0.00
     8   6     0.00  -0.00  -0.00     0.00   0.00  -0.00     0.00   0.00  -0.00
     9   8    -0.00  -0.00   0.00    -0.00  -0.00   0.00     0.00   0.00  -0.00
    10   6     0.00   0.02  -0.01     0.00  -0.00   0.00    -0.01  -0.01   0.00
    11   6    -0.06   0.06  -0.04    -0.00  -0.00  -0.00    -0.06  -0.07  -0.00
    12   1    -0.00  -0.00  -0.00    -0.00  -0.01  -0.00     0.00   0.00   0.00
    13   1    -0.00  -0.00  -0.00     0.00  -0.00  -0.00    -0.00   0.00   0.00
    14   1    -0.00   0.00   0.00    -0.01   0.00   0.02    -0.00   0.00   0.00
    15   1    -0.03  -0.02   0.00     0.17   0.09  -0.01    -0.00  -0.00   0.00
    16   1    -0.02   0.01   0.05    -0.18   0.08   0.31     0.00  -0.00  -0.00
    17   1    -0.01   0.00  -0.01     0.54  -0.31   0.66    -0.00   0.00  -0.00
    18   1    -0.01  -0.00   0.00    -0.00  -0.00   0.00    -0.00  -0.00   0.00
    19   1    -0.00   0.00   0.00    -0.00  -0.00  -0.00     0.00   0.00   0.00
    20   1    -0.00   0.00   0.01    -0.00   0.00   0.01    -0.00   0.00   0.00
    21   1    -0.01  -0.15   0.12     0.00   0.00  -0.00     0.00   0.05  -0.04
    22   1    -0.03  -0.03  -0.02    -0.00  -0.00  -0.00     0.06   0.06   0.03
    23   1     0.10   0.13   0.04     0.00   0.00   0.00     0.59   0.61   0.27
    24   1     0.00  -0.55   0.45    -0.00   0.00  -0.00    -0.01   0.29  -0.24
    25   1     0.59  -0.25  -0.00     0.00  -0.00   0.00     0.19  -0.09   0.00

 -------------------
 - Thermochemistry -
 -------------------
 Temperature   298.150 Kelvin.  Pressure   1.00000 Atm.
 Atom     1 has atomic number  8 and mass  15.99491
 Atom     2 has atomic number  6 and mass  12.00000
 Atom     3 has atomic number  6 and mass  12.00000
 Atom     4 has atomic number  7 and mass  14.00307
 Atom     5 has atomic number  6 and mass  12.00000
 Atom     6 has atomic number  6 and mass  12.00000
 Atom     7 has atomic number  6 and mass  12.00000
 Atom     8 has atomic number  6 and mass  12.00000
 Atom     9 has atomic number  8 and mass  15.99491
 Atom    10 has atomic number  6 and mass  12.00000
 Atom    11 has atomic number  6 and mass  12.00000
 Atom    12 has atomic number  1 and mass   1.00783
 Atom    13 has atomic number  1 and mass   1.00783
 Atom    14 has atomic number  1 and mass   1.00783
 Atom    15 has atomic number  1 and mass   1.00783
 Atom    16 has atomic number  1 and mass   1.00783
 Atom    17 has atomic number  1 and mass   1.00783
 Atom    18 has atomic number  1 and mass   1.00783
 Atom    19 has atomic number  1 and mass   1.00783
 Atom    20 has atomic number  1 and mass   1.00783
 Atom    21 has atomic number  1 and mass   1.00783
 Atom    22 has atomic number  1 and mass   1.00783
 Atom    23 has atomic number  1 and mass   1.00783
 Atom    24 has atomic number  1 and mass   1.00783
 Atom    25 has atomic number  1 and mass   1.00783
 Molecular mass:   156.10245 amu.
 Principal axes and moments of inertia in atomic units:
                           1         2         3
     Eigenvalues --   541.491694877.292875078.42936
           X            1.00000   0.00002  -0.00167
           Y           -0.00002   1.00000  -0.00038
           Z            0.00167   0.00038   1.00000
 This molecule is an asymmetric top.
 Rotational symmetry number  1.
 Warning -- assumption of classical behavior for rotation
           may cause significant error
 Rotational temperatures (Kelvin)      0.15995     0.01776     0.01706
 Rotational constants (GHZ):           3.33291     0.37003     0.35537
 Zero-point vibrational energy     555801.2 (Joules/Mol)
                                  132.83968 (Kcal/Mol)
 Warning -- explicit consideration of  17 degrees of freedom as
           vibrations may cause significant error
 Vibrational temperatures:     47.04    73.03   104.46   120.73   205.62
          (Kelvin)            268.20   302.46   330.80   373.00   390.25
                              418.04   471.40   523.44   549.87   593.83
                              654.93   732.07   923.75  1011.09  1030.15
                             1104.20  1157.39  1209.43  1243.03  1303.90
                             1315.57  1375.06  1387.05  1443.03  1561.51
                             1589.06  1644.91  1670.73  1708.33  1716.75
                             1722.43  1824.31  1879.12  1914.36  1918.34
                             1931.55  1953.93  1978.13  2002.99  2037.33
                             2080.05  2085.89  2092.19  2102.12  2108.27
                             2121.79  2142.49  2178.44  2407.18  2595.94
                             4242.09  4267.20  4356.82  4378.67  4380.74
                             4389.27  4462.66  4463.85  4474.12  4496.94
                             4509.39  4510.52  4560.92  4570.92
 
 Zero-point correction=                           0.211694 (Hartree/Particle)
 Thermal correction to Energy=                    0.224435
 Thermal correction to Enthalpy=                  0.225379
 Thermal correction to Gibbs Free Energy=         0.171799
 Sum of electronic and zero-point Energies=           -517.658917
 Sum of electronic and thermal Energies=              -517.646176
 Sum of electronic and thermal Enthalpies=            -517.645232
 Sum of electronic and thermal Free Energies=         -517.698812
 
                     E (Thermal)             CV                S
                      KCal/Mol        Cal/Mol-Kelvin    Cal/Mol-Kelvin
 Total                  140.835             45.909            112.769
 Electronic               0.000              0.000              0.000
 Translational            0.889              2.981             41.045
 Rotational               0.889              2.981             30.973
 Vibrational            139.057             39.947             40.750
 Vibration     1          0.594              1.983              5.659
 Vibration     2          0.595              1.977              4.788
 Vibration     3          0.599              1.967              4.081
 Vibration     4          0.601              1.960              3.797
 Vibration     5          0.616              1.910              2.765
 Vibration     6          0.632              1.858              2.263
 Vibration     7          0.642              1.825              2.042
 Vibration     8          0.652              1.795              1.880
 Vibration     9          0.668              1.747              1.667
 Vibration    10          0.675              1.726              1.588
 Vibration    11          0.687              1.691              1.471
 Vibration    12          0.711              1.620              1.272
 Vibration    13          0.737              1.547              1.106
 Vibration    14          0.752              1.508              1.031
 Vibration    15          0.777              1.443              0.917
 Vibration    16          0.814              1.349              0.780
 Vibration    17          0.864              1.230              0.636
                       Q            Log10(Q)             Ln(Q)
 Total Bot       0.950871D-79        -79.021879       -181.954600
 Total V=0       0.224021D+19         18.350289         42.253102
 Vib (Bot)       0.946144D-93        -93.024043       -214.195774
 Vib (Bot)    1  0.633107D+01          0.801477          1.845469
 Vib (Bot)    2  0.407215D+01          0.609824          1.404172
 Vib (Bot)    3  0.283955D+01          0.453250          1.043647
 Vib (Bot)    4  0.245268D+01          0.389641          0.897181
 Vib (Bot)    5  0.142167D+01          0.152799          0.351832
 Vib (Bot)    6  0.107507D+01          0.031437          0.072386
 Vib (Bot)    7  0.944730D+00         -0.024692         -0.056857
 Vib (Bot)    8  0.856671D+00         -0.067186         -0.154702
 Vib (Bot)    9  0.749482D+00         -0.125239         -0.288373
 Vib (Bot)   10  0.712063D+00         -0.147482         -0.339589
 Vib (Bot)   11  0.657974D+00         -0.181791         -0.418589
 Vib (Bot)   12  0.571105D+00         -0.243284         -0.560182
 Vib (Bot)   13  0.502533D+00         -0.298835         -0.688094
 Vib (Bot)   14  0.472370D+00         -0.325718         -0.749993
 Vib (Bot)   15  0.427784D+00         -0.368775         -0.849136
 Vib (Bot)   16  0.375137D+00         -0.425810         -0.980465
 Vib (Bot)   17  0.320475D+00         -0.494206         -1.137951
 Vib (V=0)       0.222908D+05          4.348125         10.011927
 Vib (V=0)    1  0.685078D+01          0.835740          1.924363
 Vib (V=0)    2  0.460273D+01          0.663016          1.526650
 Vib (V=0)    3  0.338324D+01          0.529333          1.218834
 Vib (V=0)    4  0.300312D+01          0.477573          1.099653
 Vib (V=0)    5  0.200703D+01          0.302554          0.696657
 Vib (V=0)    6  0.168565D+01          0.226768          0.522154
 Vib (V=0)    7  0.156888D+01          0.195591          0.450365
 Vib (V=0)    8  0.149191D+01          0.173742          0.400057
 Vib (V=0)    9  0.140096D+01          0.146425          0.337155
 Vib (V=0)   10  0.137008D+01          0.136745          0.314867
 Vib (V=0)   11  0.132640D+01          0.122673          0.282466
 Vib (V=0)   12  0.125905D+01          0.100044          0.230360
 Vib (V=0)   13  0.120890D+01          0.082390          0.189711
 Vib (V=0)   14  0.118785D+01          0.074760          0.172142
 Vib (V=0)   15  0.115803D+01          0.063719          0.146718
 Vib (V=0)   16  0.112508D+01          0.051184          0.117856
 Vib (V=0)   17  0.109389D+01          0.038973          0.089739
 Electronic      0.100000D+01          0.000000          0.000000
 Translational   0.766599D+08          7.884568         18.154890
 Rotational      0.131098D+07          6.117596         14.086284
 ***** Axes restored to original set *****
 -------------------------------------------------------------------
 Center     Atomic                   Forces (Hartrees/Bohr)
 Number     Number              X              Y              Z
 -------------------------------------------------------------------
      1        8          -0.000003379   -0.000006824   -0.000005407
      2        6           0.000018331    0.000019400    0.000017361
      3        6          -0.000003190   -0.000007950   -0.000002429
      4        7           0.000000746    0.000008246    0.000001297
      5        6           0.000000367   -0.000004428   -0.000006897
      6        6           0.000007106   -0.000001043    0.000004023
      7        6          -0.000004826    0.000004630   -0.000006904
      8        6          -0.000003301   -0.000000901    0.000003443
      9        8          -0.000021680   -0.000008712   -0.000011362
     10        6           0.000016548    0.000000374   -0.000007376
     11        6          -0.000005876    0.000002510    0.000005616
     12        1           0.000000725   -0.000000864    0.000002559
     13        1           0.000000996    0.000002950    0.000001248
     14        1          -0.000001798    0.000000694    0.000000177
     15        1          -0.000000211   -0.000001044    0.000003175
     16        1          -0.000001489   -0.000001300    0.000000167
     17        1           0.000002027    0.000000131    0.000003113
     18        1          -0.000001192    0.000001062    0.000000541
     19        1           0.000000172    0.000001666    0.000000492
     20        1           0.000000506    0.000001003   -0.000000169
     21        1          -0.000003161   -0.000001258    0.000003506
     22        1          -0.000000464   -0.000001816    0.000000827
     23        1           0.000000515   -0.000003414   -0.000002234
     24        1           0.000001459   -0.000001738   -0.000001651
     25        1           0.000001069   -0.000001375   -0.000003113
 -------------------------------------------------------------------
 Cartesian Forces:  Max     0.000021680 RMS     0.000006002
 FormGI is forming the generalized inverse of G from B-inverse, IUseBI=4.

 GradGradGradGradGradGradGradGradGradGradGradGradGradGradGradGradGradGrad
 Berny optimization.
 Internal  Forces:  Max     0.000017120 RMS     0.000002864
 Search for a local minimum.
 Step number   1 out of a maximum of    2
 All quantities printed in internal units (Hartrees-Bohrs-Radians)
 Second derivative matrix not updated -- analytic derivatives used.
 ITU=  0
     Eigenvalues ---    0.00122   0.00273   0.00310   0.00342   0.00627
     Eigenvalues ---    0.01537   0.01572   0.01772   0.02105   0.02896
     Eigenvalues ---    0.03814   0.03993   0.04251   0.04305   0.04360
     Eigenvalues ---    0.04413   0.04483   0.04512   0.04719   0.05159
     Eigenvalues ---    0.05189   0.06283   0.07631   0.10054   0.11351
     Eigenvalues ---    0.11597   0.11842   0.11879   0.12292   0.12314
     Eigenvalues ---    0.12339   0.13119   0.13550   0.13943   0.14770
     Eigenvalues ---    0.16315   0.16896   0.17916   0.18061   0.19075
     Eigenvalues ---    0.20232   0.21276   0.24971   0.27024   0.29240
     Eigenvalues ---    0.30226   0.30505   0.30968   0.31392   0.31888
     Eigenvalues ---    0.33155   0.33293   0.33503   0.33519   0.33903
     Eigenvalues ---    0.34109   0.34260   0.34416   0.34493   0.34559
     Eigenvalues ---    0.34833   0.35326   0.35766   0.39811   0.43329
     Eigenvalues ---    0.51767   0.55997   0.71768   0.81778
 Angle between quadratic step and forces=  78.42 degrees.
 Linear search not attempted -- first point.
 Iteration  1 RMS(Cart)=  0.00041448 RMS(Int)=  0.00000006
 Iteration  2 RMS(Cart)=  0.00000009 RMS(Int)=  0.00000000
 Variable       Old X    -DE/DX   Delta X   Delta X   Delta X     New X
                                 (Linear)    (Quad)   (Total)
    R1        2.31686   0.00001   0.00000   0.00002   0.00002   2.31688
    R2        2.66536   0.00000   0.00000   0.00001   0.00001   2.66537
    R3        2.66791  -0.00002   0.00000  -0.00010  -0.00010   2.66782
    R4        2.55499   0.00000   0.00000  -0.00001  -0.00001   2.55498
    R5        2.07827   0.00000   0.00000   0.00001   0.00001   2.07828
    R6        2.42484  -0.00000   0.00000  -0.00000  -0.00000   2.42483
    R7        2.85737   0.00000   0.00000  -0.00000  -0.00000   2.85737
    R8        2.10177   0.00000   0.00000   0.00001   0.00001   2.10179
    R9        2.88027   0.00000   0.00000   0.00000   0.00000   2.88028
   R10        2.89669   0.00000   0.00000   0.00001   0.00001   2.89670
   R11        2.10001   0.00000   0.00000   0.00001   0.00001   2.10002
   R12        2.08382  -0.00000   0.00000  -0.00000  -0.00000   2.08382
   R13        2.07909   0.00000   0.00000   0.00001   0.00001   2.07910
   R14        2.07373  -0.00000   0.00000  -0.00001  -0.00001   2.07373
   R15        2.08516   0.00000   0.00000   0.00000   0.00000   2.08516
   R16        2.08187   0.00000   0.00000   0.00000   0.00000   2.08187
   R17        2.08228  -0.00000   0.00000  -0.00000  -0.00000   2.08228
   R18        2.64396   0.00001   0.00000   0.00003   0.00003   2.64399
   R19        2.87882   0.00000   0.00000  -0.00001  -0.00001   2.87881
   R20        2.08187  -0.00000   0.00000  -0.00002  -0.00002   2.08185
   R21        2.08470  -0.00000   0.00000  -0.00001  -0.00001   2.08469
   R22        2.07452   0.00000   0.00000   0.00000   0.00000   2.07452
   R23        2.07938  -0.00000   0.00000  -0.00000  -0.00000   2.07938
   R24        2.08237   0.00000   0.00000   0.00001   0.00001   2.08237
    A1        2.29084  -0.00001   0.00000  -0.00005  -0.00005   2.29079
    A2        2.06590   0.00000   0.00000   0.00001   0.00001   2.06592
    A3        1.92644   0.00001   0.00000   0.00004   0.00004   1.92648
    A4        2.10693   0.00000   0.00000   0.00001   0.00001   2.10694
    A5        2.05946  -0.00000   0.00000  -0.00000  -0.00000   2.05946
    A6        2.11679  -0.00000   0.00000  -0.00001  -0.00001   2.11678
    A7        2.16649   0.00000   0.00000   0.00001   0.00001   2.16650
    A8        2.13645   0.00001   0.00000   0.00003   0.00003   2.13648
    A9        2.12183  -0.00000   0.00000  -0.00002  -0.00002   2.12181
   A10        2.02487  -0.00000   0.00000  -0.00001  -0.00001   2.02486
   A11        1.94266   0.00000   0.00000   0.00002   0.00002   1.94268
   A12        1.93566   0.00000   0.00000   0.00000   0.00000   1.93566
   A13        1.90173  -0.00000   0.00000   0.00002   0.00002   1.90175
   A14        1.93970  -0.00000   0.00000   0.00001   0.00001   1.93971
   A15        1.88178  -0.00000   0.00000  -0.00003  -0.00003   1.88175
   A16        1.85921  -0.00000   0.00000  -0.00003  -0.00003   1.85918
   A17        1.94134   0.00000   0.00000   0.00001   0.00001   1.94134
   A18        1.91626   0.00000   0.00000   0.00000   0.00000   1.91627
   A19        1.92832  -0.00000   0.00000  -0.00002  -0.00002   1.92830
   A20        1.90515  -0.00000   0.00000  -0.00005  -0.00005   1.90510
   A21        1.91696   0.00000   0.00000   0.00006   0.00006   1.91702
   A22        1.85367  -0.00000   0.00000  -0.00000  -0.00000   1.85367
   A23        1.95217   0.00000   0.00000  -0.00001  -0.00001   1.95217
   A24        1.93755  -0.00000   0.00000  -0.00001  -0.00001   1.93754
   A25        1.91849  -0.00000   0.00000   0.00000   0.00000   1.91849
   A26        1.88451  -0.00000   0.00000  -0.00000  -0.00000   1.88450
   A27        1.89192   0.00000   0.00000   0.00001   0.00001   1.89193
   A28        1.87693   0.00000   0.00000   0.00001   0.00001   1.87693
   A29        2.01397   0.00001   0.00000   0.00003   0.00003   2.01400
   A30        1.95660   0.00000   0.00000  -0.00001  -0.00001   1.95659
   A31        1.92527  -0.00000   0.00000  -0.00003  -0.00003   1.92524
   A32        1.85524   0.00000   0.00000  -0.00001  -0.00001   1.85523
   A33        1.90318   0.00000   0.00000   0.00000   0.00000   1.90318
   A34        1.92526  -0.00000   0.00000   0.00001   0.00001   1.92526
   A35        1.89722   0.00000   0.00000   0.00004   0.00004   1.89726
   A36        1.89297   0.00000   0.00000   0.00001   0.00001   1.89298
   A37        1.92447   0.00000   0.00000   0.00003   0.00003   1.92450
   A38        1.94234  -0.00000   0.00000  -0.00003  -0.00003   1.94231
   A39        1.90180  -0.00000   0.00000   0.00002   0.00002   1.90181
   A40        1.90411  -0.00000   0.00000  -0.00003  -0.00003   1.90408
   A41        1.89769   0.00000   0.00000  -0.00000  -0.00000   1.89769
    D1        0.00698  -0.00000   0.00000  -0.00009  -0.00009   0.00689
    D2       -3.13327  -0.00000   0.00000  -0.00005  -0.00005  -3.13332
    D3       -3.13556  -0.00000   0.00000  -0.00007  -0.00007  -3.13563
    D4        0.00738  -0.00000   0.00000  -0.00003  -0.00003   0.00734
    D5       -0.01077   0.00000   0.00000   0.00000   0.00000  -0.01076
    D6        3.13163  -0.00000   0.00000  -0.00001  -0.00001   3.13162
    D7       -3.13565   0.00000   0.00000   0.00008   0.00008  -3.13557
    D8        0.00456   0.00000   0.00000   0.00004   0.00004   0.00460
    D9        3.13742   0.00000   0.00000   0.00003   0.00003   3.13745
   D10        0.00491   0.00000   0.00000   0.00009   0.00009   0.00501
   D11        0.08838   0.00000   0.00000   0.00050   0.00050   0.08887
   D12        2.25753   0.00000   0.00000   0.00053   0.00053   2.25806
   D13       -1.98453   0.00000   0.00000   0.00051   0.00051  -1.98402
   D14       -3.06182   0.00000   0.00000   0.00043   0.00043  -3.06139
   D15       -0.89267   0.00000   0.00000   0.00047   0.00047  -0.89220
   D16        1.14845   0.00000   0.00000   0.00045   0.00045   1.14890
   D17       -3.09808  -0.00000   0.00000   0.00026   0.00026  -3.09783
   D18        1.07449   0.00000   0.00000   0.00032   0.00032   1.07481
   D19       -0.96432   0.00000   0.00000   0.00033   0.00033  -0.96400
   D20        1.01823  -0.00000   0.00000   0.00023   0.00023   1.01846
   D21       -1.09238  -0.00000   0.00000   0.00029   0.00029  -1.09209
   D22       -3.13119   0.00000   0.00000   0.00030   0.00030  -3.13089
   D23       -1.01326  -0.00000   0.00000   0.00027   0.00027  -1.01298
   D24       -3.12387   0.00000   0.00000   0.00033   0.00033  -3.12354
   D25        1.12050   0.00000   0.00000   0.00034   0.00034   1.12085
   D26        3.05212  -0.00000   0.00000   0.00004   0.00004   3.05216
   D27        0.94590  -0.00000   0.00000   0.00006   0.00006   0.94596
   D28       -1.12852  -0.00000   0.00000   0.00005   0.00005  -1.12847
   D29       -1.06023   0.00000   0.00000   0.00008   0.00008  -1.06015
   D30        3.11674   0.00000   0.00000   0.00009   0.00009   3.11683
   D31        1.04232   0.00000   0.00000   0.00009   0.00009   1.04240
   D32        0.98507  -0.00000   0.00000   0.00003   0.00003   0.98510
   D33       -1.12115  -0.00000   0.00000   0.00005   0.00005  -1.12110
   D34        3.08762  -0.00000   0.00000   0.00004   0.00004   3.08766
   D35       -1.39489  -0.00000   0.00000  -0.00001  -0.00001  -1.39490
   D36        0.72962  -0.00000   0.00000  -0.00004  -0.00004   0.72959
   D37        2.78341   0.00000   0.00000  -0.00001  -0.00001   2.78341
   D38        1.11906   0.00000   0.00000  -0.00002  -0.00002   1.11904
   D39       -0.96206  -0.00000   0.00000  -0.00007  -0.00007  -0.96213
   D40       -3.06945  -0.00000   0.00000  -0.00006  -0.00006  -3.06952
   D41       -1.01806   0.00000   0.00000   0.00003   0.00003  -1.01803
   D42       -3.09918   0.00000   0.00000  -0.00002  -0.00002  -3.09920
   D43        1.07662   0.00000   0.00000  -0.00002  -0.00002   1.07660
   D44       -3.10032   0.00000   0.00000  -0.00003  -0.00003  -3.10036
   D45        1.10174  -0.00000   0.00000  -0.00008  -0.00008   1.10166
   D46       -1.00565  -0.00000   0.00000  -0.00008  -0.00008  -1.00573
         Item               Value     Threshold  Converged?
 Maximum Force            0.000017     0.000450     YES
 RMS     Force            0.000003     0.000300     YES
 Maximum Displacement     0.001309     0.001800     YES
 RMS     Displacement     0.000414     0.001200     YES
 Predicted change in Energy=-4.617113D-09
 Optimization completed.
    -- Stationary point found.
                           ----------------------------
                           !   Optimized Parameters   !
                           ! (Angstroms and Degrees)  !
 --------------------------                            --------------------------
 ! Name  Definition              Value          Derivative Info.                !
 --------------------------------------------------------------------------------
 ! R1    R(1,2)                  1.226          -DE/DX =    0.0                 !
 ! R2    R(2,3)                  1.4104         -DE/DX =    0.0                 !
 ! R3    R(2,9)                  1.4118         -DE/DX =    0.0                 !
 ! R4    R(3,4)                  1.352          -DE/DX =    0.0                 !
 ! R5    R(3,12)                 1.0998         -DE/DX =    0.0                 !
 ! R6    R(4,5)                  1.2832         -DE/DX =    0.0                 !
 ! R7    R(5,6)                  1.5121         -DE/DX =    0.0                 !
 ! R8    R(5,13)                 1.1122         -DE/DX =    0.0                 !
 ! R9    R(6,7)                  1.5242         -DE/DX =    0.0                 !
 ! R10   R(6,8)                  1.5329         -DE/DX =    0.0                 !
 ! R11   R(6,14)                 1.1113         -DE/DX =    0.0                 !
 ! R12   R(7,15)                 1.1027         -DE/DX =    0.0                 !
 ! R13   R(7,16)                 1.1002         -DE/DX =    0.0                 !
 ! R14   R(7,17)                 1.0974         -DE/DX =    0.0                 !
 ! R15   R(8,18)                 1.1034         -DE/DX =    0.0                 !
 ! R16   R(8,19)                 1.1017         -DE/DX =    0.0                 !
 ! R17   R(8,20)                 1.1019         -DE/DX =    0.0                 !
 ! R18   R(9,10)                 1.3991         -DE/DX =    0.0                 !
 ! R19   R(10,11)                1.5234         -DE/DX =    0.0                 !
 ! R20   R(10,21)                1.1017         -DE/DX =    0.0                 !
 ! R21   R(10,22)                1.1032         -DE/DX =    0.0                 !
 ! R22   R(11,23)                1.0978         -DE/DX =    0.0                 !
 ! R23   R(11,24)                1.1004         -DE/DX =    0.0                 !
 ! R24   R(11,25)                1.1019         -DE/DX =    0.0                 !
 ! A1    A(1,2,3)              131.2555         -DE/DX =    0.0                 !
 ! A2    A(1,2,9)              118.3674         -DE/DX =    0.0                 !
 ! A3    A(3,2,9)              110.3771         -DE/DX =    0.0                 !
 ! A4    A(2,3,4)              120.7182         -DE/DX =    0.0                 !
 ! A5    A(2,3,12)             117.9986         -DE/DX =    0.0                 !
 ! A6    A(4,3,12)             121.2832         -DE/DX =    0.0                 !
 ! A7    A(3,4,5)              124.1306         -DE/DX =    0.0                 !
 ! A8    A(4,5,6)              122.4094         -DE/DX =    0.0                 !
 ! A9    A(4,5,13)             121.572          -DE/DX =    0.0                 !
 ! A10   A(6,5,13)             116.0167         -DE/DX =    0.0                 !
 ! A11   A(5,6,7)              111.3062         -DE/DX =    0.0                 !
 ! A12   A(5,6,8)              110.905          -DE/DX =    0.0                 !
 ! A13   A(5,6,14)             108.9612         -DE/DX =    0.0                 !
 ! A14   A(7,6,8)              111.1365         -DE/DX =    0.0                 !
 ! A15   A(7,6,14)             107.8179         -DE/DX =    0.0                 !
 ! A16   A(8,6,14)             106.5249         -DE/DX =    0.0                 !
 ! A17   A(6,7,15)             111.2304         -DE/DX =    0.0                 !
 ! A18   A(6,7,16)             109.7939         -DE/DX =    0.0                 !
 ! A19   A(6,7,17)             110.4846         -DE/DX =    0.0                 !
 ! A20   A(15,7,16)            109.1571         -DE/DX =    0.0                 !
 ! A21   A(15,7,17)            109.8337         -DE/DX =    0.0                 !
 ! A22   A(16,7,17)            106.2075         -DE/DX =    0.0                 !
 ! A23   A(6,8,18)             111.8513         -DE/DX =    0.0                 !
 ! A24   A(6,8,19)             111.0136         -DE/DX =    0.0                 !
 ! A25   A(6,8,20)             109.9211         -DE/DX =    0.0                 !
 ! A26   A(18,8,19)            107.9742         -DE/DX =    0.0                 !
 ! A27   A(18,8,20)            108.3991         -DE/DX =    0.0                 !
 ! A28   A(19,8,20)            107.54           -DE/DX =    0.0                 !
 ! A29   A(2,9,10)             115.3918         -DE/DX =    0.0                 !
 ! A30   A(9,10,11)            112.1048         -DE/DX =    0.0                 !
 ! A31   A(9,10,21)            110.3099         -DE/DX =    0.0                 !
 ! A32   A(9,10,22)            106.2974         -DE/DX =    0.0                 !
 ! A33   A(11,10,21)           109.0443         -DE/DX =    0.0                 !
 ! A34   A(11,10,22)           110.309          -DE/DX =    0.0                 !
 ! A35   A(21,10,22)           108.7025         -DE/DX =    0.0                 !
 ! A36   A(10,11,23)           108.4591         -DE/DX =    0.0                 !
 ! A37   A(10,11,24)           110.264          -DE/DX =    0.0                 !
 ! A38   A(10,11,25)           111.288          -DE/DX =    0.0                 !
 ! A39   A(23,11,24)           108.9649         -DE/DX =    0.0                 !
 ! A40   A(23,11,25)           109.0974         -DE/DX =    0.0                 !
 ! A41   A(24,11,25)           108.7298         -DE/DX =    0.0                 !
 ! D1    D(1,2,3,4)              0.3999         -DE/DX =    0.0                 !
 ! D2    D(1,2,3,12)          -179.5234         -DE/DX =    0.0                 !
 ! D3    D(9,2,3,4)           -179.6542         -DE/DX =    0.0                 !
 ! D4    D(9,2,3,12)             0.4226         -DE/DX =    0.0                 !
 ! D5    D(1,2,9,10)            -0.6169         -DE/DX =    0.0                 !
 ! D6    D(3,2,9,10)           179.4293         -DE/DX =    0.0                 !
 ! D7    D(2,3,4,5)           -179.6594         -DE/DX =    0.0                 !
 ! D8    D(12,3,4,5)             0.2613         -DE/DX =    0.0                 !
 ! D9    D(3,4,5,6)            179.7611         -DE/DX =    0.0                 !
 ! D10   D(3,4,5,13)             0.2814         -DE/DX =    0.0                 !
 ! D11   D(4,5,6,7)              5.0637         -DE/DX =    0.0                 !
 ! D12   D(4,5,6,8)            129.3471         -DE/DX =    0.0                 !
 ! D13   D(4,5,6,14)          -113.7054         -DE/DX =    0.0                 !
 ! D14   D(13,5,6,7)          -175.4296         -DE/DX =    0.0                 !
 ! D15   D(13,5,6,8)           -51.1462         -DE/DX =    0.0                 !
 ! D16   D(13,5,6,14)           65.8013         -DE/DX =    0.0                 !
 ! D17   D(5,6,7,15)          -177.5071         -DE/DX =    0.0                 !
 ! D18   D(5,6,7,16)            61.5638         -DE/DX =    0.0                 !
 ! D19   D(5,6,7,17)           -55.2517         -DE/DX =    0.0                 !
 ! D20   D(8,6,7,15)            58.3403         -DE/DX =    0.0                 !
 ! D21   D(8,6,7,16)           -62.5887         -DE/DX =    0.0                 !
 ! D22   D(8,6,7,17)          -179.4042         -DE/DX =    0.0                 !
 ! D23   D(14,6,7,15)          -58.0554         -DE/DX =    0.0                 !
 ! D24   D(14,6,7,16)         -178.9844         -DE/DX =    0.0                 !
 ! D25   D(14,6,7,17)           64.2001         -DE/DX =    0.0                 !
 ! D26   D(5,6,8,18)           174.8736         -DE/DX =    0.0                 !
 ! D27   D(5,6,8,19)            54.1961         -DE/DX =    0.0                 !
 ! D28   D(5,6,8,20)           -64.6595         -DE/DX =    0.0                 !
 ! D29   D(7,6,8,18)           -60.7466         -DE/DX =    0.0                 !
 ! D30   D(7,6,8,19)           178.576          -DE/DX =    0.0                 !
 ! D31   D(7,6,8,20)            59.7203         -DE/DX =    0.0                 !
 ! D32   D(14,6,8,18)           56.4405         -DE/DX =    0.0                 !
 ! D33   D(14,6,8,19)          -64.237          -DE/DX =    0.0                 !
 ! D34   D(14,6,8,20)          176.9074         -DE/DX =    0.0                 !
 ! D35   D(2,9,10,11)          -79.9215         -DE/DX =    0.0                 !
 ! D36   D(2,9,10,21)           41.8043         -DE/DX =    0.0                 !
 ! D37   D(2,9,10,22)          159.4779         -DE/DX =    0.0                 !
 ! D38   D(9,10,11,23)          64.1172         -DE/DX =    0.0                 !
 ! D39   D(9,10,11,24)         -55.1222         -DE/DX =    0.0                 !
 ! D40   D(9,10,11,25)        -175.8668         -DE/DX =    0.0                 !
 ! D41   D(21,10,11,23)        -58.3305         -DE/DX =    0.0                 !
 ! D42   D(21,10,11,24)       -177.5698         -DE/DX =    0.0                 !
 ! D43   D(21,10,11,25)         61.6856         -DE/DX =    0.0                 !
 ! D44   D(22,10,11,23)       -177.6355         -DE/DX =    0.0                 !
 ! D45   D(22,10,11,24)         63.1251         -DE/DX =    0.0                 !
 ! D46   D(22,10,11,25)        -57.6195         -DE/DX =    0.0                 !
 --------------------------------------------------------------------------------
 GradGradGradGradGradGradGradGradGradGradGradGradGradGradGradGradGradGrad


 ----------------------------------------------------------------------

 Electric dipole moment (input orientation):
 (Debye = 10**-18 statcoulomb cm , SI units = C m)
                  (au)            (Debye)         (10**-30 SI)
   Tot        0.576369D+00      0.146498D+01      0.488666D+01
   x         -0.279969D+00     -0.711611D+00     -0.237368D+01
   y         -0.639760D-02     -0.162611D-01     -0.542411D-01
   z          0.503764D+00      0.128044D+01      0.427108D+01

 Dipole polarizability, Alpha (input orientation).
 (esu units = cm**3 , SI units = C**2 m**2 J**-1)
 Alpha(0;0):
               (au)            (10**-24 esu)      (10**-40 SI)
   iso        0.126121D+03      0.186892D+02      0.207945D+02
   aniso      0.114291D+03      0.169361D+02      0.188440D+02
   xx         0.199709D+03      0.295938D+02      0.329276D+02
   yx        -0.967109D+01     -0.143311D+01     -0.159455D+01
   yy         0.877990D+02      0.130105D+02      0.144761D+02
   zx        -0.920833D+01     -0.136453D+01     -0.151825D+01
   zy         0.105848D+02      0.156851D+01      0.174520D+01
   zz         0.908545D+02      0.134632D+02      0.149799D+02

 ----------------------------------------------------------------------

 Dipole orientation:
     8          1.56419162         -1.30693532         -3.23397604
     6          2.15021300          0.20637012         -1.58039283
     6          0.75426585          1.21497984          0.45386222
     7         -1.67265393          0.51800288          0.84406173
     6         -3.05862552          1.36464468          2.64464703
     6         -5.77063296          0.54098361          3.00680468
     6         -6.49241301         -1.53269657          1.14270823
     6         -6.23916743         -0.30082232          5.73859433
     8          4.62640353          1.19940995         -1.59070013
     6          6.19692443          0.30911853         -3.52236916
     6          7.28675156         -2.28704014         -2.92251417
     1          1.69899774          2.58089836          1.70324110
     1         -2.32925352          2.76933464          4.02751373
     1         -7.03411794          2.18268300          2.66263066
     1         -8.49400123         -2.07291824          1.35274254
     1         -5.29793059         -3.20578374          1.45353584
     1         -6.13044981         -0.91667424         -0.80404856
     1         -8.24757824         -0.74529633          6.08010504
     1         -5.67156024          1.18247968          7.08462647
     1         -5.10928179         -1.99793825          6.16172961
     1          5.14761133          0.20711641         -5.31755780
     1          7.72917239          1.70848533         -3.72228454
     1          5.72370067         -3.64684451         -2.81559923
     1          8.27495906         -2.24817190         -1.09336851
     1          8.62617423         -2.90290561         -4.39319585

 Electric dipole moment (dipole orientation):
 (Debye = 10**-18 statcoulomb cm , SI units = C m)
                  (au)            (Debye)         (10**-30 SI)
   Tot        0.576369D+00      0.146498D+01      0.488666D+01
   x          0.000000D+00      0.000000D+00      0.000000D+00
   y          0.000000D+00      0.000000D+00      0.000000D+00
   z          0.576369D+00      0.146498D+01      0.488666D+01

 Dipole polarizability, Alpha (dipole orientation).
 (esu units = cm**3 , SI units = C**2 m**2 J**-1)
 Alpha(0;0):
               (au)            (10**-24 esu)      (10**-40 SI)
   iso        0.126121D+03      0.186892D+02      0.207945D+02
   aniso      0.114291D+03      0.169361D+02      0.188440D+02
   xx         0.166224D+03      0.246318D+02      0.274066D+02
   yx        -0.365354D+01     -0.541399D+00     -0.602388D+00
   yy         0.880915D+02      0.130538D+02      0.145243D+02
   zx        -0.510843D+02     -0.756991D+01     -0.842266D+01
   zy         0.142054D+02      0.210503D+01      0.234216D+01
   zz         0.124048D+03      0.183820D+02      0.204527D+02

 ----------------------------------------------------------------------
 Unable to Open any file for archive entry.
 1\1\GINC-NOTCH152\Freq\RM062X\def2SVP\C8H14N1O2(1-)\U6067110\18-Jul-20
 25\0\\#N Geom=AllCheck Guess=TCheck SCRF=Check GenChk RM062X/def2SVP F
 req\\A18_crest_conformers_censo-14\\-1,1\O,1.5567891538,-0.6749407221,
 -1.1013740135\C,1.4005029597,0.1152084026,-0.1770415053\C,0.2303732228
 ,0.6390831376,0.4109362641\N,-0.9914393133,0.2716860451,-0.0365141575\
 C,-2.0966443592,0.7112140169,0.4450003523\C,-3.4429235883,0.2773817429
 ,-0.0894446632\C,-3.2944679599,-0.8078422347,-1.1493307346\C,-4.360558
 8739,-0.1833860658,1.0486730916\O,2.5470051896,0.6369585037,0.46051912
 66\C,3.7713347394,0.1748226541,-0.0344424623\C,4.1251977059,-1.2040976
 807,0.5078867801\H,0.3441325017,1.3530716668,1.239657089\H,-2.11687158
 68,1.445261963,1.2803317953\H,-3.9413808299,1.1500197575,-0.5637616343
 \H,-4.2734708158,-1.0918827582,-1.5698599546\H,-2.8193085762,-1.696787
 9346,-0.7083582196\H,-2.6275731905,-0.4709949567,-1.9530779114\H,-5.37
 66587924,-0.417524316,0.6877625347\H,-4.446262099,0.5927214851,1.82584
 86905\H,-3.9441104616,-1.0856077268,1.5248442435\H,3.7475752764,0.1329
 910932,-1.135067437\H,4.5293346779,0.9141284354,0.2751712826\H,3.37679
 49951,-1.9218761419,0.147573421\H,4.1120603071,-1.1957793543,1.6081396
 379\H,5.1237197172,-1.5233790121,0.1683483839\\Version=ES64L-G16RevC.0
 1\State=1-A\HF=-517.8706108\RMSD=2.826e-09\RMSF=6.002e-06\ZeroPoint=0.
 2116935\Thermal=0.2244346\ETot=-517.6461761\HTot=-517.645232\GTot=-517
 .698812\Dipole=-0.2799694,-0.0063976,0.5037635\DipoleDeriv=-1.1507145,
 0.1738967,0.1236677,0.8059246,-0.8621044,-0.52854,0.8660085,-0.5315694
 ,-1.0314963,3.4974662,-0.3883833,-0.2568828,-0.7725305,0.7917856,0.662
 0277,-0.7728954,0.6514801,1.0312421,-2.46176,0.383837,0.4131781,0.0365
 921,-0.1588166,0.2830111,-0.0250595,0.2971383,-0.0649744,2.0842568,-0.
 1905527,-0.2090504,0.0841301,-0.3979456,-0.2831247,0.100249,-0.3183212
 ,-0.4794055,-1.0024525,0.0610534,0.0795726,0.2900398,0.0791629,0.38934
 99,0.6043134,0.4281375,0.1343517,0.4063281,-0.0493873,-0.0230646,0.083
 1362,0.1392121,-0.1236054,0.1158876,-0.1342221,0.1406187,0.0575631,0.0
 085847,0.0742286,0.0255121,0.0262957,0.0048291,0.1139508,-0.0243896,-0
 .0286938,0.0378586,-0.0068965,0.0724543,-0.0596905,0.0830719,0.0141143
 ,-0.0355953,0.0289366,0.0318698,-2.5187701,0.1370894,-0.0612969,-0.245
 5413,-0.4938653,-0.113102,-0.4344477,-0.1125291,-0.4925275,1.2121985,-
 0.1150536,-0.0236726,-0.3089888,0.5182398,-0.000704,-0.2138521,-0.0035
 165,0.315841,-0.033921,-0.0422845,-0.0515813,0.0627537,-0.1675379,0.04
 06204,-0.0527361,0.0703028,0.0708107,-0.0436796,0.0111898,0.0103965,-0
 .0818744,-0.0230271,-0.1798902,-0.0845414,-0.1841662,-0.0699021,-0.099
 4735,-0.032421,-0.0349327,0.0354972,-0.0935291,-0.2155539,-0.0070467,-
 0.225491,-0.1412275,-0.3282359,0.1096682,-0.040001,0.1062729,-0.172391
 6,0.0914964,-0.1699163,0.0845958,-0.0672516,-0.214956,-0.0913875,-0.13
 20012,-0.0780329,0.006005,-0.050869,-0.1119651,-0.0486529,-0.0039342,0
 .054674,0.071136,-0.0116347,0.0447255,-0.0758361,0.028445,-0.021775,0.
 0769025,0.0087711,0.0474014,0.0012357,0.1015674,-0.0104839,0.0323619,0
 .029545,0.0795886,0.0173107,-0.0441928,-0.3515289,-0.0661737,-0.020149
 2,-0.075046,0.0320538,0.0015699,-0.0839163,-0.0163399,0.0047388,0.0678
 716,-0.0000206,0.0203157,0.0453587,-0.0629092,-0.1309623,0.0405571,-0.
 0950198,-0.1001771,0.0533007,0.075176,-0.0427922,0.0263446,-0.0923716,
 0.0962356,0.0011209,0.0622603,-0.0015231,0.0195776,0.0142147,-0.018825
 4,0.1116728,-0.0138683,0.0172676,0.1111135,0.0397661,-0.1415068,-0.238
 8737,-0.0998019,-0.0314766,-0.1259662,-0.1378725,-0.0228,-0.0840199,-0
 .0480236,0.0295507,0.0901,-0.0890827,-0.0114379,-0.1162311,0.0050893,-
 0.0021622,0.0292881,-0.044488,0.0456531,0.0570803,0.01371,0.0105069,0.
 0052176,0.0262253,-0.0090077,-0.0414332,0.0456243,-0.1688857,-0.241311
 2,0.1106539,0.0629118,0.1112076,0.0125721,0.0018095,0.0771227,-0.01572
 54,0.0222508\Polar=199.7091919,-9.6710859,87.7990465,-9.2083327,10.584
 8163,90.8545026\Quadrupole=-8.4622922,4.7763238,3.6859684,0.663201,0.8
 875691,-2.0667214\PG=C01 [X(C8H14N1O2)]\NImag=0\\0.12781253,-0.0467175
 5,0.34777905,-0.05264573,0.36207199,0.46479911,-0.12766984,0.05335304,
 0.06075866,0.61894986,0.05502402,-0.31699164,-0.27746171,-0.13090699,0
 .51630273,0.06436444,-0.27510550,-0.40631890,-0.14484722,0.35702976,0.
 62648990,-0.00193856,0.03176306,0.03716167,-0.22761679,0.05964373,0.06
 627199,0.71493507,0.02554487,-0.00994622,-0.03391847,0.09442908,-0.114
 33582,-0.06285909,-0.02181843,0.33763228,0.02949344,-0.03353925,-0.019
 50836,0.10714361,-0.06327519,-0.13053610,-0.01400752,0.29492569,0.4253
 8556,0.01089824,-0.02090868,-0.02436342,-0.09422479,0.01925659,0.02080
 074,-0.25097581,-0.08304147,-0.10008830,0.81677885,0.00171878,-0.00009
 488,-0.00002084,0.00253012,-0.00345850,0.01508927,-0.06170669,-0.09362
 070,-0.04832438,-0.07209760,0.22487341,0.00200559,-0.00018273,-0.00015
 276,0.00262464,0.01475831,0.00062639,-0.07684852,-0.04873465,-0.111019
 62,-0.06426512,0.14821494,0.26416360,-0.00331139,0.00988970,0.01152067
 ,0.02642858,-0.01722408,-0.01944488,-0.11628114,0.01614514,0.01555252,
 -0.41700477,0.12831343,0.13910506,0.78079870,0.00075780,-0.00198721,-0
 .00097267,-0.00512060,0.00675455,-0.00160718,0.00218457,0.00852307,-0.
 00529563,0.14128227,-0.12989890,-0.08463398,-0.08500878,0.34756598,0.0
 0151393,-0.00215039,-0.00368974,-0.00927296,0.00005101,0.00782739,0.00
 589895,-0.00455779,0.00746280,0.14669392,-0.08512810,-0.14676168,-0.08
 120272,0.24923219,0.41135409,0.00105652,-0.00213111,-0.00251561,-0.005
 70948,0.00250669,0.00299902,0.01189734,-0.00013039,0.00126090,-0.05753
 934,0.00186280,-0.00162894,-0.16677899,-0.03406953,-0.05185684,0.50687
 645,0.00031055,-0.00141249,-0.00133448,-0.00255080,0.00330775,0.001177
 57,0.00748736,0.00684955,-0.00667560,0.00228552,-0.00139092,0.01347153
 ,-0.03356003,-0.08920359,-0.03315734,-0.03408699,0.54141445,0.00061315
 ,-0.00131574,-0.00177193,-0.00339568,0.00106581,0.00362053,0.00814150,
 -0.00716916,0.00539449,0.00311887,0.01354788,0.00219683,-0.04378357,-0
 .02899829,-0.09983444,0.01558749,-0.00362886,0.50487617,-0.00027290,0.
 00071285,0.00090122,0.00123675,-0.00077970,-0.00095914,-0.00161446,-0.
 00023889,-0.00053109,0.00081543,-0.00229400,-0.00211865,0.00261071,-0.
 02333939,-0.02306136,-0.08095627,0.00922586,0.00922730,0.58979258,0.00
 010146,-0.00028400,-0.00013061,-0.00043422,0.00024949,0.00036562,0.001
 00093,0.00009589,0.00012637,0.00127584,-0.00182274,0.00030420,-0.00470
 730,-0.00980819,-0.01120678,0.01089224,-0.14860235,-0.06836831,0.01124
 157,0.52738879,0.00006417,-0.00024191,-0.00049154,-0.00073831,0.000554
 40,0.00057506,0.00173223,0.00009107,-0.00016824,-0.00017106,-0.0004997
 4,-0.00291575,-0.00514336,-0.01319693,-0.01231789,0.01000430,-0.063890
 25,-0.13902567,0.00097551,-0.04723346,0.54023352,-0.00026392,0.0006097
 0,0.00071274,0.00136726,-0.00052643,-0.00128052,-0.00274443,0.00159145
 ,-0.00145142,-0.00002397,-0.00462143,0.00084440,-0.02879806,-0.0089639
 6,0.02255096,-0.11265810,-0.02312061,0.05502761,-0.00323699,0.00036194
 ,0.00503124,0.53750446,-0.00011919,0.00042911,0.00057905,0.00093662,-0
 .00052185,-0.00084356,-0.00187245,0.00038668,-0.00020370,0.00285769,-0
 .00146763,-0.00000486,-0.00925895,-0.00131734,0.00570155,-0.02333568,-
 0.08981347,0.03115139,0.01572450,0.00748382,-0.01967186,-0.02054323,0.
 56478053,-0.00042976,0.00098055,0.00115577,0.00202638,-0.00110438,-0.0
 0161126,-0.00312280,0.00094613,-0.00046158,-0.00055698,-0.00059469,0.0
 0007012,-0.00074387,-0.00134451,0.01174730,0.04997817,0.02591683,-0.14
 575811,0.01717819,0.00527841,-0.02437232,0.04604678,0.02733729,0.51723
 382,0.00541435,-0.03691730,-0.03990764,-0.14586514,-0.00894272,-0.0158
 4673,-0.07155494,-0.01831576,-0.02318222,0.01097111,0.00517725,0.00554
 894,-0.00953643,0.00019278,0.00166853,0.00203793,0.00139703,0.00188609
 ,-0.00052098,0.00025067,0.00035403,-0.00071553,-0.00041225,-0.00116140
 ,0.50638548,-0.03499986,-0.01637388,-0.04577493,0.00090297,-0.08691282
 ,-0.03826942,-0.00080999,0.01296014,0.00145459,0.00624180,0.00368803,-
 0.00164673,-0.00131842,-0.00019782,0.00064810,0.00041236,-0.00019110,0
 .00056476,-0.00002964,0.00004659,0.00004148,-0.00016529,-0.00009522,-0
 .00019565,-0.03836322,0.18683312,-0.03986552,-0.04629892,-0.03401661,0
 .00058441,-0.03538754,-0.09893011,-0.00288813,0.00112299,0.01240262,0.
 00724388,-0.00174148,0.00360066,-0.00178425,0.00045724,0.00023842,0.00
 048638,0.00055649,-0.00002174,-0.00004059,0.00004641,0.00008676,-0.000
 02058,-0.00004850,-0.00016737,-0.02847753,0.13175837,0.22716601,0.0002
 7965,0.00847614,0.01241278,-0.07191804,-0.00287142,-0.00267578,0.00885
 507,-0.00162657,-0.00221679,-0.00660693,0.00015140,-0.00003069,0.00330
 203,-0.00055653,-0.00118011,-0.00092022,-0.00047552,-0.00057439,0.0002
 2111,-0.00008696,-0.00011802,0.00023615,0.00015413,0.00040290,-0.21061
 885,0.03919852,0.04518273,0.55778104,-0.00250419,-0.00833684,-0.003617
 53,-0.00405620,0.01292481,0.01865145,-0.00356869,-0.00138233,-0.003132
 75,0.00005111,0.00194071,-0.00082777,-0.00089050,-0.00011199,0.0003115
 7,0.00021672,-0.00002358,0.00036546,-0.00007726,0.00004060,0.00002014,
 -0.00013770,-0.00004775,-0.00016117,0.05418647,-0.09961171,-0.04147787
 ,0.06084394,0.52747861,0.00112774,-0.00525426,-0.00927019,-0.00238207,
 0.02017485,0.02192821,-0.00334690,-0.00301192,-0.00197099,-0.00001095,
 -0.00068798,0.00144987,-0.00084161,0.00011006,0.00011326,0.00017539,0.
 00028834,0.00002903,-0.00006312,0.00000666,0.00004354,-0.00002410,-0.0
 0003662,-0.00009185,0.05998397,-0.03918434,-0.11535628,0.02810148,0.03
 002627,0.59951420,-0.00038445,-0.00047180,-0.00205778,0.00390466,0.005
 11836,0.00184372,-0.00180727,-0.00066893,-0.00007546,0.00094008,-0.000
 25423,0.00039936,-0.00056781,0.00010965,0.00014672,0.00012792,0.000123
 32,0.00005011,-0.00003405,0.00001594,0.00001604,-0.00002598,-0.0000188
 6,-0.00005495,-0.02575236,0.03903826,-0.00822928,-0.07850152,0.0106344
 5,-0.00760545,0.58694107,0.00077911,-0.00235620,0.00130119,-0.00081356
 ,0.00103461,0.00063870,0.00072426,0.00003229,-0.00013767,-0.00047143,0
 .00004920,-0.00013651,0.00022994,-0.00002056,-0.00006773,-0.00006619,-
 0.00004950,-0.00003389,0.00001869,-0.00000682,-0.00001113,0.00001766,0
 .00000966,0.00003512,0.01742000,-0.01153668,-0.00124346,0.01591698,-0.
 18987245,0.04898012,0.02263004,0.50078917,-0.00036827,0.00079996,0.001
 82210,-0.00267404,-0.00137476,-0.00187525,0.00048345,0.00060716,0.0000
 0084,-0.00009946,0.00006119,-0.00020271,0.00013727,0.00000861,0.000003
 36,-0.00002009,-0.00004413,-0.00000402,0.00000521,0.00000386,-0.000011
 09,0.00000347,0.00000444,0.00001195,0.00870112,-0.01370709,0.00890465,
 -0.01211136,0.05176059,-0.10453095,-0.00662009,0.03325052,0.57417197,-
 0.00548708,0.00208090,0.00221264,0.00726285,0.01479912,0.01748744,-0.0
 5361823,-0.01265122,-0.01530290,-0.01386637,-0.02023083,-0.02390225,0.
 00725496,-0.00490381,-0.00543162,-0.00052980,0.00034716,0.00044183,0.0
 0000067,0.00004626,-0.00005975,-0.00010428,0.00001834,-0.00005657,-0.0
 0174521,0.00028338,0.00035807,0.00013736,-0.00012798,-0.00027361,0.000
 10087,0.00000502,-0.00002762,0.05975611,0.00297054,0.00370887,-0.00350
 168,-0.00698585,-0.01050066,-0.00581880,-0.00733732,-0.14353586,-0.143
 35286,-0.00837696,-0.00096898,-0.01362979,0.00296532,-0.00214413,0.003
 99007,-0.00028728,0.00024009,0.00000154,0.00014707,0.00015642,-0.00003
 506,-0.00001139,0.00003639,-0.00017858,0.00000942,0.00030318,0.0015074
 2,0.00030202,-0.00027478,0.00054640,0.00008849,-0.00006729,-0.00013040
 ,0.01857122,0.15326125,0.00325411,-0.00360883,0.00273031,-0.00784437,-
 0.00526092,-0.01190331,-0.00915496,-0.14341472,-0.18619741,-0.01000920
 ,-0.01394446,-0.00560634,0.00369109,0.00378583,-0.00097745,-0.00040279
 ,-0.00000210,0.00037048,0.00012608,-0.00000084,0.00007599,-0.00013236,
 -0.00004919,-0.00013195,0.00003434,0.00149208,0.00072102,0.00031533,0.
 00054875,-0.00018346,-0.00015312,0.00003767,0.00008262,0.02222088,0.15
 894013,0.20081147,-0.00050669,0.00002132,0.00000755,0.00074738,-0.0003
 6547,-0.00034339,0.00540221,0.00361292,0.00438499,-0.00688198,0.023612
 63,0.02631227,-0.05566034,-0.00468030,-0.00608139,0.00104430,-0.017176
 67,-0.01707802,-0.00491355,-0.00047629,-0.00085593,0.00139288,-0.00012
 539,-0.00153760,-0.00063844,-0.00008626,-0.00012969,0.00016041,-0.0000
 7572,-0.00006796,-0.00002225,0.00001348,0.00001001,0.00071383,-0.00163
 032,-0.00189799,0.05885543,0.00032661,0.00032460,0.00025929,-0.0003359
 4,-0.00011484,-0.00051137,-0.00465008,-0.00383531,0.00617529,0.0117946
 0,0.00029817,-0.02659973,-0.00631883,-0.13974237,-0.11873772,0.0018916
 7,-0.00442284,-0.00665716,-0.00203414,0.00121767,-0.00063797,0.0014214
 0,0.00024786,-0.00077049,0.00065202,0.00010618,0.00010151,-0.00014680,
 0.00010161,-0.00001166,0.00000758,-0.00000921,-0.00001237,0.00170990,-
 0.00036485,0.00128229,-0.00279872,0.14668527,0.00025276,0.00036474,0.0
 0059842,0.00010462,-0.00060780,-0.00055410,-0.00574545,0.00632362,-0.0
 0209377,0.01403806,-0.02651014,-0.00637541,-0.00913737,-0.11885041,-0.
 16978867,0.00356276,-0.00795449,-0.00764965,-0.00234472,0.00013049,0.0
 0071916,0.00015323,0.00013281,0.00011267,0.00050988,0.00000214,0.00009
 196,-0.00012095,0.00001200,0.00008787,0.00003084,-0.00001147,-0.000029
 12,0.00198719,0.00112392,0.00001487,-0.00260437,0.14583949,0.18437798,
 -0.00089642,0.00170919,0.00199426,0.00430037,-0.00263620,-0.00223043,-
 0.00725388,-0.00186084,0.00153906,0.00555451,0.00131757,-0.00524914,-0
 .02192549,0.02086695,-0.00787962,-0.08630563,0.08702933,-0.04552747,-0
 .00171371,0.00142448,-0.00126579,0.00677255,-0.01629583,0.01007036,-0.
 00212465,-0.00020862,-0.00049620,0.00079990,-0.00016355,-0.00025973,-0
 .00013092,0.00006856,0.00003601,-0.00005609,-0.00023143,-0.00011500,0.
 00040733,-0.00126077,-0.00007415,0.10223785,0.00009243,0.00020006,0.00
 011742,-0.00006353,-0.00039983,-0.00007999,-0.00057083,-0.00053446,0.0
 0045817,0.00078617,0.00041091,-0.00040875,-0.00374457,0.01072314,-0.00
 378722,0.07948157,-0.19385306,0.07751930,0.01043192,-0.01948785,0.0092
 7216,0.00435072,-0.00924158,0.00523559,0.00004807,0.00004381,-0.000037
 63,-0.00002341,0.00000410,0.00000400,-0.00000209,0.00000062,-0.0000024
 8,0.00001474,0.00013625,-0.00005365,0.00088805,-0.00017543,0.00054850,
 -0.08911790,0.21274499,-0.00042986,0.00095097,0.00105619,0.00220697,-0
 .00140225,-0.00123212,-0.00375889,-0.00028620,0.00027316,0.00369427,0.
 00035076,-0.00185483,-0.00911518,0.00629948,-0.00068364,-0.04344306,0.
 08118371,-0.08859204,0.01038936,-0.01974147,0.00875086,-0.00888532,0.0
 2209124,-0.01362201,-0.00104144,-0.00012452,-0.00021877,0.00039920,-0.
 00008965,-0.00011894,-0.00006422,0.00003236,0.00001284,0.00001210,-0.0
 0006414,-0.00006135,0.00012315,-0.00065385,-0.00008269,0.04655204,-0.0
 8677907,0.09954130,-0.00036029,0.00019945,0.00024783,0.00086257,-0.000
 12527,-0.00021102,-0.00000172,-0.00007637,-0.00006014,-0.00027856,-0.0
 0118908,-0.00146145,-0.00049388,0.00089458,0.00151351,0.00311983,0.002
 30975,0.00340586,-0.25712268,-0.05839971,-0.08800227,0.00062625,0.0004
 0251,0.00023634,-0.00062547,-0.00007434,-0.00010453,0.00025010,-0.0000
 8297,-0.00006915,-0.00002921,0.00002415,0.00000700,-0.00019544,-0.0001
 6096,-0.00010464,0.00020862,-0.00003868,-0.00002717,0.00050365,-0.0007
 2549,-0.00025720,0.27658395,-0.00014100,0.00036614,0.00033614,0.000627
 42,-0.00041970,-0.00038227,-0.00087087,0.00007080,-0.00008056,0.001231
 82,0.00067443,0.00028497,0.00231247,-0.00242708,-0.00337603,-0.0226054
 0,-0.00622797,-0.00802384,-0.05771033,-0.06265439,-0.02273954,-0.00052
 488,0.00041701,0.00102128,-0.00033087,-0.00002452,-0.00004310,0.000131
 81,-0.00004733,-0.00003234,-0.00001919,0.00001052,0.00000049,0.0000195
 3,0.00004516,0.00001096,-0.00127042,-0.00030850,-0.00064998,-0.0001009
 0,0.00032068,0.00081856,0.06405376,0.06485258,-0.00015065,0.00031104,0
 .00044436,0.00072218,-0.00035416,-0.00052906,-0.00107405,-0.00001421,0
 .00006356,0.00163120,0.00044244,0.00077685,0.00235115,-0.00338706,-0.0
 0230750,-0.02088788,-0.00343560,-0.00914630,-0.08718688,-0.02289333,-0
 .08375318,-0.00157804,0.00030290,0.00087488,-0.00036886,-0.00004058,-0
 .00004807,0.00014559,-0.00004520,-0.00004222,-0.00001936,0.00001369,0.
 00000443,0.00004885,-0.00000475,0.00006934,-0.00121830,-0.00064909,-0.
 00030087,0.00048215,0.00017466,0.00077741,0.09692578,0.02974984,0.0872
 2554,0.00022770,0.00007417,-0.00005524,-0.00029994,-0.00005808,-0.0000
 4513,-0.00010519,0.00005286,-0.00004545,-0.00000415,0.00000094,0.00007
 552,0.00051679,-0.00126100,-0.00031342,-0.00219269,0.00383882,-0.00070
 454,-0.09497815,0.09601903,-0.04987185,-0.00007737,0.00009045,-0.00088
 466,0.00027656,0.00004356,0.00006433,-0.00010635,0.00003458,0.00003293
 ,0.00001200,-0.00001220,-0.00000590,0.00006174,0.00008149,0.00009482,-
 0.00003025,0.00015875,0.00028212,0.00034378,0.00033453,0.00079908,-0.0
 1003366,0.02174364,-0.00989940,0.09834928,0.00010272,0.00023114,0.0001
 3863,0.00009678,-0.00031190,-0.00027529,-0.00094652,0.00009205,0.00000
 853,0.00076368,0.00150265,0.00023392,0.00157619,0.00060716,0.00040230,
 0.00995065,-0.02057968,0.01004173,0.09419038,-0.22151823,0.09118945,-0
 .00075797,0.00100827,0.00122228,0.00005280,0.00002390,0.00001149,-0.00
 002048,-0.00000023,0.00001280,-0.00000116,-0.00000237,-0.00000404,0.00
 012519,0.00003997,0.00012277,-0.00021207,0.00002766,0.00001263,0.00021
 292,-0.00293129,-0.00415915,-0.00445618,0.00858240,-0.00475777,-0.1052
 2603,0.24014752,0.00001378,-0.00033844,-0.00032942,-0.00040344,0.00034
 883,0.00043619,0.00071068,0.00000543,0.00002752,-0.00139738,-0.0007762
 5,-0.00017401,0.00066546,0.00043879,0.00019022,0.01022231,-0.01869357,
 0.00905574,-0.04912524,0.09293652,-0.09160542,0.00011029,-0.00104469,0
 .00199707,0.00011902,-0.00001026,-0.00001465,-0.00005357,0.00001983,0.
 00001204,0.00001222,-0.00000379,0.00000329,-0.00000773,-0.00000704,-0.
 00005843,0.00017464,0.00023345,-0.00010179,0.00055250,-0.00380427,-0.0
 0249053,-0.00282168,0.00796387,-0.00532258,0.05242313,-0.09610454,0.09
 758482,0.00031000,0.00000039,0.00013491,-0.00030528,-0.00011717,-0.000
 16650,-0.00025429,-0.00006458,-0.00006228,-0.00083978,-0.00085584,-0.0
 0144147,-0.00012125,-0.00006219,-0.00053018,-0.00201683,0.00003034,0.0
 0252401,-0.14782205,-0.05545532,0.12754422,0.00004749,0.00107553,0.000
 14452,0.00031811,0.00005850,0.00008531,-0.00012433,0.00004497,0.000035
 62,0.00001454,-0.00001206,-0.00000323,0.00003230,0.00008952,0.00011551
 ,-0.00000222,0.00032545,0.00014911,-0.00014074,0.00002852,-0.00004829,
 -0.01357664,-0.00735370,0.01902002,0.00793818,0.00450901,-0.01073016,0
 .15607644,-0.00001642,-0.00034899,-0.00035799,-0.00036718,0.00038708,0
 .00041141,0.00050346,-0.00004183,0.00000622,-0.00151581,-0.00094839,-0
 .00074818,0.00032283,0.00043361,0.00048112,0.01489210,0.00879744,-0.01
 769774,-0.05490019,-0.07386313,0.06750408,-0.00021188,-0.00334198,-0.0
 0303777,0.00009397,-0.00002850,-0.00003044,-0.00004304,0.00001705,0.00
 001254,0.00000898,-0.00000257,0.00000143,-0.00000726,-0.00001579,-0.00
 005151,0.00021619,-0.00000932,-0.00002423,0.00036044,0.00100828,0.0007
 0283,-0.00251179,-0.00342901,0.00439655,-0.01564593,-0.00774730,0.0180
 5407,0.05827104,0.07880916,0.00023370,0.00004961,0.00012534,-0.0001675
 6,-0.00018357,-0.00024356,-0.00108144,0.00006829,0.00012049,0.00093641
 ,0.00020102,0.00125728,0.00145862,0.00011758,0.00017415,0.01181384,0.0
 0904934,-0.01546854,0.12414041,0.06498281,-0.19548839,-0.00049543,-0.0
 0462567,-0.00255110,0.00026477,0.00002015,0.00005779,-0.00010364,0.000
 04290,0.00002563,0.00001138,-0.00001091,-0.00000424,0.00021716,0.00019
 500,0.00015461,-0.00015837,0.00020792,0.00007088,-0.00013164,-0.000140
 29,0.00080713,-0.00865413,-0.00494251,0.01112422,0.00744838,0.00292021
 ,-0.00915558,-0.13692319,-0.06810054,0.20955478,-0.00055561,0.00098300
 ,0.00114138,0.00244246,-0.00111507,-0.00151979,-0.00341924,0.00053798,
 -0.00033894,0.00309647,-0.00163868,0.00052111,-0.00308761,-0.00012260,
 0.00606666,-0.01569488,-0.00233664,-0.00897777,0.00032889,-0.00013171,
 -0.00142295,-0.26607206,-0.04941321,-0.08334071,-0.00127971,-0.0001886
 0,-0.00019514,0.00049246,-0.00016903,-0.00011264,-0.00006346,0.0000414
 4,0.00001145,-0.00000915,-0.00006591,-0.00010907,0.00010660,0.00005805
 ,-0.00054694,0.00072778,-0.00027776,0.00007188,0.00034893,0.00052884,0
 .00086705,-0.00005996,-0.00008359,0.00002060,0.00028175,-0.00000939,0.
 00013923,0.28877918,-0.00009094,0.00013755,0.00015496,0.00030352,-0.00
 010499,-0.00024187,-0.00030815,0.00013148,0.00003087,-0.00063492,-0.00
 022454,0.00018097,-0.00096939,0.00104502,0.00194199,-0.00896760,-0.003
 06476,-0.00480913,0.00080501,0.00009518,-0.00011476,-0.04901679,-0.058
 50158,-0.01831627,-0.00021813,-0.00002892,-0.00001871,0.00007616,-0.00
 003723,-0.00001613,-0.00000844,0.00000676,0.00000179,-0.00001318,-0.00
 003292,-0.00002097,0.00031795,0.00014467,0.00003024,0.00012919,-0.0001
 4753,-0.00044753,0.00007078,0.00030205,0.00000619,0.00006602,-0.000013
 32,0.00008671,-0.00000915,-0.00016711,0.00006954,0.05611902,0.05743892
 ,0.00001922,-0.00009122,-0.00009258,-0.00011225,0.00009433,0.00017660,
 0.00027577,-0.00043941,0.00029023,0.00170253,0.00080585,-0.00012475,0.
 00060905,-0.00029174,-0.00372035,0.02310243,0.00460175,0.00914024,0.00
 029071,0.00068666,0.00174659,-0.08380865,-0.01859928,-0.07704584,0.000
 10200,0.00002797,0.00000431,-0.00001664,0.00002445,-0.00000497,0.00000
 077,-0.00000140,-0.00000163,0.00003915,-0.00000399,0.00010038,0.000212
 06,0.00042927,0.00032798,-0.00093286,-0.00019651,0.00100097,-0.0004369
 3,-0.00014994,-0.00021498,-0.00002261,-0.00009709,-0.00005430,-0.00018
 292,0.00015505,0.00018434,0.08888586,0.01955561,0.08035798,0.00010987,
 -0.00026279,-0.00030390,-0.00051077,0.00029444,0.00035391,0.00057136,0
 .00004430,0.00009236,-0.00064945,-0.00062989,-0.00069253,0.00115672,0.
 00204881,0.00113660,-0.00177146,0.01489444,0.01132373,-0.00256040,-0.0
 0220279,0.00266132,-0.04647044,0.01301993,0.01183859,0.00024862,0.0000
 1959,0.00001926,-0.00010360,0.00003517,0.00002956,0.00001470,-0.000008
 56,-0.00000035,-0.00001879,-0.00000544,-0.00000353,-0.00031874,-0.0007
 2269,-0.00051855,0.00062652,-0.00025496,-0.00054985,0.00033048,0.00015
 572,0.00025858,0.00015395,-0.00032764,-0.00024251,0.00017523,0.0006785
 2,0.00118249,0.00319579,-0.02084485,-0.01952419,0.04735757,0.00007762,
 -0.00005831,-0.00007512,-0.00027496,0.00009018,0.00008842,0.00025874,-
 0.00014497,0.00004576,-0.00001228,0.00015032,-0.00001631,-0.00029810,0
 .00035958,0.00034382,-0.00049176,0.00769807,0.00790437,-0.00097200,0.0
 0025311,0.00080696,0.01404153,-0.18344329,-0.13446492,0.00018392,0.000
 03896,0.00005217,-0.00006186,0.00001793,0.00001014,0.00000648,-0.00000
 551,-0.00000598,0.00001922,0.00002694,0.00007274,0.00035872,0.00008998
 ,-0.00001357,0.00057716,0.00079540,-0.00041479,-0.00002861,-0.00010380
 ,0.00012485,-0.00031426,0.00028153,0.00017102,-0.00036692,0.00036692,0
 .00021905,0.00079286,-0.00422394,-0.00245929,-0.01389676,0.19428197,0.
 00001544,0.00012887,0.00016238,0.00011528,-0.00014602,-0.00021880,-0.0
 0031036,-0.00005972,-0.00002547,0.00074019,0.00028488,0.00049843,-0.00
 253945,-0.00050217,0.00008065,0.00103419,-0.01827773,-0.01568305,0.003
 69146,0.00353798,-0.00337718,0.01252093,-0.13425546,-0.17527275,0.0000
 0848,0.00001884,0.00002944,0.00000312,-0.00000676,-0.00000579,-0.00000
 196,-0.00000007,-0.00000186,0.00003850,0.00003248,0.00005429,0.0006119
 6,0.00058104,0.00058401,-0.00070360,0.00020475,0.00044128,-0.00013266,
 0.00024703,0.00034563,0.00002810,-0.00012648,0.00019766,0.00024514,-0.
 00137170,-0.00112931,0.00148281,-0.00618353,-0.00710014,-0.01629515,0.
 14561959,0.19037171,0.00015699,-0.00026932,-0.00032520,-0.00068405,0.0
 0033401,0.00039983,0.00091831,0.00003522,0.00003977,-0.00116505,0.0003
 0912,0.00012949,0.00250820,-0.00033984,-0.00063764,0.00669012,-0.01607
 473,0.00846573,0.00079763,-0.00076126,-0.00076695,-0.08667331,0.087159
 65,-0.04591383,0.00036028,0.00004507,0.00006687,-0.00014117,0.00004077
 ,0.00003905,0.00002067,-0.00001331,-0.00000449,0.00002081,0.00004950,0
 .00001006,-0.00001271,-0.00012228,0.00000434,-0.00151956,-0.00168568,0
 .00344932,-0.00005309,0.00015824,-0.00003141,-0.00001851,0.00044615,-0
 .00025574,-0.00002061,-0.00012970,-0.00015726,-0.00942274,0.02321787,-
 0.01021321,-0.00156448,0.00038275,-0.00055199,0.08976582,-0.00002078,0
 .00002080,-0.00001758,0.00001612,-0.00000528,0.00000986,0.00006085,0.0
 0000135,0.00006015,-0.00099205,0.00032176,0.00005385,0.00141954,0.0008
 2576,-0.00091711,0.00407386,-0.00946118,0.00457304,-0.00013881,0.00103
 199,-0.00120999,0.08619143,-0.22700485,0.09217656,-0.00005187,0.000003
 08,-0.00002523,0.00001125,-0.00001601,0.00000451,-0.00000170,0.0000034
 1,0.00000268,-0.00001666,-0.00006537,-0.00001325,-0.00014167,-0.000243
 95,0.00008908,-0.00183194,0.00037587,0.00172610,-0.00008716,-0.0000068
 4,0.00005654,-0.00002213,0.00055360,0.00052897,-0.00013457,0.00012755,
 -0.00013704,-0.00352005,0.00724088,-0.00404648,0.00796951,-0.01647182,
 0.01027085,-0.09277969,0.24276396,0.00002113,-0.00011995,-0.00009956,-
 0.00012081,0.00013837,0.00012022,0.00019185,0.00016264,-0.00016205,0.0
 0035258,-0.00061315,0.00024575,-0.00147282,-0.00136067,0.00093727,-0.0
 0943302,0.02085382,-0.01167894,-0.00151521,0.00117099,0.00130266,-0.04
 534427,0.09206845,-0.09213838,0.00006985,-0.00001085,0.00000791,-0.000
 02930,0.00001248,0.00000968,0.00000681,-0.00000333,0.00000176,-0.00000
 606,0.00003312,-0.00002981,0.00014319,0.00010941,-0.00000620,0.0036045
 6,0.00176113,-0.00372410,-0.00000686,-0.00002286,-0.00005113,0.0006039
 2,-0.00078981,-0.00019332,0.00009568,-0.00030019,0.00038665,-0.0026726
 7,0.00810500,-0.00497080,0.00924484,-0.01801190,0.01004314,0.04626062,
 -0.10317883,0.10000221,-0.00209975,-0.00251858,-0.00410006,0.00398249,
 0.00490149,0.00704333,-0.00069765,-0.00028480,-0.00090154,0.00013251,0
 .00000727,-0.00022582,-0.00013733,0.00005831,0.00004530,0.00002828,-0.
 00001125,0.00005177,-0.00001335,0.00000117,0.00000516,-0.00001643,-0.0
 0000804,-0.00001488,-0.01397155,0.00435896,0.03749443,-0.04748867,-0.0
 0099875,-0.02176938,0.00121657,-0.00040009,-0.00703048,0.00033066,-0.0
 0032016,-0.00004874,0.00000833,0.00001523,-0.00002267,-0.00001232,-0.0
 0000199,-0.00000887,0.00000048,-0.00000451,-0.00000443,-0.00000165,-0.
 00000311,0.00000458,-0.00000402,0.00000532,-0.00000368,-0.00001413,-0.
 00000228,0.00000312,0.00000441,0.00000018,-0.00000359,0.00000281,0.000
 00089,0.00000055,0.05773444,-0.00090282,-0.00115227,-0.00010544,-0.002
 83115,0.00066662,-0.00008604,0.00113495,-0.00029246,-0.00036390,-0.000
 72946,-0.00014956,0.00003115,0.00039828,-0.00003569,-0.00011844,-0.000
 09952,-0.00004359,-0.00007626,0.00002573,-0.00001149,-0.00001378,0.000
 03155,0.00001468,0.00004672,0.00710185,-0.00015334,-0.01459922,0.00001
 578,-0.05033574,-0.01002837,0.00166554,-0.00050214,0.03206170,0.000071
 62,0.00002921,-0.00004962,0.00002071,-0.00002410,-0.00002205,0.0000899
 3,-0.00000570,0.00004320,0.00002843,0.00001420,0.00001559,-0.00001412,
 -0.00000448,-0.00000181,-0.00001655,0.00000019,-0.00001421,0.00005550,
 0.00000948,-0.00000323,-0.00001102,-0.00000771,-0.00000070,-0.00001588
 ,0.00000229,-0.00000231,-0.00634297,0.05538920,-0.00447176,0.00126170,
 0.00303137,-0.00590927,-0.00500138,-0.00467243,0.00069732,0.00037625,0
 .00022703,-0.00028768,-0.00006716,0.00013612,0.00022593,-0.00002941,-0
 .00006494,-0.00006769,-0.00003836,-0.00005179,0.00002156,-0.00000269,-
 0.00001270,0.00002070,0.00001672,0.00003275,0.01707336,-0.00513342,-0.
 01230112,-0.01125319,-0.00595092,-0.30901518,-0.00180137,0.00030404,-0
 .01070836,0.00000444,0.00021541,0.00002151,0.00000702,0.00000401,-0.00
 002254,0.00006836,-0.00000669,0.00003368,0.00002323,0.00001170,0.00001
 349,-0.00000937,-0.00000528,-0.00000383,-0.00001156,-0.00000411,-0.000
 00838,0.00004238,0.00000702,-0.00000041,-0.00001095,-0.00000320,0.0000
 0229,-0.00001199,-0.00000356,-0.00000172,0.00814694,0.01192808,0.33728
 156,0.00056661,-0.00079671,-0.00101345,0.00263398,0.00269857,0.0076639
 4,-0.00227214,-0.00098114,-0.00138186,0.00066424,0.00058935,0.00020957
 ,-0.00073385,0.00000958,0.00016574,0.00017095,0.00008496,0.00017124,-0
 .00003869,0.00001841,0.00002675,-0.00006197,-0.00003578,-0.00009317,-0
 .04218076,-0.01468354,-0.00828477,-0.15505885,-0.11501602,-0.05181758,
 0.00666031,0.00514871,0.00210147,-0.00003893,0.00005346,0.00014922,-0.
 00005331,0.00006192,0.00006280,-0.00016805,0.00001302,-0.00008292,-0.0
 0005652,-0.00002637,-0.00003012,0.00002457,0.00000919,0.00000736,0.000
 02848,0.00000578,0.00002537,-0.00010807,-0.00001890,0.00000733,0.00002
 020,0.00001656,0.00000290,0.00002959,-0.00000207,0.00000388,0.00049619
 ,-0.00085705,-0.00130317,0.18826170,-0.00083879,0.00104759,0.00078304,
 0.00279297,-0.00103736,-0.00177814,-0.00021453,0.00028550,0.00035461,0
 .00038578,-0.00002662,0.00004381,-0.00010222,0.00002362,0.00002864,0.0
 0003201,0.00001756,0.00001061,-0.00000040,-0.00000347,0.00000962,-0.00
 000178,-0.00000900,-0.00000805,0.01211014,0.01127174,0.00400610,-0.120
 74578,-0.16943111,-0.05345431,-0.01964350,-0.02066415,-0.00989883,-0.0
 0002373,-0.00000230,-0.00000695,-0.00000551,0.00000495,0.00001459,-0.0
 0003204,0.00000694,-0.00001456,-0.00001039,-0.00000157,-0.00000482,0.0
 0000524,0.00000567,-0.00000310,0.00000437,-0.00000188,0.00000337,-0.00
 001630,-0.00000159,-0.00000154,0.00000184,0.00000497,0.00000310,0.0000
 0463,0.00000253,-0.00000209,0.00035107,0.00029243,0.00015866,0.1232607
 5,0.18151399,-0.00336900,0.00134452,0.00239589,0.00036925,-0.00370998,
 -0.00489580,-0.00002280,0.00030904,0.00061904,0.00037790,-0.00010439,0
 .00007609,-0.00009508,0.00005099,0.00003833,0.00003847,0.00002383,0.00
 000644,-0.00000554,0.00000380,0.00000453,-0.00000364,-0.00000357,-0.00
 001283,0.01644543,0.00805139,0.00531834,-0.05648964,-0.05453273,-0.077
 10420,0.00864757,0.01107556,0.00403251,-0.00002513,0.00002429,0.000019
 12,-0.00001137,0.00000560,0.00001070,-0.00003707,0.00000218,-0.0000173
 6,-0.00001209,-0.00000480,-0.00000522,0.00000531,0.00000292,-0.0000001
 1,0.00000739,-0.00000136,0.00000562,-0.00001849,-0.00000266,-0.0000007
 6,0.00000358,0.00000288,0.00000177,0.00000566,0.00000026,0.00000043,-0
 .01939165,-0.02071029,-0.00493316,0.05375484,0.05670690,0.07357751,-0.
 00155653,-0.00074214,-0.00192772,-0.00125683,0.00258566,0.00169712,0.0
 0078716,-0.00021396,-0.00009408,-0.00065683,-0.00014221,-0.00008840,0.
 00032051,-0.00003637,-0.00009851,-0.00009379,-0.00004417,-0.00006437,0
 .00001833,-0.00000382,-0.00001552,0.00002458,0.00001751,0.00004050,0.0
 0071346,-0.00134503,0.00033472,0.00523628,0.00523234,0.00243162,-0.179
 50962,-0.12843881,-0.06216056,0.00005132,0.00001536,-0.00006944,0.0000
 2314,-0.00001530,-0.00001891,0.00008089,-0.00000498,0.00003961,0.00002
 845,0.00001111,0.00001584,-0.00001330,-0.00000485,-0.00000436,-0.00001
 292,-0.00000459,-0.00001103,0.00005164,0.00000748,-0.00000179,-0.00000
 979,-0.00000719,-0.00000008,-0.00001478,0.00000088,-0.00000186,0.00006
 242,-0.00046200,0.00013313,0.00074770,0.00208342,-0.00071216,0.1884026
 9,-0.00116909,0.00329962,0.00136316,0.00086821,-0.00431793,-0.00374919
 ,-0.00090117,0.00033067,0.00039821,0.00092142,0.00010102,0.00017216,-0
 .00042669,0.00006325,0.00013177,0.00011547,0.00006058,0.00006895,-0.00
 002205,0.00001047,0.00001344,-0.00002769,-0.00001886,-0.00004670,0.001
 40518,0.00382717,0.00011474,-0.02313439,-0.02215437,-0.00921211,-0.124
 71292,-0.16297461,-0.06289972,-0.00010417,0.00003330,0.00012603,-0.000
 02909,0.00001865,0.00002763,-0.00010105,0.00000541,-0.00005031,-0.0000
 3173,-0.00001468,-0.00001671,0.00001443,0.00000453,0.00000613,0.000017
 60,0.00000378,0.00001402,-0.00005986,-0.00000833,0.00000144,0.00001154
 ,0.00000785,0.00000082,0.00001738,-0.00000056,0.00000302,-0.00007818,0
 .00120744,-0.00043310,0.00190273,-0.00525569,0.00281617,0.13578672,0.1
 7839958,-0.00018118,-0.00115928,-0.00287615,0.00000399,0.00184949,0.00
 297979,0.00055395,-0.00030446,-0.00039433,-0.00047054,-0.00005430,-0.0
 0006557,0.00022729,-0.00003163,-0.00007376,-0.00005600,-0.00003051,-0.
 00003253,0.00001457,-0.00001496,-0.00000453,0.00001824,0.00000029,0.00
 002822,-0.00094802,-0.00179617,-0.00053128,0.00988873,0.00894158,0.004
 20613,-0.06371495,-0.06461454,-0.07946180,0.00006245,0.00001194,-0.000
 09274,0.00001060,-0.00001347,-0.00000775,0.00004601,0.00000330,0.00002
 194,0.00001124,0.00000906,0.00000616,-0.00000550,0.00000292,-0.0000004
 3,-0.00000747,0.00000168,-0.00000802,0.00002695,0.00000569,-0.00000357
 ,-0.00000503,-0.00000349,-0.00000095,-0.00000767,0.00000632,-0.0000036
 5,0.00075153,-0.00006342,0.00044513,-0.00081966,0.00301370,-0.00022826
 ,0.06807546,0.06535191,0.08103334,-0.00071251,0.00105033,0.00058075,-0
 .00066816,-0.00095355,-0.00144263,-0.00002193,0.00004692,0.00023455,-0
 .00001746,0.00001118,0.00003440,0.00001047,-0.00001223,-0.00000889,-0.
 00000929,0.00000011,-0.00000787,0.00000147,0.00000304,-0.00000198,0.00
 000047,0.00000633,0.00000083,0.00127383,-0.00105302,0.00011966,-0.0007
 1869,-0.00017567,-0.00656630,-0.04656348,-0.00158567,0.00387201,-0.000
 04483,0.00004855,0.00001869,0.00000070,0.00000382,-0.00000053,0.000008
 60,-0.00000368,0.00000537,0.00000501,0.00000119,0.00000297,-0.00000149
 ,-0.00000276,-0.00000210,-0.00000122,-0.00000212,-0.00000015,0.0000071
 1,0.00000018,0.00000213,-0.00000236,0.00000008,0.00000056,-0.00000211,
 -0.00000413,0.00000026,0.00037342,0.00142991,-0.00079207,0.00008201,-0
 .00000814,0.00064338,0.00221440,0.00157902,-0.02124579,0.04365580,-0.0
 0015593,0.00046289,-0.00044481,0.00063249,0.00031038,0.00011460,-0.000
 11034,-0.00002800,0.00012933,0.00006533,-0.00002121,-0.00000486,-0.000
 03976,0.00001231,0.00001861,0.00001253,0.00000832,0.00000234,-0.000005
 08,0.00000249,0.00000243,-0.00000377,0.00000134,-0.00000590,-0.0027035
 2,0.00287859,-0.00237745,-0.00058022,0.00014165,0.03438218,-0.00050494
 ,-0.04556782,-0.00844880,0.00000243,-0.00001464,-0.00001004,-0.0000018
 1,-0.00000155,0.00000279,-0.00001236,-0.00000002,-0.00000460,-0.000003
 18,-0.00000196,-0.00000208,0.00000234,0.00000039,-0.00000136,0.0000021
 1,-0.00000169,0.00000226,-0.00000602,-0.00000159,0.00000040,0.00000167
 ,0.00000034,-0.00000013,0.00000212,-0.00000138,0.00000064,0.00167276,-
 0.00594179,0.00181577,-0.00047733,0.00135073,-0.00054161,0.00306727,0.
 00006872,-0.01981614,0.00013301,0.04787531,-0.00076038,0.00080092,0.00
 061705,0.00087120,-0.00066975,-0.00111904,-0.00060616,-0.00003689,0.00
 018379,0.00035976,0.00008543,0.00009847,-0.00020501,0.00000380,0.00005
 188,0.00004538,0.00002832,0.00003086,-0.00000815,0.00000980,0.00000553
 ,-0.00001536,-0.00000163,-0.00002445,-0.00087768,-0.00085801,0.0023419
 6,0.00139884,-0.00168027,-0.01299473,0.00297178,-0.00626509,-0.3191635
 9,-0.00004153,0.00006242,0.00002901,-0.00001241,0.00002371,0.00001226,
 -0.00003959,-0.00000186,-0.00001779,-0.00001126,-0.00000617,-0.0000055
 9,0.00000601,-0.00000133,-0.00000028,0.00000610,-0.00000130,0.00000825
 ,-0.00002423,-0.00000500,0.00000368,0.00000261,0.00000640,0.00000292,0
 .00000708,-0.00000709,0.00000165,-0.00016775,0.00292290,0.00057969,0.0
 0017803,0.00036297,0.00079424,0.00160095,0.00113280,-0.00803990,-0.003
 68702,0.00393730,0.34315681,-0.00081652,0.00081274,-0.00057131,0.00260
 988,-0.00054052,0.00008767,-0.00118884,-0.00006738,-0.00000122,0.00088
 381,0.00005865,0.00014264,-0.00046932,0.00007181,0.00015443,0.00012713
 ,0.00007284,0.00007739,-0.00002533,0.00000639,0.00001880,-0.00002925,-
 0.00002432,-0.00005238,-0.00086972,0.00272286,-0.00152383,-0.00544432,
 -0.00327629,0.00325319,-0.26656101,0.06878384,0.07575747,-0.00000927,0
 .00002106,0.00001508,-0.00003067,0.00001722,0.00002405,-0.00011627,0.0
 0000711,-0.00005724,-0.00004117,-0.00001714,-0.00002199,0.00001810,0.0
 0000666,0.00000736,0.00001970,0.00000667,0.00001577,-0.00007241,-0.000
 01046,-0.00000006,0.00001486,0.00000887,-0.00000023,0.00002093,0.00000
 096,0.00000314,0.00008384,0.00021273,-0.00053430,0.00038461,0.00061089
 ,-0.00010512,-0.01563859,0.00815841,0.00777078,0.00113022,-0.00098978,
 -0.00099120,0.28601961,-0.00012996,0.00133550,0.00062899,-0.00274835,-
 0.00259509,-0.00196894,0.00092417,0.00030622,0.00020769,-0.00041895,0.
 00008296,-0.00017496,0.00029478,-0.00004218,-0.00007810,-0.00006923,-0
 .00005371,-0.00003884,0.00001828,-0.00000983,-0.00000885,0.00001741,0.
 00000905,0.00003232,0.00597405,-0.00686998,0.00359461,0.02509485,-0.00
 098361,-0.01362884,0.06686067,-0.06829836,-0.02203582,-0.00003520,-0.0
 0002947,0.00006780,0.00001373,-0.00001499,-0.00001054,0.00006771,0.000
 00027,0.00003288,0.00001848,0.00001138,0.00001106,-0.00000711,0.000000
 36,-0.00000448,-0.00000931,-0.00000357,-0.00000832,0.00003773,0.000006
 34,-0.00000166,-0.00000808,-0.00000471,0.00000023,-0.00001081,0.000002
 42,-0.00000315,-0.00039794,0.00103434,0.00057991,-0.00097807,0.0006065
 1,-0.00080894,-0.01734233,0.00730298,0.00870450,-0.00051270,-0.0015318
 2,0.00015763,-0.07665382,0.06973899,-0.00032049,0.00034156,-0.00032055
 ,0.00033679,-0.00012574,-0.00014045,-0.00015139,-0.00013164,0.00008677
 ,0.00002976,-0.00001661,0.00005695,-0.00003496,-0.00000230,0.00000094,
 0.00000087,0.00001151,-0.00000208,-0.00000190,0.00000187,-0.00000028,-
 0.00000090,0.00000245,-0.00000274,-0.00095829,0.00267208,0.00063416,-0
 .01127663,0.00078513,0.00327030,0.07626067,-0.02312799,-0.07305770,0.0
 0000407,0.00004293,-0.00001277,-0.00000062,0.00000258,0.00000380,-0.00
 000302,-0.00000274,-0.00000059,0.00000240,0.00000002,0.00000086,-0.000
 00061,-0.00000182,0.00000010,-0.00000028,0.00000011,-0.00000006,0.0000
 0199,-0.00000003,0.00000177,-0.00000087,0.00000039,-0.00000030,-0.0000
 0045,-0.00000262,0.00000032,0.00014685,-0.00079024,-0.00000807,0.00029
 626,-0.00032731,0.00029715,-0.00910013,0.00466544,0.00310451,0.0282397
 7,-0.00875087,-0.00655266,-0.08346889,0.02475384,0.07264064\\0.0000033
 8,0.00000682,0.00000541,-0.00001833,-0.00001940,-0.00001736,0.00000319
 ,0.00000795,0.00000243,-0.00000075,-0.00000825,-0.00000130,-0.00000037
 ,0.00000443,0.00000690,-0.00000711,0.00000104,-0.00000402,0.00000483,-
 0.00000463,0.00000690,0.00000330,0.00000090,-0.00000344,0.00002168,0.0
 0000871,0.00001136,-0.00001655,-0.00000037,0.00000738,0.00000588,-0.00
 000251,-0.00000562,-0.00000072,0.00000086,-0.00000256,-0.00000100,-0.0
 0000295,-0.00000125,0.00000180,-0.00000069,-0.00000018,0.00000021,0.00
 000104,-0.00000317,0.00000149,0.00000130,-0.00000017,-0.00000203,-0.00
 000013,-0.00000311,0.00000119,-0.00000106,-0.00000054,-0.00000017,-0.0
 0000167,-0.00000049,-0.00000051,-0.00000100,0.00000017,0.00000316,0.00
 000126,-0.00000351,0.00000046,0.00000182,-0.00000083,-0.00000051,0.000
 00341,0.00000223,-0.00000146,0.00000174,0.00000165,-0.00000107,0.00000
 138,0.00000311\\\@
 The archive entry for this job was punched.


 WOMEN HOLD UP HALF THE SKY. -- MAO TSE TUNG
 Job cpu time:       0 days  1 hours 48 minutes 12.2 seconds.
 Elapsed time:       0 days  0 hours  3 minutes 34.1 seconds.
 File lengths (MBytes):  RWF=    161 Int=      0 D2E=      0 Chk=      6 Scr=      2
 Normal termination of Gaussian 16 at Fri Jul 18 23:24:56 2025.
 Initial command:
 /uufs/chpc.utah.edu/sys/installdir/gaussian16/C01/AVX/g16/l1.exe "/scratch/general/vast/u6067110/5280073-notchpeak.peaks/Gau-1364907.inp" -scrdir="/scratch/general/vast/u6067110/5280073-notchpeak.peaks/"
 Entering Link 1 = /uufs/chpc.utah.edu/sys/installdir/gaussian16/C01/AVX/g16/l1.exe PID=   1371744.
  
 Copyright (c) 1988-2019, Gaussian, Inc.  All Rights Reserved.
  
 This is part of the Gaussian(R) 16 program.  It is based on
 the Gaussian(R) 09 system (copyright 2009, Gaussian, Inc.),
 the Gaussian(R) 03 system (copyright 2003, Gaussian, Inc.),
 the Gaussian(R) 98 system (copyright 1998, Gaussian, Inc.),
 the Gaussian(R) 94 system (copyright 1995, Gaussian, Inc.),
 the Gaussian 92(TM) system (copyright 1992, Gaussian, Inc.),
 the Gaussian 90(TM) system (copyright 1990, Gaussian, Inc.),
 the Gaussian 88(TM) system (copyright 1988, Gaussian, Inc.),
 the Gaussian 86(TM) system (copyright 1986, Carnegie Mellon
 University), and the Gaussian 82(TM) system (copyright 1983,
 Carnegie Mellon University). Gaussian is a federally registered
 trademark of Gaussian, Inc.
  
 This software contains proprietary and confidential information,
 including trade secrets, belonging to Gaussian, Inc.
  
 This software is provided under written license and may be
 used, copied, transmitted, or stored only in accord with that
 written license.
  
 The following legend is applicable only to US Government
 contracts under FAR:
  
                    RESTRICTED RIGHTS LEGEND
  
 Use, reproduction and disclosure by the US Government is
 subject to restrictions as set forth in subparagraphs (a)
 and (c) of the Commercial Computer Software - Restricted
 Rights clause in FAR 52.227-19.
  
 Gaussian, Inc.
 340 Quinnipiac St., Bldg. 40, Wallingford CT 06492
  
  
 ---------------------------------------------------------------
 Warning -- This program may not be used in any manner that
 competes with the business of Gaussian, Inc. or will provide
 assistance to any competitor of Gaussian, Inc.  The licensee
 of this program is prohibited from giving any competitor of
 Gaussian, Inc. access to this program.  By using this program,
 the user acknowledges that Gaussian, Inc. is engaged in the
 business of creating and licensing software in the field of
 computational chemistry and represents and warrants to the
 licensee that it is not a competitor of Gaussian, Inc. and that
 it will not use this program in any manner prohibited above.
 ---------------------------------------------------------------
  

 Cite this work as:
 Gaussian 16, Revision C.01,
 M. J. Frisch, G. W. Trucks, H. B. Schlegel, G. E. Scuseria, 
 M. A. Robb, J. R. Cheeseman, G. Scalmani, V. Barone, 
 G. A. Petersson, H. Nakatsuji, X. Li, M. Caricato, A. V. Marenich, 
 J. Bloino, B. G. Janesko, R. Gomperts, B. Mennucci, H. P. Hratchian, 
 J. V. Ortiz, A. F. Izmaylov, J. L. Sonnenberg, D. Williams-Young, 
 F. Ding, F. Lipparini, F. Egidi, J. Goings, B. Peng, A. Petrone, 
 T. Henderson, D. Ranasinghe, V. G. Zakrzewski, J. Gao, N. Rega, 
 G. Zheng, W. Liang, M. Hada, M. Ehara, K. Toyota, R. Fukuda, 
 J. Hasegawa, M. Ishida, T. Nakajima, Y. Honda, O. Kitao, H. Nakai, 
 T. Vreven, K. Throssell, J. A. Montgomery, Jr., J. E. Peralta, 
 F. Ogliaro, M. J. Bearpark, J. J. Heyd, E. N. Brothers, K. N. Kudin, 
 V. N. Staroverov, T. A. Keith, R. Kobayashi, J. Normand, 
 K. Raghavachari, A. P. Rendell, J. C. Burant, S. S. Iyengar, 
 J. Tomasi, M. Cossi, J. M. Millam, M. Klene, C. Adamo, R. Cammi, 
 J. W. Ochterski, R. L. Martin, K. Morokuma, O. Farkas, 
 J. B. Foresman, and D. J. Fox, Gaussian, Inc., Wallingford CT, 2019.
 
 ******************************************
 Gaussian 16:  ES64L-G16RevC.01  3-Jul-2019
                18-Jul-2025 
 ******************************************
 %NProcShared=32
 Will use up to   32 processors via shared memory.
 %Mem=48GB
 %chk=A18_crest_conformers_censo-14.chk
 ----------------------------------------------------------------------
 #N Guess=Read Geom=Check Integral(Ultrafine) Density Pop=NBO7 Pop=Hirs
 hfeld Pop=(ChelpG,ReadRadii) Polar Prop=(Potential,EFG) Volume M062X E
 mpiricalDispersion=GD3 def2TZVPP SCRF(IEFPCM,solvent=thf)
 ----------------------------------------------------------------------
 1/29=2,38=1,172=1/1;
 2/12=2,40=1/2;
 3/5=44,7=202,11=2,14=-4,25=1,30=1,70=2201,72=20,74=-55,75=-5,116=-2,124=31/1,2,3;
 4/5=1/1;
 5/5=2,38=6,53=20,98=1/2;
 8/6=4,10=90,11=11/1;
 10/6=1,13=10/2;
 6/7=2,8=2,9=2,10=2,14=4,15=8,20=103,22=-1,28=1,40=1,44=1,79=1,113=1,114=1,124=3103/1,2,4,12;
 99/5=1,9=1/99;
 -----------------------------
 A18_crest_conformers_censo-14
 -----------------------------
 Structure from the checkpoint file:  "A18_crest_conformers_censo-14.chk"
 Charge = -1 Multiplicity = 1
 Redundant internal coordinates found in file.  (old form).
 O,0,1.5567891538,-0.6749407221,-1.1013740135
 C,0,1.4005029597,0.1152084026,-0.1770415053
 C,0,0.2303732228,0.6390831376,0.4109362641
 N,0,-0.9914393133,0.2716860451,-0.0365141575
 C,0,-2.0966443592,0.7112140169,0.4450003523
 C,0,-3.4429235883,0.2773817429,-0.0894446632
 C,0,-3.2944679599,-0.8078422347,-1.1493307346
 C,0,-4.3605588739,-0.1833860658,1.0486730916
 O,0,2.5470051896,0.6369585037,0.4605191266
 C,0,3.7713347394,0.1748226541,-0.0344424623
 C,0,4.1251977059,-1.2040976807,0.5078867801
 H,0,0.3441325017,1.3530716668,1.239657089
 H,0,-2.1168715868,1.445261963,1.2803317953
 H,0,-3.9413808299,1.1500197575,-0.5637616343
 H,0,-4.2734708158,-1.0918827582,-1.5698599546
 H,0,-2.8193085762,-1.6967879346,-0.7083582196
 H,0,-2.6275731905,-0.4709949567,-1.9530779114
 H,0,-5.3766587924,-0.417524316,0.6877625347
 H,0,-4.446262099,0.5927214851,1.8258486905
 H,0,-3.9441104616,-1.0856077268,1.5248442435
 H,0,3.7475752764,0.1329910932,-1.135067437
 H,0,4.5293346779,0.9141284354,0.2751712826
 H,0,3.3767949951,-1.9218761419,0.147573421
 H,0,4.1120603071,-1.1957793543,1.6081396379
 H,0,5.1237197172,-1.5233790121,0.1683483839
 Recover connectivity data from disk.
                           ----------------------------
                           !    Current Parameters    !
                           ! (Angstroms and Degrees)  !
 --------------------------                            --------------------------
 ! Name  Definition              Value                                          !
 --------------------------------------------------------------------------------
 ! R1    R(1,2)                  1.226                                          !
 ! R2    R(2,3)                  1.4104                                         !
 ! R3    R(2,9)                  1.4118                                         !
 ! R4    R(3,4)                  1.352                                          !
 ! R5    R(3,12)                 1.0998                                         !
 ! R6    R(4,5)                  1.2832                                         !
 ! R7    R(5,6)                  1.5121                                         !
 ! R8    R(5,13)                 1.1122                                         !
 ! R9    R(6,7)                  1.5242                                         !
 ! R10   R(6,8)                  1.5329                                         !
 ! R11   R(6,14)                 1.1113                                         !
 ! R12   R(7,15)                 1.1027                                         !
 ! R13   R(7,16)                 1.1002                                         !
 ! R14   R(7,17)                 1.0974                                         !
 ! R15   R(8,18)                 1.1034                                         !
 ! R16   R(8,19)                 1.1017                                         !
 ! R17   R(8,20)                 1.1019                                         !
 ! R18   R(9,10)                 1.3991                                         !
 ! R19   R(10,11)                1.5234                                         !
 ! R20   R(10,21)                1.1017                                         !
 ! R21   R(10,22)                1.1032                                         !
 ! R22   R(11,23)                1.0978                                         !
 ! R23   R(11,24)                1.1004                                         !
 ! R24   R(11,25)                1.1019                                         !
 ! A1    A(1,2,3)              131.2555                                         !
 ! A2    A(1,2,9)              118.3674                                         !
 ! A3    A(3,2,9)              110.3771                                         !
 ! A4    A(2,3,4)              120.7182                                         !
 ! A5    A(2,3,12)             117.9986                                         !
 ! A6    A(4,3,12)             121.2832                                         !
 ! A7    A(3,4,5)              124.1306                                         !
 ! A8    A(4,5,6)              122.4094                                         !
 ! A9    A(4,5,13)             121.572                                          !
 ! A10   A(6,5,13)             116.0167                                         !
 ! A11   A(5,6,7)              111.3062                                         !
 ! A12   A(5,6,8)              110.905                                          !
 ! A13   A(5,6,14)             108.9612                                         !
 ! A14   A(7,6,8)              111.1365                                         !
 ! A15   A(7,6,14)             107.8179                                         !
 ! A16   A(8,6,14)             106.5249                                         !
 ! A17   A(6,7,15)             111.2304                                         !
 ! A18   A(6,7,16)             109.7939                                         !
 ! A19   A(6,7,17)             110.4846                                         !
 ! A20   A(15,7,16)            109.1571                                         !
 ! A21   A(15,7,17)            109.8337                                         !
 ! A22   A(16,7,17)            106.2075                                         !
 ! A23   A(6,8,18)             111.8513                                         !
 ! A24   A(6,8,19)             111.0136                                         !
 ! A25   A(6,8,20)             109.9211                                         !
 ! A26   A(18,8,19)            107.9742                                         !
 ! A27   A(18,8,20)            108.3991                                         !
 ! A28   A(19,8,20)            107.54                                           !
 ! A29   A(2,9,10)             115.3918                                         !
 ! A30   A(9,10,11)            112.1048                                         !
 ! A31   A(9,10,21)            110.3099                                         !
 ! A32   A(9,10,22)            106.2974                                         !
 ! A33   A(11,10,21)           109.0443                                         !
 ! A34   A(11,10,22)           110.309                                          !
 ! A35   A(21,10,22)           108.7025                                         !
 ! A36   A(10,11,23)           108.4591                                         !
 ! A37   A(10,11,24)           110.264                                          !
 ! A38   A(10,11,25)           111.288                                          !
 ! A39   A(23,11,24)           108.9649                                         !
 ! A40   A(23,11,25)           109.0974                                         !
 ! A41   A(24,11,25)           108.7298                                         !
 ! D1    D(1,2,3,4)              0.3999                                         !
 ! D2    D(1,2,3,12)          -179.5234                                         !
 ! D3    D(9,2,3,4)           -179.6542                                         !
 ! D4    D(9,2,3,12)             0.4226                                         !
 ! D5    D(1,2,9,10)            -0.6169                                         !
 ! D6    D(3,2,9,10)           179.4293                                         !
 ! D7    D(2,3,4,5)           -179.6594                                         !
 ! D8    D(12,3,4,5)             0.2613                                         !
 ! D9    D(3,4,5,6)            179.7611                                         !
 ! D10   D(3,4,5,13)             0.2814                                         !
 ! D11   D(4,5,6,7)              5.0637                                         !
 ! D12   D(4,5,6,8)            129.3471                                         !
 ! D13   D(4,5,6,14)          -113.7054                                         !
 ! D14   D(13,5,6,7)          -175.4296                                         !
 ! D15   D(13,5,6,8)           -51.1462                                         !
 ! D16   D(13,5,6,14)           65.8013                                         !
 ! D17   D(5,6,7,15)          -177.5071                                         !
 ! D18   D(5,6,7,16)            61.5638                                         !
 ! D19   D(5,6,7,17)           -55.2517                                         !
 ! D20   D(8,6,7,15)            58.3403                                         !
 ! D21   D(8,6,7,16)           -62.5887                                         !
 ! D22   D(8,6,7,17)          -179.4042                                         !
 ! D23   D(14,6,7,15)          -58.0554                                         !
 ! D24   D(14,6,7,16)         -178.9844                                         !
 ! D25   D(14,6,7,17)           64.2001                                         !
 ! D26   D(5,6,8,18)           174.8736                                         !
 ! D27   D(5,6,8,19)            54.1961                                         !
 ! D28   D(5,6,8,20)           -64.6595                                         !
 ! D29   D(7,6,8,18)           -60.7466                                         !
 ! D30   D(7,6,8,19)           178.576                                          !
 ! D31   D(7,6,8,20)            59.7203                                         !
 ! D32   D(14,6,8,18)           56.4405                                         !
 ! D33   D(14,6,8,19)          -64.237                                          !
 ! D34   D(14,6,8,20)          176.9074                                         !
 ! D35   D(2,9,10,11)          -79.9215                                         !
 ! D36   D(2,9,10,21)           41.8043                                         !
 ! D37   D(2,9,10,22)          159.4779                                         !
 ! D38   D(9,10,11,23)          64.1172                                         !
 ! D39   D(9,10,11,24)         -55.1222                                         !
 ! D40   D(9,10,11,25)        -175.8668                                         !
 ! D41   D(21,10,11,23)        -58.3305                                         !
 ! D42   D(21,10,11,24)       -177.5698                                         !
 ! D43   D(21,10,11,25)         61.6856                                         !
 ! D44   D(22,10,11,23)       -177.6355                                         !
 ! D45   D(22,10,11,24)         63.1251                                         !
 ! D46   D(22,10,11,25)        -57.6195                                         !
 --------------------------------------------------------------------------------
                          Input orientation:                          
 ---------------------------------------------------------------------
 Center     Atomic      Atomic             Coordinates (Angstroms)
 Number     Number       Type             X           Y           Z
 ---------------------------------------------------------------------
      1          8           0        1.556789   -0.674941   -1.101374
      2          6           0        1.400503    0.115208   -0.177042
      3          6           0        0.230373    0.639083    0.410936
      4          7           0       -0.991439    0.271686   -0.036514
      5          6           0       -2.096644    0.711214    0.445000
      6          6           0       -3.442924    0.277382   -0.089445
      7          6           0       -3.294468   -0.807842   -1.149331
      8          6           0       -4.360559   -0.183386    1.048673
      9          8           0        2.547005    0.636959    0.460519
     10          6           0        3.771335    0.174823   -0.034442
     11          6           0        4.125198   -1.204098    0.507887
     12          1           0        0.344133    1.353072    1.239657
     13          1           0       -2.116872    1.445262    1.280332
     14          1           0       -3.941381    1.150020   -0.563762
     15          1           0       -4.273471   -1.091883   -1.569860
     16          1           0       -2.819309   -1.696788   -0.708358
     17          1           0       -2.627573   -0.470995   -1.953078
     18          1           0       -5.376659   -0.417524    0.687763
     19          1           0       -4.446262    0.592721    1.825849
     20          1           0       -3.944110   -1.085608    1.524844
     21          1           0        3.747575    0.132991   -1.135067
     22          1           0        4.529335    0.914128    0.275171
     23          1           0        3.376795   -1.921876    0.147573
     24          1           0        4.112060   -1.195779    1.608140
     25          1           0        5.123720   -1.523379    0.168348
 ---------------------------------------------------------------------
                    Distance matrix (angstroms):
                    1          2          3          4          5
     1  O    0.000000
     2  C    1.226031   0.000000
     3  C    2.402732   1.410449   0.000000
     4  N    2.919503   2.401171   1.352042   0.000000
     5  C    4.202413   3.601694   2.328384   1.283168   0.000000
     6  C    5.189224   4.846932   3.724825   2.452062   1.512055
     7  C    4.853314   4.882635   4.117345   2.776271   2.506832
     8  C    6.315009   5.897573   4.707422   3.568710   2.507995
     9  O    2.267403   1.411798   2.317163   3.591804   4.644269
    10  C    2.600895   2.375864   3.598932   4.763759   5.911917
    11  C    3.076760   3.103813   4.310032   5.352970   6.510276
    12  H    3.326229   2.157605   1.099772   2.140505   2.645912
    13  H    4.864521   4.032977   2.629702   2.092358   1.112211
    14  H    5.818022   5.454916   4.314467   3.122758   2.147837
    15  H    5.863894   5.965819   5.215784   3.870685   3.471224
    16  H    4.510972   4.623033   4.001209   2.769002   2.766036
    17  H    4.275030   4.441096   3.871523   2.627114   2.725855
    18  H    7.165192   6.852854   5.712430   4.497748   3.477280
    19  H    6.797957   6.198730   4.886210   3.937926   2.727909
    20  H    6.109465   5.736137   4.652060   3.605323   2.794237
    21  H    2.335259   2.535129   3.875173   4.866653   6.081600
    22  H    3.640885   3.260730   4.309890   5.566761   6.631260
    23  H    2.535180   2.856715   4.065445   4.891531   6.081132
    24  H    3.760605   3.501158   4.457299   5.559141   6.598298
    25  H    3.880082   4.082475   5.355365   6.376472   7.563306
                    6          7          8          9         10
     6  C    0.000000
     7  C    1.524175   0.000000
     8  C    1.532864   2.521451   0.000000
     9  O    6.025861   6.229115   6.980926   0.000000
    10  C    7.215197   7.220400   8.211525   1.399121   0.000000
    11  C    7.734859   7.612807   8.564016   2.425371   1.523405
    12  H    4.155167   4.859653   4.952908   2.443874   3.841525
    13  H    2.235765   3.516599   2.782138   4.803873   6.165519
    14  H    1.111276   2.143504   2.133923   6.588743   7.792122
    15  H    2.180900   1.102710   2.773025   7.323266   8.287397
    16  H    2.160855   1.100208   2.784420   5.967409   6.884306
    17  H    2.167485   1.097372   3.477998   5.816294   6.711502
    18  H    2.196879   2.804065   1.103420   7.996751   9.195555
    19  H    2.185057   3.484236   1.101676   7.125438   8.435889
    20  H    2.171372   2.765936   1.101895   6.799603   7.971710
    21  H    7.267561   7.104628   8.403015   2.059429   1.101676
    22  H    8.005954   8.136724   8.990720   2.010176   1.103176
    23  H    7.169482   6.886856   7.981289   2.708158   2.141247
    24  H    7.882244   7.912699   8.551212   2.669337   2.166269
    25  H    8.757658   8.550682   9.618841   3.375186   2.180357
                   11         12         13         14         15
    11  C    0.000000
    12  H    4.622884   0.000000
    13  H    6.824896   2.463066   0.000000
    14  H    8.471127   4.653942   2.610878   0.000000
    15  H    8.652587   5.932407   4.383106   2.479646   0.000000
    16  H    7.067401   4.806638   3.784281   3.063375   1.795183
    17  H    7.224521   4.727770   3.793125   2.506787   1.800371
    18  H    9.536054   6.013905   3.800964   2.466481   2.601661
    19  H    8.856382   4.885656   2.539778   2.505140   3.794547
    20  H    8.134001   4.941408   3.131116   3.059463   3.112188
    21  H    2.151675   4.325660   6.476723   7.776939   8.125672
    22  H    2.168955   4.317270   6.742737   8.515426   9.215075
    23  H    1.097788   4.595103   6.542257   7.968578   7.884481
    24  H    1.100363   4.563957   6.773636   8.664747   8.968144
    25  H    1.101941   5.680328   7.904144   9.479404   9.566334
                   16         17         18         19         20
    16  H    0.000000
    17  H    1.757458   0.000000
    18  H    3.182092   3.812397   0.000000
    19  H    3.782993   4.326593   1.783669   0.000000
    20  H    2.574085   3.769212   1.788641   1.777512   0.000000
    21  H    6.830383   6.455731   9.320806   8.724526   8.229346
    22  H    7.860456   7.622663  10.003611   9.114233   8.795448
    23  H    6.258992   6.524587   8.898193   8.386896   7.496124
    24  H    7.325370   7.657039   9.564966   8.745914   8.057355
    25  H    7.993146   8.104968  10.571218   9.940309   9.179176
                   21         22         23         24         25
    21  H    0.000000
    22  H    1.791674   0.000000
    23  H    2.450536   3.063911   0.000000
    24  H    3.069799   2.530343   1.789158   0.000000
    25  H    2.517187   2.511204   1.791920   1.789909   0.000000
 Stoichiometry    C8H14NO2(1-)
 Framework group  C1[X(C8H14NO2)]
 Deg. of freedom    69
 Full point group                 C1      NOp   1
 Largest Abelian subgroup         C1      NOp   1
 Largest concise Abelian subgroup C1      NOp   1
                         Standard orientation:                         
 ---------------------------------------------------------------------
 Center     Atomic      Atomic             Coordinates (Angstroms)
 Number     Number       Type             X           Y           Z
 ---------------------------------------------------------------------
      1          8           0       -1.629629    1.240544   -0.295927
      2          6           0       -1.447097    0.028178   -0.295161
      3          6           0       -0.260135   -0.733668   -0.286217
      4          7           0        0.948802   -0.128552   -0.268227
      5          6           0        2.068049   -0.756085   -0.265523
      6          6           0        3.399164   -0.038996   -0.250442
      7          6           0        3.214951    1.467856   -0.114164
      8          6           0        4.303572   -0.587844    0.858831
      9          8           0       -2.575604   -0.820074   -0.305787
     10          6           0       -3.814650   -0.170231   -0.302729
     11          6           0       -4.210959    0.301814    1.090423
     12          1           0       -0.350062   -1.829717   -0.295614
     13          1           0        2.112685   -1.867266   -0.282829
     14          1           0        3.924145   -0.231925   -1.210706
     15          1           0        4.183868    1.993250   -0.147792
     16          1           0        2.712691    1.697247    0.837451
     17          1           0        2.557768    1.847635   -0.906693
     18          1           0        5.311232   -0.139375    0.826683
     19          1           0        4.414887   -1.680542    0.773331
     20          1           0        3.859629   -0.375403    1.844710
     21          1           0       -3.793914    0.695800   -0.983354
     22          1           0       -4.548497   -0.901136   -0.682525
     23          1           0       -3.486104    1.057195    1.420761
     24          1           0       -4.195874   -0.541437    1.797174
     25          1           0       -5.219569    0.745639    1.090592
 ---------------------------------------------------------------------
 Rotational constants (GHZ):           3.3329065           0.3700293           0.3553739
 Standard basis: def2TZVPP (5D, 7F)
 There are   606 symmetry adapted cartesian basis functions of A   symmetry.
 There are   537 symmetry adapted basis functions of A   symmetry.
   537 basis functions,   799 primitive gaussians,   606 cartesian basis functions
    43 alpha electrons       43 beta electrons
       nuclear repulsion energy       596.7444315537 Hartrees.
 NAtoms=   25 NActive=   25 NUniq=   25 SFac= 1.00D+00 NAtFMM=   60 NAOKFM=F Big=F
 Integral buffers will be    131072 words long.
 Raffenetti 2 integral format.
 Two-electron integral symmetry is turned on.
 Nuclear repulsion after empirical dispersion term =      596.7436328441 Hartrees.
 ------------------------------------------------------------------------------
 Polarizable Continuum Model (PCM)
 =================================
 Model                : PCM.
 Atomic radii         : UFF (Universal Force Field).
 Polarization charges : Total charges.
 Charge compensation  : None.
 Solution method      : On-the-fly selection.
 Cavity type          : Scaled VdW (van der Waals Surface) (Alpha=1.100).
 Cavity algorithm     : GePol (No added spheres)
                        Default sphere list used, NSphG=   25.
                        Lebedev-Laikov grids with approx.  5.0 points / Ang**2.
                        Smoothing algorithm: York/Karplus (Gamma=1.0000).
                        Polarization charges: spherical gaussians, with
                                              point-specific exponents (IZeta= 3).
                        Self-potential: point-specific (ISelfS= 7).
                        Self-field    : sphere-specific E.n sum rule (ISelfD= 2).
 Solvent              : TetraHydroFuran, Eps=   7.425700 Eps(inf)=   1.974025
 ------------------------------------------------------------------------------
 One-electron integrals computed using PRISM.
   1 Symmetry operations used in ECPInt.
 ECPInt:  NShTT=   21115 NPrTT=   55562 LenC2=   18217 LenP2D=   37173.
 LDataN:  DoStor=T MaxTD1= 6 Len=  172
 NBasis=   537 RedAO= T EigKep=  6.11D-05  NBF=   537
 NBsUse=   537 1.00D-06 EigRej= -1.00D+00 NBFU=   537
 Initial guess from the checkpoint file:  "A18_crest_conformers_censo-14.chk"
 B after Tr=     0.000000    0.000000    0.000000
         Rot=    1.000000   -0.000000   -0.000000    0.000000 Ang=   0.00 deg.
 Requested convergence on RMS density matrix=1.00D-08 within 128 cycles.
 Requested convergence on MAX density matrix=1.00D-06.
 Requested convergence on             energy=1.00D-06.
 No special actions if energy rises.
 Inv3:  Mode=1 IEnd=    11560107.
 Iteration    1 A*A^-1 deviation from unit magnitude is 4.88D-15 for   1963.
 Iteration    1 A*A^-1 deviation from orthogonality  is 3.16D-15 for   1955   1490.
 Iteration    1 A^-1*A deviation from unit magnitude is 4.88D-15 for   1963.
 Iteration    1 A^-1*A deviation from orthogonality  is 3.05D-15 for   1960   1174.
 Error on total polarization charges =  0.01316
 SCF Done:  E(RM062X) =  -518.550031035     A.U. after   13 cycles
            NFock= 13  Conv=0.51D-08     -V/T= 2.0053
 DoSCS=F DFT=T ScalE2(SS,OS)=  1.000000  1.000000
 Range of M.O.s used for correlation:     1   537
 NBasis=   537 NAE=    43 NBE=    43 NFC=     0 NFV=     0
 NROrb=    537 NOA=    43 NOB=    43 NVA=   494 NVB=   494

 **** Warning!!: The largest alpha MO coefficient is  0.20249060D+02

 NEqPCM:  Using equilibrium solvation (IEInf=0, Eps=   7.4257, EpsInf=   1.9740)
          Differentiating once with respect to electric field.
                with respect to dipole field.
          Electric field/nuclear overlap derivatives assumed to be zero.
          There are     3 degrees of freedom in the 1st order CPHF.  IDoFFX=0 NUNeed=     3.
      3 vectors produced by pass  0 Test12= 7.08D-13 3.33D-08 XBig12= 1.29D+02 8.77D+00.
 AX will form     3 AO Fock derivatives at one time.
      3 vectors produced by pass  1 Test12= 7.08D-13 3.33D-08 XBig12= 1.38D+01 6.63D-01.
      3 vectors produced by pass  2 Test12= 7.08D-13 3.33D-08 XBig12= 5.42D+00 9.23D-01.
      3 vectors produced by pass  3 Test12= 7.08D-13 3.33D-08 XBig12= 9.20D-01 2.34D-01.
      3 vectors produced by pass  4 Test12= 7.08D-13 3.33D-08 XBig12= 2.65D-01 1.25D-01.
      3 vectors produced by pass  5 Test12= 7.08D-13 3.33D-08 XBig12= 3.68D-02 3.70D-02.
      3 vectors produced by pass  6 Test12= 7.08D-13 3.33D-08 XBig12= 5.39D-03 1.05D-02.
      3 vectors produced by pass  7 Test12= 7.08D-13 3.33D-08 XBig12= 6.85D-04 3.04D-03.
      3 vectors produced by pass  8 Test12= 7.08D-13 3.33D-08 XBig12= 5.41D-05 9.19D-04.
      3 vectors produced by pass  9 Test12= 7.08D-13 3.33D-08 XBig12= 7.41D-06 5.30D-04.
      3 vectors produced by pass 10 Test12= 7.08D-13 3.33D-08 XBig12= 8.72D-07 1.89D-04.
      3 vectors produced by pass 11 Test12= 7.08D-13 3.33D-08 XBig12= 3.72D-08 2.69D-05.
      3 vectors produced by pass 12 Test12= 7.08D-13 3.33D-08 XBig12= 1.31D-09 4.73D-06.
      3 vectors produced by pass 13 Test12= 7.08D-13 3.33D-08 XBig12= 5.53D-11 1.48D-06.
      2 vectors produced by pass 14 Test12= 7.08D-13 3.33D-08 XBig12= 2.63D-12 3.10D-07.
      1 vectors produced by pass 15 Test12= 7.08D-13 3.33D-08 XBig12= 9.86D-14 4.23D-08.
 InvSVY:  IOpt=1 It=  1 EMax= 2.88D-15
 Solved reduced A of dimension    45 with     3 vectors.
 Isotropic polarizability for W=    0.000000      173.98 Bohr**3.
 End of Minotr F.D. properties file   721 does not exist.
 End of Minotr F.D. properties file   722 does not exist.
 End of Minotr F.D. properties file   788 does not exist.

 **********************************************************************

            Population analysis using the SCF Density.

 **********************************************************************

 Orbital symmetries:
       Occupied  (A) (A) (A) (A) (A) (A) (A) (A) (A) (A) (A) (A)
                 (A) (A) (A) (A) (A) (A) (A) (A) (A) (A) (A) (A)
                 (A) (A) (A) (A) (A) (A) (A) (A) (A) (A) (A) (A)
                 (A) (A) (A) (A) (A) (A) (A)
       Virtual   (A) (A) (A) (A) (A) (A) (A) (A) (A) (A) (A) (A)
                 (A) (A) (A) (A) (A) (A) (A) (A) (A) (A) (A) (A)
                 (A) (A) (A) (A) (A) (A) (A) (A) (A) (A) (A) (A)
                 (A) (A) (A) (A) (A) (A) (A) (A) (A) (A) (A) (A)
                 (A) (A) (A) (A) (A) (A) (A) (A) (A) (A) (A) (A)
                 (A) (A) (A) (A) (A) (A) (A) (A) (A) (A) (A) (A)
                 (A) (A) (A) (A) (A) (A) (A) (A) (A) (A) (A) (A)
                 (A) (A) (A) (A) (A) (A) (A) (A) (A) (A) (A) (A)
                 (A) (A) (A) (A) (A) (A) (A) (A) (A) (A) (A) (A)
                 (A) (A) (A) (A) (A) (A) (A) (A) (A) (A) (A) (A)
                 (A) (A) (A) (A) (A) (A) (A) (A) (A) (A) (A) (A)
                 (A) (A) (A) (A) (A) (A) (A) (A) (A) (A) (A) (A)
                 (A) (A) (A) (A) (A) (A) (A) (A) (A) (A) (A) (A)
                 (A) (A) (A) (A) (A) (A) (A) (A) (A) (A) (A) (A)
                 (A) (A) (A) (A) (A) (A) (A) (A) (A) (A) (A) (A)
                 (A) (A) (A) (A) (A) (A) (A) (A) (A) (A) (A) (A)
                 (A) (A) (A) (A) (A) (A) (A) (A) (A) (A) (A) (A)
                 (A) (A) (A) (A) (A) (A) (A) (A) (A) (A) (A) (A)
                 (A) (A) (A) (A) (A) (A) (A) (A) (A) (A) (A) (A)
                 (A) (A) (A) (A) (A) (A) (A) (A) (A) (A) (A) (A)
                 (A) (A) (A) (A) (A) (A) (A) (A) (A) (A) (A) (A)
                 (A) (A) (A) (A) (A) (A) (A) (A) (A) (A) (A) (A)
                 (A) (A) (A) (A) (A) (A) (A) (A) (A) (A) (A) (A)
                 (A) (A) (A) (A) (A) (A) (A) (A) (A) (A) (A) (A)
                 (A) (A) (A) (A) (A) (A) (A) (A) (A) (A) (A) (A)
                 (A) (A) (A) (A) (A) (A) (A) (A) (A) (A) (A) (A)
                 (A) (A) (A) (A) (A) (A) (A) (A) (A) (A) (A) (A)
                 (A) (A) (A) (A) (A) (A) (A) (A) (A) (A) (A) (A)
                 (A) (A) (A) (A) (A) (A) (A) (A) (A) (A) (A) (A)
                 (A) (A) (A) (A) (A) (A) (A) (A) (A) (A) (A) (A)
                 (A) (A) (A) (A) (A) (A) (A) (A) (A) (A) (A) (A)
                 (A) (A) (A) (A) (A) (A) (A) (A) (A) (A) (A) (A)
                 (A) (A) (A) (A) (A) (A) (A) (A) (A) (A) (A) (A)
                 (A) (A) (A) (A) (A) (A) (A) (A) (A) (A) (A) (A)
                 (A) (A) (A) (A) (A) (A) (A) (A) (A) (A) (A) (A)
                 (A) (A) (A) (A) (A) (A) (A) (A) (A) (A) (A) (A)
                 (A) (A) (A) (A) (A) (A) (A) (A) (A) (A) (A) (A)
                 (A) (A) (A) (A) (A) (A) (A) (A) (A) (A) (A) (A)
                 (A) (A) (A) (A) (A) (A) (A) (A) (A) (A) (A) (A)
                 (A) (A) (A) (A) (A) (A) (A) (A) (A) (A) (A) (A)
                 (A) (A) (A) (A) (A) (A) (A) (A) (A) (A) (A) (A)
                 (A) (A)
 The electronic state is 1-A.
 Alpha  occ. eigenvalues --  -19.60223 -19.53780 -14.70209 -10.59303 -10.55385
 Alpha  occ. eigenvalues --  -10.51448 -10.51232 -10.50688 -10.50167 -10.49748
 Alpha  occ. eigenvalues --  -10.47726  -1.15882  -1.06620  -0.98286  -0.86724
 Alpha  occ. eigenvalues --   -0.82766  -0.76243  -0.74817  -0.69931  -0.65335
 Alpha  occ. eigenvalues --   -0.59589  -0.56384  -0.54160  -0.51891  -0.50354
 Alpha  occ. eigenvalues --   -0.49712  -0.48413  -0.47152  -0.45668  -0.43439
 Alpha  occ. eigenvalues --   -0.43248  -0.42183  -0.41208  -0.40449  -0.38356
 Alpha  occ. eigenvalues --   -0.37155  -0.37025  -0.36290  -0.35312  -0.31888
 Alpha  occ. eigenvalues --   -0.29406  -0.27086  -0.17410
 Alpha virt. eigenvalues --    0.06878   0.09768   0.10653   0.12526   0.13156
 Alpha virt. eigenvalues --    0.13676   0.14417   0.15063   0.15331   0.15865
 Alpha virt. eigenvalues --    0.16672   0.17024   0.17397   0.18503   0.18809
 Alpha virt. eigenvalues --    0.19250   0.20318   0.20689   0.21379   0.22668
 Alpha virt. eigenvalues --    0.24537   0.24772   0.25193   0.25441   0.27769
 Alpha virt. eigenvalues --    0.28031   0.28978   0.29316   0.30150   0.30968
 Alpha virt. eigenvalues --    0.32770   0.34036   0.35145   0.35582   0.36827
 Alpha virt. eigenvalues --    0.38000   0.38294   0.39632   0.40071   0.42106
 Alpha virt. eigenvalues --    0.42696   0.43560   0.44439   0.44961   0.46115
 Alpha virt. eigenvalues --    0.46247   0.46674   0.47076   0.47712   0.48530
 Alpha virt. eigenvalues --    0.48998   0.49476   0.49589   0.50125   0.50868
 Alpha virt. eigenvalues --    0.51374   0.52252   0.52767   0.53312   0.54176
 Alpha virt. eigenvalues --    0.54376   0.55164   0.56816   0.57534   0.58733
 Alpha virt. eigenvalues --    0.59553   0.60247   0.61202   0.62573   0.63038
 Alpha virt. eigenvalues --    0.64803   0.65040   0.67208   0.68691   0.69328
 Alpha virt. eigenvalues --    0.70155   0.71028   0.71925   0.73601   0.74726
 Alpha virt. eigenvalues --    0.75097   0.77282   0.79041   0.79422   0.80689
 Alpha virt. eigenvalues --    0.81536   0.83675   0.84881   0.86314   0.86839
 Alpha virt. eigenvalues --    0.87623   0.89871   0.90889   0.91562   0.94076
 Alpha virt. eigenvalues --    0.94945   0.95558   0.97063   0.97292   0.97893
 Alpha virt. eigenvalues --    0.98391   0.99366   0.99807   1.00812   1.02465
 Alpha virt. eigenvalues --    1.02848   1.04059   1.04765   1.05762   1.06342
 Alpha virt. eigenvalues --    1.07317   1.08998   1.10143   1.12980   1.13242
 Alpha virt. eigenvalues --    1.14984   1.15058   1.15968   1.16901   1.17262
 Alpha virt. eigenvalues --    1.18236   1.19681   1.21243   1.22473   1.23431
 Alpha virt. eigenvalues --    1.24233   1.24670   1.24736   1.26322   1.26778
 Alpha virt. eigenvalues --    1.27374   1.29171   1.31540   1.32497   1.34179
 Alpha virt. eigenvalues --    1.34804   1.35793   1.37695   1.39345   1.40905
 Alpha virt. eigenvalues --    1.41502   1.44153   1.45649   1.46138   1.46640
 Alpha virt. eigenvalues --    1.46873   1.47378   1.49028   1.49634   1.49744
 Alpha virt. eigenvalues --    1.50656   1.51760   1.52592   1.53035   1.54350
 Alpha virt. eigenvalues --    1.55018   1.56539   1.57342   1.57657   1.58324
 Alpha virt. eigenvalues --    1.59348   1.59434   1.60206   1.60592   1.62343
 Alpha virt. eigenvalues --    1.63598   1.64894   1.65571   1.67360   1.68327
 Alpha virt. eigenvalues --    1.69328   1.70846   1.72470   1.73640   1.76864
 Alpha virt. eigenvalues --    1.77582   1.79664   1.81181   1.83491   1.85834
 Alpha virt. eigenvalues --    1.87546   1.88916   1.91217   1.95296   1.96771
 Alpha virt. eigenvalues --    1.97511   2.00405   2.03622   2.04976   2.08965
 Alpha virt. eigenvalues --    2.10711   2.12785   2.12998   2.14214   2.15419
 Alpha virt. eigenvalues --    2.17010   2.20840   2.21279   2.24697   2.27534
 Alpha virt. eigenvalues --    2.27969   2.29954   2.30926   2.33611   2.38126
 Alpha virt. eigenvalues --    2.41662   2.42640   2.44973   2.45275   2.48171
 Alpha virt. eigenvalues --    2.49964   2.52125   2.53201   2.54980   2.56124
 Alpha virt. eigenvalues --    2.57534   2.58589   2.59597   2.61076   2.61163
 Alpha virt. eigenvalues --    2.62091   2.65149   2.66952   2.67369   2.69530
 Alpha virt. eigenvalues --    2.71081   2.72608   2.76149   2.77444   2.79472
 Alpha virt. eigenvalues --    2.81522   2.81590   2.83554   2.85421   2.85898
 Alpha virt. eigenvalues --    2.86530   2.87086   2.87464   2.88757   2.89800
 Alpha virt. eigenvalues --    2.91567   2.92847   2.93793   2.95112   2.95561
 Alpha virt. eigenvalues --    2.96036   2.96915   2.97679   2.98342   2.98979
 Alpha virt. eigenvalues --    3.00521   3.00647   3.02379   3.03649   3.04150
 Alpha virt. eigenvalues --    3.05861   3.06801   3.07790   3.08747   3.09411
 Alpha virt. eigenvalues --    3.09815   3.10870   3.12116   3.13491   3.14373
 Alpha virt. eigenvalues --    3.14895   3.16232   3.16923   3.18294   3.18911
 Alpha virt. eigenvalues --    3.19134   3.19570   3.20490   3.20826   3.22167
 Alpha virt. eigenvalues --    3.24344   3.24814   3.25676   3.27075   3.28555
 Alpha virt. eigenvalues --    3.29615   3.31962   3.33132   3.33514   3.34083
 Alpha virt. eigenvalues --    3.35065   3.35772   3.35866   3.36673   3.38693
 Alpha virt. eigenvalues --    3.39402   3.40814   3.42011   3.43024   3.44563
 Alpha virt. eigenvalues --    3.47548   3.48205   3.48854   3.49425   3.50181
 Alpha virt. eigenvalues --    3.51515   3.52378   3.52753   3.55167   3.55746
 Alpha virt. eigenvalues --    3.56524   3.58120   3.59068   3.60140   3.60508
 Alpha virt. eigenvalues --    3.61934   3.63522   3.63663   3.64546   3.64911
 Alpha virt. eigenvalues --    3.66085   3.67784   3.69526   3.72186   3.73571
 Alpha virt. eigenvalues --    3.75198   3.76120   3.77310   3.79439   3.79787
 Alpha virt. eigenvalues --    3.81808   3.82259   3.83318   3.84405   3.85418
 Alpha virt. eigenvalues --    3.87094   3.87872   3.89088   3.89594   3.89848
 Alpha virt. eigenvalues --    3.91940   3.92689   3.93777   3.95037   3.95496
 Alpha virt. eigenvalues --    3.96137   3.97108   3.98268   3.98615   3.99771
 Alpha virt. eigenvalues --    4.00329   4.00951   4.01924   4.03322   4.03720
 Alpha virt. eigenvalues --    4.04843   4.05026   4.06313   4.06801   4.07795
 Alpha virt. eigenvalues --    4.08853   4.09525   4.11276   4.12223   4.12503
 Alpha virt. eigenvalues --    4.13050   4.15278   4.16010   4.16734   4.19382
 Alpha virt. eigenvalues --    4.21246   4.21893   4.24005   4.24259   4.25980
 Alpha virt. eigenvalues --    4.26992   4.28082   4.30599   4.31703   4.32007
 Alpha virt. eigenvalues --    4.34106   4.36364   4.39505   4.40434   4.43961
 Alpha virt. eigenvalues --    4.47027   4.49538   4.50529   4.52726   4.53853
 Alpha virt. eigenvalues --    4.55161   4.56116   4.57907   4.58098   4.58982
 Alpha virt. eigenvalues --    4.60347   4.63836   4.64571   4.65315   4.69752
 Alpha virt. eigenvalues --    4.71549   4.73454   4.75045   4.76169   4.78246
 Alpha virt. eigenvalues --    4.79173   4.79772   4.81661   4.84888   4.85550
 Alpha virt. eigenvalues --    4.86871   4.87583   4.89750   4.90260   4.91704
 Alpha virt. eigenvalues --    4.94687   4.96781   4.97124   5.01522   5.02340
 Alpha virt. eigenvalues --    5.05055   5.09769   5.11490   5.12049   5.14928
 Alpha virt. eigenvalues --    5.17160   5.17481   5.18506   5.21594   5.22521
 Alpha virt. eigenvalues --    5.24373   5.25076   5.26524   5.27608   5.28125
 Alpha virt. eigenvalues --    5.29300   5.29583   5.30405   5.31572   5.32895
 Alpha virt. eigenvalues --    5.34004   5.35256   5.36492   5.37910   5.39086
 Alpha virt. eigenvalues --    5.40264   5.41330   5.42860   5.43933   5.46467
 Alpha virt. eigenvalues --    5.47575   5.51476   5.51951   5.52397   5.52816
 Alpha virt. eigenvalues --    5.58154   5.58630   5.59862   5.60501   5.61873
 Alpha virt. eigenvalues --    5.62374   5.63409   5.64044   5.65895   5.67201
 Alpha virt. eigenvalues --    5.71869   5.76751   5.86735   5.90141   5.93759
 Alpha virt. eigenvalues --    6.01033   6.06252   6.20860   6.24519   6.30708
 Alpha virt. eigenvalues --    6.43237   6.48493   6.55550   6.62364   6.76955
 Alpha virt. eigenvalues --    6.78464   6.86991   6.95047   7.00740   7.15128
 Alpha virt. eigenvalues --    7.21131   7.38263   7.46350  23.19553  23.24236
 Alpha virt. eigenvalues --   23.43600  23.45956  23.52312  23.67472  23.70735
 Alpha virt. eigenvalues --   23.79034  32.89956  44.19725  44.49795
          Condensed to atoms (all electrons):
               1          2          3          4          5          6
     1  O    8.125140   0.639456  -0.122625  -0.000751   0.002526  -0.000612
     2  C    0.639456   4.475178   0.514916  -0.087117   0.002395   0.000385
     3  C   -0.122625   0.514916   5.338942   0.445273  -0.202811   0.008707
     4  N   -0.000751  -0.087117   0.445273   6.430796   0.641579  -0.121403
     5  C    0.002526   0.002395  -0.202811   0.641579   5.209539   0.231908
     6  C   -0.000612   0.000385   0.008707  -0.121403   0.231908   5.228542
     7  C    0.000119  -0.000546  -0.000781  -0.003022  -0.045268   0.254191
     8  C   -0.000006  -0.000222   0.000723   0.003757  -0.101201   0.294554
     9  O   -0.112058   0.282763  -0.106093   0.005018   0.000338  -0.000073
    10  C   -0.006133  -0.068300  -0.004394  -0.000153   0.000061  -0.000022
    11  C   -0.028089   0.008094   0.008790  -0.000072  -0.000040   0.000005
    12  H    0.004907  -0.053839   0.410467  -0.051255  -0.009822  -0.008211
    13  H   -0.000055  -0.004153  -0.007011  -0.055151   0.451763  -0.114896
    14  H   -0.000008   0.000119   0.000454  -0.000913  -0.068541   0.465810
    15  H    0.000012   0.000031   0.000053   0.001885   0.017458  -0.054223
    16  H    0.000193  -0.000184  -0.001250   0.005251  -0.005431  -0.030212
    17  H    0.000553  -0.000212  -0.000690   0.009430  -0.007718  -0.038194
    18  H    0.000000   0.000008   0.000007  -0.000255   0.016891  -0.040660
    19  H    0.000000  -0.000001   0.000021   0.000315  -0.006819  -0.039932
    20  H   -0.000000  -0.000027  -0.000681   0.001114  -0.002471  -0.022826
    21  H    0.020096  -0.015008   0.003646  -0.000078   0.000001   0.000004
    22  H    0.001750   0.006586   0.001379   0.000004  -0.000000   0.000000
    23  H    0.018283   0.000516  -0.000276  -0.000000   0.000040  -0.000000
    24  H    0.001298  -0.002926  -0.000407   0.000005   0.000005  -0.000000
    25  H    0.000406  -0.000117  -0.000329   0.000000   0.000000  -0.000000
               7          8          9         10         11         12
     1  O    0.000119  -0.000006  -0.112058  -0.006133  -0.028089   0.004907
     2  C   -0.000546  -0.000222   0.282763  -0.068300   0.008094  -0.053839
     3  C   -0.000781   0.000723  -0.106093  -0.004394   0.008790   0.410467
     4  N   -0.003022   0.003757   0.005018  -0.000153  -0.000072  -0.051255
     5  C   -0.045268  -0.101201   0.000338   0.000061  -0.000040  -0.009822
     6  C    0.254191   0.294554  -0.000073  -0.000022   0.000005  -0.008211
     7  C    5.019785  -0.051837   0.000013   0.000004  -0.000000   0.000746
     8  C   -0.051837   5.081335  -0.000001  -0.000000   0.000000   0.000082
     9  O    0.000013  -0.000001   8.154885   0.237971  -0.054447   0.014602
    10  C    0.000004  -0.000000   0.237971   4.869686   0.238543   0.002161
    11  C   -0.000000   0.000000  -0.054447   0.238543   5.117617   0.000036
    12  H    0.000746   0.000082   0.014602   0.002161   0.000036   0.617838
    13  H    0.012957  -0.001533   0.000065   0.000028  -0.000003   0.022863
    14  H   -0.051216  -0.088884  -0.000001   0.000000  -0.000000   0.000020
    15  H    0.422332  -0.007730   0.000000   0.000000  -0.000000   0.000017
    16  H    0.407873  -0.017635   0.000003   0.000002  -0.000002   0.000092
    17  H    0.416799   0.012518   0.000010  -0.000003   0.000001   0.000154
    18  H   -0.009314   0.408793   0.000000   0.000000  -0.000000  -0.000002
    19  H    0.010462   0.414827   0.000000   0.000000  -0.000000   0.000064
    20  H   -0.011381   0.387990   0.000000   0.000000  -0.000000   0.000005
    21  H   -0.000001  -0.000000  -0.048903   0.442101  -0.078779  -0.000063
    22  H   -0.000000  -0.000000  -0.035638   0.416006  -0.047280  -0.000354
    23  H   -0.000001  -0.000000  -0.003634  -0.032697   0.399619  -0.000136
    24  H    0.000000  -0.000000   0.005046  -0.031711   0.387356   0.000038
    25  H   -0.000000  -0.000000   0.005692  -0.029013   0.392023   0.000000
              13         14         15         16         17         18
     1  O   -0.000055  -0.000008   0.000012   0.000193   0.000553   0.000000
     2  C   -0.004153   0.000119   0.000031  -0.000184  -0.000212   0.000008
     3  C   -0.007011   0.000454   0.000053  -0.001250  -0.000690   0.000007
     4  N   -0.055151  -0.000913   0.001885   0.005251   0.009430  -0.000255
     5  C    0.451763  -0.068541   0.017458  -0.005431  -0.007718   0.016891
     6  C   -0.114896   0.465810  -0.054223  -0.030212  -0.038194  -0.040660
     7  C    0.012957  -0.051216   0.422332   0.407873   0.416799  -0.009314
     8  C   -0.001533  -0.088884  -0.007730  -0.017635   0.012518   0.408793
     9  O    0.000065  -0.000001   0.000000   0.000003   0.000010   0.000000
    10  C    0.000028   0.000000   0.000000   0.000002  -0.000003   0.000000
    11  C   -0.000003  -0.000000  -0.000000  -0.000002   0.000001  -0.000000
    12  H    0.022863   0.000020   0.000017   0.000092   0.000154  -0.000002
    13  H    0.650828  -0.001169   0.000094   0.000680   0.000808  -0.000499
    14  H   -0.001169   0.672348  -0.005998   0.010322  -0.007605  -0.002033
    15  H    0.000094  -0.005998   0.568848  -0.025997  -0.021790   0.002267
    16  H    0.000680   0.010322  -0.025997   0.566717  -0.024780   0.000617
    17  H    0.000808  -0.007605  -0.021790  -0.024780   0.547142  -0.000401
    18  H   -0.000499  -0.002033   0.002267   0.000617  -0.000401   0.563315
    19  H    0.004255  -0.003687  -0.000030   0.000035  -0.000398  -0.023291
    20  H    0.000258   0.011196  -0.000037   0.005635  -0.000346  -0.021624
    21  H   -0.000003   0.000000  -0.000000  -0.000001  -0.000001  -0.000000
    22  H    0.000000   0.000000  -0.000000   0.000000  -0.000000   0.000000
    23  H   -0.000000   0.000000   0.000000   0.000003  -0.000002   0.000000
    24  H   -0.000000   0.000000  -0.000000   0.000000  -0.000000   0.000000
    25  H    0.000000   0.000000   0.000000   0.000000  -0.000000   0.000000
              19         20         21         22         23         24
     1  O    0.000000  -0.000000   0.020096   0.001750   0.018283   0.001298
     2  C   -0.000001  -0.000027  -0.015008   0.006586   0.000516  -0.002926
     3  C    0.000021  -0.000681   0.003646   0.001379  -0.000276  -0.000407
     4  N    0.000315   0.001114  -0.000078   0.000004  -0.000000   0.000005
     5  C   -0.006819  -0.002471   0.000001  -0.000000   0.000040   0.000005
     6  C   -0.039932  -0.022826   0.000004   0.000000  -0.000000  -0.000000
     7  C    0.010462  -0.011381  -0.000001  -0.000000  -0.000001   0.000000
     8  C    0.414827   0.387990  -0.000000  -0.000000  -0.000000  -0.000000
     9  O    0.000000   0.000000  -0.048903  -0.035638  -0.003634   0.005046
    10  C    0.000000   0.000000   0.442101   0.416006  -0.032697  -0.031711
    11  C   -0.000000  -0.000000  -0.078779  -0.047280   0.399619   0.387356
    12  H    0.000064   0.000005  -0.000063  -0.000354  -0.000136   0.000038
    13  H    0.004255   0.000258  -0.000003   0.000000  -0.000000  -0.000000
    14  H   -0.003687   0.011196   0.000000   0.000000   0.000000   0.000000
    15  H   -0.000030  -0.000037  -0.000000  -0.000000   0.000000  -0.000000
    16  H    0.000035   0.005635  -0.000001   0.000000   0.000003   0.000000
    17  H   -0.000398  -0.000346  -0.000001  -0.000000  -0.000002  -0.000000
    18  H   -0.023291  -0.021624  -0.000000   0.000000   0.000000   0.000000
    19  H    0.562760  -0.025010  -0.000000   0.000000   0.000000   0.000000
    20  H   -0.025010   0.571279   0.000000   0.000000   0.000000   0.000000
    21  H   -0.000000   0.000000   0.606712  -0.028623  -0.008470   0.009427
    22  H    0.000000   0.000000  -0.028623   0.585590   0.006758  -0.006220
    23  H    0.000000   0.000000  -0.008470   0.006758   0.548794  -0.025878
    24  H    0.000000   0.000000   0.009427  -0.006220  -0.025878   0.581840
    25  H    0.000000   0.000000   0.003848  -0.002719  -0.022021  -0.017587
              25
     1  O    0.000406
     2  C   -0.000117
     3  C   -0.000329
     4  N    0.000000
     5  C    0.000000
     6  C   -0.000000
     7  C   -0.000000
     8  C   -0.000000
     9  O    0.005692
    10  C   -0.029013
    11  C    0.392023
    12  H    0.000000
    13  H    0.000000
    14  H    0.000000
    15  H    0.000000
    16  H    0.000000
    17  H   -0.000000
    18  H    0.000000
    19  H    0.000000
    20  H    0.000000
    21  H    0.003848
    22  H   -0.002719
    23  H   -0.022021
    24  H   -0.017587
    25  H    0.569659
 Mulliken charges:
               1
     1  O   -0.544400
     2  C    0.302203
     3  C   -0.286030
     4  N   -0.224257
     5  C   -0.124381
     6  C   -0.012845
     7  C   -0.371912
     8  C   -0.335528
     9  O   -0.345558
    10  C   -0.034137
    11  C   -0.343372
    12  H    0.049589
    13  H    0.039874
    14  H    0.069787
    15  H    0.102807
    16  H    0.108068
    17  H    0.114725
    18  H    0.106179
    19  H    0.106431
    20  H    0.106925
    21  H    0.094095
    22  H    0.102761
    23  H    0.119104
    24  H    0.099715
    25  H    0.100156
 Sum of Mulliken charges =  -1.00000
 Mulliken charges with hydrogens summed into heavy atoms:
               1
     1  O   -0.544400
     2  C    0.302203
     3  C   -0.236441
     4  N   -0.224257
     5  C   -0.084507
     6  C    0.056942
     7  C   -0.046312
     8  C   -0.015993
     9  O   -0.345558
    10  C    0.162719
    11  C   -0.024396
 Electronic spatial extent (au):  <R**2>=           3234.0242
 Charge=             -1.0000 electrons
 Dipole moment (field-independent basis, Debye):
    X=              2.0843    Y=             -1.8733    Z=              1.1199  Tot=              3.0179
 Quadrupole moment (field-independent basis, Debye-Ang):
   XX=            -80.6208   YY=            -79.6293   ZZ=            -74.3250
   XY=              1.0147   XZ=             -1.1477   YZ=              0.5838
 Traceless Quadrupole moment (field-independent basis, Debye-Ang):
   XX=             -2.4291   YY=             -1.4376   ZZ=              3.8667
   XY=              1.0147   XZ=             -1.1477   YZ=              0.5838
 Octapole moment (field-independent basis, Debye-Ang**2):
  XXX=            -32.8886  YYY=             -6.8102  ZZZ=             -0.9579  XYY=              3.5372
  XXY=             -1.0432  XXZ=             -6.1057  XZZ=             -6.0801  YZZ=              2.5836
  YYZ=              1.4295  XYZ=              0.9345
 Hexadecapole moment (field-independent basis, Debye-Ang**3):
 XXXX=          -3906.7572 YYYY=           -411.3093 ZZZZ=           -245.6439 XXXY=             11.6877
 XXXZ=             -2.3616 YYYX=              0.5313 YYYZ=              1.1860 ZZZX=              5.6220
 ZZZY=             -2.6844 XXYY=           -746.5917 XXZZ=           -715.3829 YYZZ=           -109.8388
 XXYZ=              2.5897 YYXZ=             -3.5177 ZZXY=              4.5970
 N-N= 5.967436328441D+02 E-N=-2.417317806793D+03  KE= 5.158176839820D+02
 There are a total of      571000 grid points.
 ElSum from          density=       85.9999837898
 ElSum from atomic densities=       84.9999701849
 Hirshfeld populations at iteration   1 (CA, CB, DipXYZ):
               1          2          3          4          5
     1  O    4.206610   4.206610  -0.042711  -0.221943   0.018023
     2  C    2.950587   2.950587  -0.139209  -0.027168   0.007279
     3  C    3.090854   3.090854   0.062587   0.004277   0.001772
     4  N    3.589900   3.589900  -0.012266  -0.163665  -0.002079
     5  C    3.022320   3.022320   0.061797  -0.012405   0.000920
     6  C    3.015384   3.015384   0.010525   0.006390   0.018685
     7  C    3.049813   3.049813   0.027300  -0.018105  -0.006051
     8  C    3.046968   3.046968  -0.002005   0.010646  -0.021053
     9  O    4.098179   4.098179  -0.027859   0.176541   0.009428
    10  C    2.995174   2.995174   0.031122  -0.026326   0.021130
    11  C    3.050945   3.050945  -0.016708  -0.002620  -0.019017
    12  H    0.509427   0.509427   0.003890  -0.126245  -0.000604
    13  H    0.498876   0.498876   0.012174  -0.115806  -0.002937
    14  H    0.491150   0.491150   0.065888  -0.019507  -0.109292
    15  H    0.490487   0.490487   0.118698   0.062162  -0.006569
    16  H    0.491125   0.491125  -0.046914   0.035540   0.115234
    17  H    0.491306   0.491306  -0.057960   0.056139  -0.100937
    18  H    0.488322   0.488322   0.123943   0.055360  -0.007470
    19  H    0.488782   0.488782   0.017235  -0.133547  -0.014401
    20  H    0.489300   0.489300  -0.048955   0.027626   0.119954
    21  H    0.492214   0.492214  -0.028730   0.089160  -0.080683
    22  H    0.488231   0.488231  -0.098879  -0.086366  -0.043115
    23  H    0.489576   0.489576   0.068259   0.087825   0.052611
    24  H    0.488555   0.488555  -0.003111  -0.105191   0.087486
    25  H    0.485904   0.485904  -0.127906   0.056354  -0.005318
       Tot  42.999992  42.999992  -0.049798  -0.390872   0.032996

 Dip from Atomic Chgs              0.869818  -0.346142   0.407577
         Total Dipole              0.820020  -0.737014   0.440574

 Hirshfeld charges, spin densities, dipoles, and CM5 charges using IRadAn=      5:
              Q-H        S-H        Dx         Dy         Dz        Q-CM5   
     1  O   -0.413219   0.000000  -0.042711  -0.221943   0.018023  -0.461109
     2  C    0.098826   0.000000  -0.139209  -0.027168   0.007279   0.155747
     3  C   -0.181707   0.000000   0.062587   0.004277   0.001772  -0.152731
     4  N   -0.179801   0.000000  -0.012266  -0.163665  -0.002079  -0.383212
     5  C   -0.044639   0.000000   0.061797  -0.012405   0.000920  -0.011612
     6  C   -0.030769   0.000000   0.010525   0.006390   0.018685  -0.093625
     7  C   -0.099627   0.000000   0.027300  -0.018105  -0.006051  -0.242496
     8  C   -0.093937   0.000000  -0.002005   0.010646  -0.021053  -0.238594
     9  O   -0.196359   0.000000  -0.027859   0.176541   0.009428  -0.278227
    10  C    0.009653   0.000000   0.031122  -0.026326   0.021130  -0.069095
    11  C   -0.101890   0.000000  -0.016708  -0.002620  -0.019017  -0.246312
    12  H   -0.018855   0.000000   0.003890  -0.126245  -0.000604   0.048224
    13  H    0.002248   0.000000   0.012174  -0.115806  -0.002937   0.064850
    14  H    0.017699   0.000000   0.065888  -0.019507  -0.109292   0.074655
    15  H    0.019026   0.000000   0.118698   0.062162  -0.006569   0.069571
    16  H    0.017750   0.000000  -0.046914   0.035540   0.115234   0.071625
    17  H    0.017387   0.000000  -0.057960   0.056139  -0.100937   0.072055
    18  H    0.023355   0.000000   0.123943   0.055360  -0.007470   0.073513
    19  H    0.022436   0.000000   0.017235  -0.133547  -0.014401   0.073128
    20  H    0.021400   0.000000  -0.048955   0.027626   0.119954   0.072850
    21  H    0.015572   0.000000  -0.028730   0.089160  -0.080683   0.083415
    22  H    0.023537   0.000000  -0.098879  -0.086366  -0.043115   0.085988
    23  H    0.020848   0.000000   0.068259   0.087825   0.052611   0.077510
    24  H    0.022889   0.000000  -0.003111  -0.105191   0.087486   0.075524
    25  H    0.028192   0.000000  -0.127906   0.056354  -0.005318   0.078373
       Tot  -0.999984   0.000000  -0.049798  -0.390872   0.032996  -0.999984
 Hirshfeld charges with hydrogens summed into heavy atoms:
              Q-H       Q-CM5   
     1  O   -0.413219  -0.461109
     2  C    0.098826   0.155747
     3  C   -0.200562  -0.104507
     4  N   -0.179801  -0.383212
     5  C   -0.042391   0.053238
     6  C   -0.013070  -0.018970
     7  C   -0.045464  -0.029245
     8  C   -0.026745  -0.019103
     9  O   -0.196359  -0.278227
    10  C    0.048762   0.100308
    11  C   -0.029961  -0.014905
 
 EQQ=  0.00000000000     EQD=  0.00000000000     EDD=-0.180569069869E-02
 EQQ+QD+DD=-0.180569069869E-02
 
  Exact polarizability:     259.028     -18.164     144.433       2.246      -0.414     118.474
 Approx polarizability:     202.172     -16.669     141.163       0.735      -0.299     116.977
 Breneman (CHELPG) radii used.
 Read replacement radii for each type of atom:
 Atom Element Radius
    1     8    1.70
    2     6    1.50
    3     6    1.50
    4     7    1.70
    5     6    1.50
    6     6    1.50
    7     6    1.50
    8     6    1.50
    9     8    1.70
   10     6    1.50
   11     6    1.50
   12     1    1.45
   13     1    1.45
   14     1    1.45
   15     1    1.45
   16     1    1.45
   17     1    1.45
   18     1    1.45
   19     1    1.45
   20     1    1.45
   21     1    1.45
   22     1    1.45
   23     1    1.45
   24     1    1.45
   25     1    1.45
 Generate Potential Derived Charges using the Breneman model, NDens= 1.
 Grid spacing= 0.300 Box extension= 2.800
 NStep X,Y,Z=   54     33     30   Total possible points=       53460
 Number of Points to Fit=   16357

 **********************************************************************

            Electrostatic Properties Using The SCF Density.

 **********************************************************************

       Atomic Center    1 is at  -1.629629  1.240544 -0.295927
       Atomic Center    2 is at  -1.447097  0.028178 -0.295161
       Atomic Center    3 is at  -0.260135 -0.733668 -0.286217
       Atomic Center    4 is at   0.948802 -0.128552 -0.268227
       Atomic Center    5 is at   2.068049 -0.756085 -0.265523
       Atomic Center    6 is at   3.399164 -0.038996 -0.250442
       Atomic Center    7 is at   3.214951  1.467856 -0.114164
       Atomic Center    8 is at   4.303572 -0.587844  0.858831
       Atomic Center    9 is at  -2.575604 -0.820074 -0.305787
       Atomic Center   10 is at  -3.814650 -0.170231 -0.302729
       Atomic Center   11 is at  -4.210959  0.301814  1.090423
       Atomic Center   12 is at  -0.350062 -1.829717 -0.295614
       Atomic Center   13 is at   2.112685 -1.867266 -0.282829
       Atomic Center   14 is at   3.924145 -0.231925 -1.210706
       Atomic Center   15 is at   4.183868  1.993250 -0.147792
       Atomic Center   16 is at   2.712691  1.697247  0.837451
       Atomic Center   17 is at   2.557768  1.847635 -0.906693
       Atomic Center   18 is at   5.311232 -0.139375  0.826683
       Atomic Center   19 is at   4.414887 -1.680542  0.773331
       Atomic Center   20 is at   3.859629 -0.375403  1.844710
       Atomic Center   21 is at  -3.793914  0.695800 -0.983354
       Atomic Center   22 is at  -4.548497 -0.901136 -0.682525
       Atomic Center   23 is at  -3.486104  1.057195  1.420761
       Atomic Center   24 is at  -4.195874 -0.541437  1.797174
       Atomic Center   25 is at  -5.219569  0.745639  1.090592
 Evaluate density.
 Using the total density.
 Monte-Carlo method of calculating molar volume:
 based on  0.001 e/bohr**3 density envelope.
 Number of points per bohr**3 =   20 CutOff= 1.00D-04
 Using the SCF density.
 There are       397 points.  Will hold       397 in memory.
 LenV=  6441880400 MDV=  6442450944.
 Box volume = 7854.274 fraction occupied=0.191
 Integrated density= 5.0135531113684472D+01 error=-3.5864468886315528D+01
 Molar volume = 1503.589 bohr**3/mol (134.179 cm**3/mol)
 Recommended a0 for SCRF calculation =  4.64 angstrom (  8.77 bohr)
 Running external command "gaunbo7 R"
         input file       "/scratch/general/vast/u6067110/5280073-notchpeak.peaks/Gau-1371744.EIn"
         output file      "/scratch/general/vast/u6067110/5280073-notchpeak.peaks/Gau-1371744.EOu"
         message file     "/scratch/general/vast/u6067110/5280073-notchpeak.peaks/Gau-1371744.EMs"
         fchk file        "/scratch/general/vast/u6067110/5280073-notchpeak.peaks/Gau-1371744.EFC"
         mat. el file     "/scratch/general/vast/u6067110/5280073-notchpeak.peaks/Gau-1371744.EUF"

 Writing WrtUnf unformatted file "/scratch/general/vast/u6067110/5280073-notchpeak.peaks/Gau-1371744.EUF"
 Gaussian matrix elements                                         Version   2 NLab=11 Len12L=8 Len4L=8
 Write SHELL TO ATOM MAP                   from file      0 offset           0 length                 205 to matrix element file.
 Write SHELL TYPES                         from file      0 offset           0 length                 205 to matrix element file.
 Write NUMBER OF PRIMITIVES PER SHELL      from file      0 offset           0 length                 205 to matrix element file.
 Write PRIMITIVE EXPONENTS                 from file      0 offset           0 length                 332 to matrix element file.
 Write CONTRACTION COEFFICIENTS            from file      0 offset           0 length                 332 to matrix element file.
 Write P(S=P) CONTRACTION COEFFICIENTS     from file      0 offset           0 length                 332 to matrix element file.
 Write COORDINATES OF EACH SHELL           from file      0 offset           0 length                 615 to matrix element file.
 Write BONDS PER ATOM                      from file      0 offset           0 length                  25 to matrix element file.
 Write BONDED ATOMS                        from file      0 offset           0 length                  48 to matrix element file.
 Write BOND TYPES                          from file      0 offset           0 length                  48 to matrix element file.
 Write ONIOM CHARGE/MULT                   from file      0 offset           0 length                  32 to matrix element file.
 Write ONIOM ATOM LAYERS                   from file      0 offset           0 length                  25 to matrix element file.
 Write ONIOM ATOM MODIFIERS                from file      0 offset           0 length                  25 to matrix element file.
 Write ONIOM ATOM TYPES                    from file      0 offset           0 length                  25 to matrix element file.
 Write ONIOM LINK ATOMS                    from file      0 offset           0 length                  25 to matrix element file.
 Write ONIOM LINK CHARGES                  from file      0 offset           0 length                  25 to matrix element file.
 Write ONIOM LINK DISTANCES                from file      0 offset           0 length                 100 to matrix element file.
 Write SYMINF INTS                         from file      0 offset           0 length                  26 to matrix element file.
 Write ROTTR TO SO                         from file      0 offset           0 length                  12 to matrix element file.
 Write GAUSSIAN SCALARS                    from file    501 offset           0 to matrix element file.
 Write OPTIMIZATION FLAGS                  from file      0 offset           0 length                  25 to matrix element file.
 Write INTEGER ISO                         from file      0 offset           0 length                  25 to matrix element file.
 Write INTEGER SPIN                        from file      0 offset           0 length                  25 to matrix element file.
 Write REAL ZEFFECTIVE                     from file      0 offset           0 length                  25 to matrix element file.
 Write REAL QUADRUPOLEMOMENT               from file      0 offset           0 length                  25 to matrix element file.
 Write REAL GFACTOR                        from file      0 offset           0 length                  25 to matrix element file.
 Write REAL ZNUCLEAR                       from file      0 offset           0 length                  25 to matrix element file.
 Write MULLIKEN CHARGES                    from file      0 offset           0 length                  25 to matrix element file.
 Write TYPE 6 CHARGES                      from file      0 offset           0 length                  25 to matrix element file.
 Write TYPE 7 CHARGES                      from file      0 offset           0 length                  25 to matrix element file.
 Write NUCLEAR GRADIENT                    from file  10584 offset           0 length                  75 to matrix element file.
 Array NUCLEAR FORCE CONSTANTS              on  file  10585 does not exist.
 Write ELECTRIC DIPOLE MOMENT              from file      0 offset           0 length                   3 to matrix element file.
 Write ELECTRIC DIPOLE POLARIZABILITY      from file      0 offset           0 length                   6 to matrix element file.
 Write ELECTRIC DIPOLE HYPERPOLARIZABILITY from file      0 offset           0 length                  10 to matrix element file.
 Write NON-ADIABATIC COUPLING              from file  10810 offset           0 length                  75 to matrix element file.
 Write RED INT COORD DIMS                  from file      0 offset           0 length                   4 to matrix element file.
 Write RED INT COORD ATOMS                 from file      0 offset           0 length                 444 to matrix element file.
 Write RED INT COORD VALS                  from file      0 offset           0 length                 111 to matrix element file.
 Write RED INT COORD IFLAGS                from file      0 offset           0 length                 111 to matrix element file.
 Write RED INT COORD RFLAGS                from file      0 offset           0 length                 111 to matrix element file.
 Write RED INT COORD CONSTRAINT            from file      0 offset           0 length                 222 to matrix element file.
 Write FINITE EM FIELD                     from file  10521 offset           0 length                  35 to matrix element file.
 Write OVERLAP                             from file  10514 offset           0 length              144453 to matrix element file.
 Write CORE HAMILTONIAN ALPHA              from file  10515 offset           0 length              144453 to matrix element file.
 Write CORE HAMILTONIAN BETA               from file  10515 offset      144453 length              144453 to matrix element file.
 Write KINETIC ENERGY                      from file  10516 offset           0 length              144453 to matrix element file.
 Write ORTHOGONAL BASIS                    from file  10685 offset           0 length              288369 to matrix element file.
 Write DIPOLE INTEGRALS                    from file  10518 offset           0 length              433359 to matrix element file.
 Array DIP VEL INTEGRALS                    on  file  10572 does not exist.
 Array R X DEL INTEGRALS                    on  file  10572 does not exist.
 Write ALPHA ORBITAL ENERGIES              from file      0 offset           0 length                 537 to matrix element file.
 Write ALPHA MO COEFFICIENTS               from file  10524 offset           0 length              288369 to matrix element file.
 Write ALPHA DENSITY MATRIX                from file      0 offset           0 length              144453 to matrix element file.
 Write ALPHA FOCK MATRIX                   from file  10536 offset           0 length              144453 to matrix element file.
 Write ENERGY-WEIGHTED DENSITY             from file  10571 offset           0 length              144453 to matrix element file.
 Write ALPHA SCF DENSITY MATRIX            from file      0 offset           0 length              144453 to matrix element file.
 Write TRANS MO COEFFICIENTS               from file  10548 offset           0 length              288369 to matrix element file.
 No 2e integrals to process.
 Perform NBO analysis...executing G16NBO...

 *********************************** NBO 7.0 ***********************************
             N A T U R A L   A T O M I C   O R B I T A L   A N D
          N A T U R A L   B O N D   O R B I T A L   A N A L Y S I S
 **************************** Anita Orendt (S101720) ***************************
  (c) Copyright 1996-2021 Board of Regents of the University of Wisconsin System
      on behalf of the Theoretical Chemistry Institute.  All rights reserved.

          Cite this program [NBO 7.0.10 (8-Feb-2021)] as:

          NBO 7.0.  E. D. Glendening, J. K. Badenhoop, A. E. Reed,
          J. E. Carpenter, J. A. Bohmann, C. M. Morales, P. Karafiloglou,
          C. R. Landis, and F. Weinhold, Theoretical Chemistry Institute,
          University of Wisconsin, Madison, WI (2018)

 Filename set to /scratch/general/vast/u6067110/5280073-notchpeak.pea

 Job title: A18_crest_conformers_censo-14


 NATURAL POPULATIONS:  Natural atomic orbital occupancies

  NAO Atom No lang   Type(AO)    Occupancy      Energy
 -------------------------------------------------------
   1    O  1  s      Cor( 1s)     2.00000     -19.53762
   2    O  1  s      Val( 2s)     1.70004      -0.69856
   3    O  1  s      Ryd( 3s)     0.00041       1.42887
   4    O  1  s      Ryd( 4s)     0.00004       6.88997
   5    O  1  s      Ryd( 5s)     0.00000      39.72238
   6    O  1  px     Val( 2p)     1.83962      -0.27338
   7    O  1  px     Ryd( 3p)     0.00197       0.85526
   8    O  1  px     Ryd( 4p)     0.00002       3.36853
   9    O  1  py     Val( 2p)     1.56894      -0.26153
  10    O  1  py     Ryd( 3p)     0.00093       0.70927
  11    O  1  py     Ryd( 4p)     0.00014       4.01253
  12    O  1  pz     Val( 2p)     1.63078      -0.25026
  13    O  1  pz     Ryd( 3p)     0.00264       0.72136
  14    O  1  pz     Ryd( 4p)     0.00001       3.01414
  15    O  1  dxy    Ryd( 3d)     0.00419       2.14622
  16    O  1  dxy    Ryd( 4d)     0.00002       6.80985
  17    O  1  dxz    Ryd( 3d)     0.00016       1.72651
  18    O  1  dxz    Ryd( 4d)     0.00000       6.39717
  19    O  1  dyz    Ryd( 3d)     0.00484       1.96857
  20    O  1  dyz    Ryd( 4d)     0.00003       6.60053
  21    O  1  dx2y2  Ryd( 3d)     0.00646       2.18646
  22    O  1  dx2y2  Ryd( 4d)     0.00001       6.77119
  23    O  1  dz2    Ryd( 3d)     0.00234       1.92128
  24    O  1  dz2    Ryd( 4d)     0.00000       6.61112
  25    O  1  f(0)   Ryd( 4f)     0.00005       5.55276
  26    O  1  f(c1)  Ryd( 4f)     0.00001       5.34167
  27    O  1  f(s1)  Ryd( 4f)     0.00006       5.85166
  28    O  1  f(c2)  Ryd( 4f)     0.00012       5.73220
  29    O  1  f(s2)  Ryd( 4f)     0.00001       5.54807
  30    O  1  f(c3)  Ryd( 4f)     0.00018       6.16380
  31    O  1  f(s3)  Ryd( 4f)     0.00013       6.07020

  32    C  2  s      Cor( 1s)     1.99999     -10.59294
  33    C  2  s      Val( 2s)     0.82356      -0.04707
  34    C  2  s      Ryd( 3s)     0.00433       1.49119
  35    C  2  s      Ryd( 4s)     0.00024       2.16911
  36    C  2  s      Ryd( 5s)     0.00000      22.01411
  37    C  2  px     Val( 2p)     0.85425       0.03758
  38    C  2  px     Ryd( 3p)     0.00539       1.34827
  39    C  2  px     Ryd( 4p)     0.00026       1.73892
  40    C  2  py     Val( 2p)     0.76829       0.10651
  41    C  2  py     Ryd( 3p)     0.01792       1.28408
  42    C  2  py     Ryd( 4p)     0.00026       1.43627
  43    C  2  pz     Val( 2p)     0.83982      -0.05827
  44    C  2  pz     Ryd( 3p)     0.00283       0.88090
  45    C  2  pz     Ryd( 4p)     0.00041       1.13530
  46    C  2  dxy    Ryd( 4d)     0.00207       3.65166
  47    C  2  dxy    Ryd( 3d)     0.00029       3.29069
  48    C  2  dxz    Ryd( 4d)     0.00169       2.37725
  49    C  2  dxz    Ryd( 3d)     0.00019       2.34935
  50    C  2  dyz    Ryd( 4d)     0.00245       2.60715
  51    C  2  dyz    Ryd( 3d)     0.00009       2.37983
  52    C  2  dx2y2  Ryd( 4d)     0.00059       3.27136
  53    C  2  dx2y2  Ryd( 3d)     0.00045       3.46575
  54    C  2  dz2    Ryd( 4d)     0.00021       2.92432
  55    C  2  dz2    Ryd( 3d)     0.00017       2.75932
  56    C  2  f(0)   Ryd( 4f)     0.00024       3.36388
  57    C  2  f(c1)  Ryd( 4f)     0.00020       3.44047
  58    C  2  f(s1)  Ryd( 4f)     0.00017       3.50560
  59    C  2  f(c2)  Ryd( 4f)     0.00002       3.37950
  60    C  2  f(s2)  Ryd( 4f)     0.00003       3.42792
  61    C  2  f(c3)  Ryd( 4f)     0.00009       4.13422
  62    C  2  f(s3)  Ryd( 4f)     0.00034       3.95165

  63    C  3  s      Cor( 1s)     1.99999     -10.47717
  64    C  3  s      Val( 2s)     0.94738      -0.07806
  65    C  3  s      Ryd( 3s)     0.00462       1.17220
  66    C  3  s      Ryd( 4s)     0.00020       2.78137
  67    C  3  s      Ryd( 5s)     0.00000      19.63387
  68    C  3  px     Val( 2p)     0.93218       0.04046
  69    C  3  px     Ryd( 3p)     0.00577       0.93806
  70    C  3  px     Ryd( 4p)     0.00040       1.84788
  71    C  3  py     Val( 2p)     1.10522       0.00459
  72    C  3  py     Ryd( 3p)     0.00407       0.95831
  73    C  3  py     Ryd( 4p)     0.00102       1.80946
  74    C  3  pz     Val( 2p)     1.36200      -0.09031
  75    C  3  pz     Ryd( 3p)     0.01078       0.51654
  76    C  3  pz     Ryd( 4p)     0.00016       1.48739
  77    C  3  dxy    Ryd( 3d)     0.00138       3.65310
  78    C  3  dxy    Ryd( 4d)     0.00023       3.81518
  79    C  3  dxz    Ryd( 3d)     0.00065       2.08222
  80    C  3  dxz    Ryd( 4d)     0.00016       2.79590
  81    C  3  dyz    Ryd( 3d)     0.00029       1.94683
  82    C  3  dyz    Ryd( 4d)     0.00005       2.81956
  83    C  3  dx2y2  Ryd( 3d)     0.00074       2.78542
  84    C  3  dx2y2  Ryd( 4d)     0.00036       3.97997
  85    C  3  dz2    Ryd( 3d)     0.00086       2.67531
  86    C  3  dz2    Ryd( 4d)     0.00004       3.38492
  87    C  3  f(0)   Ryd( 4f)     0.00063       3.30984
  88    C  3  f(c1)  Ryd( 4f)     0.00026       3.52397
  89    C  3  f(s1)  Ryd( 4f)     0.00040       3.41560
  90    C  3  f(c2)  Ryd( 4f)     0.00004       3.31422
  91    C  3  f(s2)  Ryd( 4f)     0.00002       3.40501
  92    C  3  f(c3)  Ryd( 4f)     0.00010       4.01774
  93    C  3  f(s3)  Ryd( 4f)     0.00043       4.00325

  94    N  4  s      Cor( 1s)     1.99999     -14.70200
  95    N  4  s      Val( 2s)     1.32832      -0.36723
  96    N  4  s      Ryd( 3s)     0.00382       1.08719
  97    N  4  s      Ryd( 4s)     0.00007       4.18302
  98    N  4  s      Ryd( 5s)     0.00000      29.24493
  99    N  4  px     Val( 2p)     1.22059      -0.08584
 100    N  4  px     Ryd( 3p)     0.00277       1.17340
 101    N  4  px     Ryd( 4p)     0.00008       3.59466
 102    N  4  py     Val( 2p)     1.69528      -0.20727
 103    N  4  py     Ryd( 3p)     0.00810       0.78524
 104    N  4  py     Ryd( 4p)     0.00016       3.35407
 105    N  4  pz     Val( 2p)     1.14957      -0.14457
 106    N  4  pz     Ryd( 3p)     0.00092       0.64133
 107    N  4  pz     Ryd( 4p)     0.00003       2.50744
 108    N  4  dxy    Ryd( 3d)     0.00628       2.17000
 109    N  4  dxy    Ryd( 4d)     0.00012       5.41289
 110    N  4  dxz    Ryd( 3d)     0.00067       1.66914
 111    N  4  dxz    Ryd( 4d)     0.00020       4.90428
 112    N  4  dyz    Ryd( 3d)     0.00278       1.46880
 113    N  4  dyz    Ryd( 4d)     0.00001       4.73253
 114    N  4  dx2y2  Ryd( 3d)     0.00294       2.25910
 115    N  4  dx2y2  Ryd( 4d)     0.00021       5.32670
 116    N  4  dz2    Ryd( 3d)     0.00443       1.83243
 117    N  4  dz2    Ryd( 4d)     0.00002       5.05873
 118    N  4  f(0)   Ryd( 4f)     0.00020       4.36722
 119    N  4  f(c1)  Ryd( 4f)     0.00024       4.61746
 120    N  4  f(s1)  Ryd( 4f)     0.00011       4.28505
 121    N  4  f(c2)  Ryd( 4f)     0.00013       4.43603
 122    N  4  f(s2)  Ryd( 4f)     0.00001       4.54834
 123    N  4  f(c3)  Ryd( 4f)     0.00020       5.05933
 124    N  4  f(s3)  Ryd( 4f)     0.00040       5.01705

 125    C  5  s      Cor( 1s)     1.99999     -10.51224
 126    C  5  s      Val( 2s)     0.93812      -0.09622
 127    C  5  s      Ryd( 3s)     0.00831       1.03214
 128    C  5  s      Ryd( 4s)     0.00029       2.15379
 129    C  5  s      Ryd( 5s)     0.00000      21.19836
 130    C  5  px     Val( 2p)     0.91683       0.04877
 131    C  5  px     Ryd( 3p)     0.00496       1.12030
 132    C  5  px     Ryd( 4p)     0.00026       1.86194
 133    C  5  py     Val( 2p)     1.07392       0.00343
 134    C  5  py     Ryd( 3p)     0.00352       1.14651
 135    C  5  py     Ryd( 4p)     0.00076       1.64139
 136    C  5  pz     Val( 2p)     1.06687      -0.07776
 137    C  5  pz     Ryd( 3p)     0.00527       0.70401
 138    C  5  pz     Ryd( 4p)     0.00042       1.34361
 139    C  5  dxy    Ryd( 4d)     0.00083       3.51094
 140    C  5  dxy    Ryd( 3d)     0.00027       3.21661
 141    C  5  dxz    Ryd( 4d)     0.00057       2.71339
 142    C  5  dxz    Ryd( 3d)     0.00005       2.38927
 143    C  5  dyz    Ryd( 4d)     0.00020       2.55069
 144    C  5  dyz    Ryd( 3d)     0.00010       2.25601
 145    C  5  dx2y2  Ryd( 4d)     0.00093       3.08348
 146    C  5  dx2y2  Ryd( 3d)     0.00052       3.44933
 147    C  5  dz2    Ryd( 4d)     0.00070       3.11217
 148    C  5  dz2    Ryd( 3d)     0.00016       2.74532
 149    C  5  f(0)   Ryd( 4f)     0.00030       3.33190
 150    C  5  f(c1)  Ryd( 4f)     0.00028       3.42595
 151    C  5  f(s1)  Ryd( 4f)     0.00032       3.36558
 152    C  5  f(c2)  Ryd( 4f)     0.00001       3.37738
 153    C  5  f(s2)  Ryd( 4f)     0.00003       3.40907
 154    C  5  f(c3)  Ryd( 4f)     0.00013       3.93740
 155    C  5  f(s3)  Ryd( 4f)     0.00044       3.87265

 156    C  6  s      Cor( 1s)     1.99999     -10.51426
 157    C  6  s      Val( 2s)     1.01034      -0.17524
 158    C  6  s      Ryd( 3s)     0.00180       1.31955
 159    C  6  s      Ryd( 4s)     0.00004       6.61647
 160    C  6  s      Ryd( 5s)     0.00001      14.89222
 161    C  6  px     Val( 2p)     1.07590      -0.04555
 162    C  6  px     Ryd( 3p)     0.00220       1.04596
 163    C  6  px     Ryd( 4p)     0.00015       1.70532
 164    C  6  py     Val( 2p)     1.04272      -0.04175
 165    C  6  py     Ryd( 3p)     0.00147       1.09558
 166    C  6  py     Ryd( 4p)     0.00013       1.55657
 167    C  6  pz     Val( 2p)     1.11769      -0.06636
 168    C  6  pz     Ryd( 3p)     0.00193       1.04507
 169    C  6  pz     Ryd( 4p)     0.00009       1.61638
 170    C  6  dxy    Ryd( 3d)     0.00041       2.36319
 171    C  6  dxy    Ryd( 4d)     0.00040       3.78158
 172    C  6  dxz    Ryd( 3d)     0.00096       2.27263
 173    C  6  dxz    Ryd( 4d)     0.00013       3.82851
 174    C  6  dyz    Ryd( 3d)     0.00028       1.99716
 175    C  6  dyz    Ryd( 4d)     0.00045       3.47293
 176    C  6  dx2y2  Ryd( 3d)     0.00042       2.36914
 177    C  6  dx2y2  Ryd( 4d)     0.00028       3.85996
 178    C  6  dz2    Ryd( 3d)     0.00082       2.39871
 179    C  6  dz2    Ryd( 4d)     0.00018       3.83890
 180    C  6  f(0)   Ryd( 4f)     0.00003       3.61210
 181    C  6  f(c1)  Ryd( 4f)     0.00029       3.77979
 182    C  6  f(s1)  Ryd( 4f)     0.00008       3.50813
 183    C  6  f(c2)  Ryd( 4f)     0.00002       3.60884
 184    C  6  f(s2)  Ryd( 4f)     0.00003       3.55907
 185    C  6  f(c3)  Ryd( 4f)     0.00002       3.80832
 186    C  6  f(s3)  Ryd( 4f)     0.00029       3.68483

 187    C  7  s      Cor( 1s)     1.99999     -10.49734
 188    C  7  s      Val( 2s)     1.10849      -0.20321
 189    C  7  s      Ryd( 3s)     0.00054       1.56971
 190    C  7  s      Ryd( 4s)     0.00002       2.17046
 191    C  7  s      Ryd( 5s)     0.00000      21.93426
 192    C  7  px     Val( 2p)     1.19714      -0.07108
 193    C  7  px     Ryd( 3p)     0.00188       0.98953
 194    C  7  px     Ryd( 4p)     0.00005       1.83591
 195    C  7  py     Val( 2p)     1.06461      -0.04918
 196    C  7  py     Ryd( 3p)     0.00085       0.78924
 197    C  7  py     Ryd( 4p)     0.00011       2.22629
 198    C  7  pz     Val( 2p)     1.21558      -0.08157
 199    C  7  pz     Ryd( 3p)     0.00081       0.79363
 200    C  7  pz     Ryd( 4p)     0.00002       1.79679
 201    C  7  dxy    Ryd( 3d)     0.00092       1.88468
 202    C  7  dxy    Ryd( 4d)     0.00010       3.53666
 203    C  7  dxz    Ryd( 3d)     0.00184       1.82058
 204    C  7  dxz    Ryd( 4d)     0.00002       3.65848
 205    C  7  dyz    Ryd( 3d)     0.00036       1.82554
 206    C  7  dyz    Ryd( 4d)     0.00009       3.35994
 207    C  7  dx2y2  Ryd( 3d)     0.00153       2.20366
 208    C  7  dx2y2  Ryd( 4d)     0.00002       3.54089
 209    C  7  dz2    Ryd( 3d)     0.00188       1.93170
 210    C  7  dz2    Ryd( 4d)     0.00002       3.59893
 211    C  7  f(0)   Ryd( 4f)     0.00004       3.37954
 212    C  7  f(c1)  Ryd( 4f)     0.00037       3.59949
 213    C  7  f(s1)  Ryd( 4f)     0.00012       3.46897
 214    C  7  f(c2)  Ryd( 4f)     0.00002       3.48574
 215    C  7  f(s2)  Ryd( 4f)     0.00005       3.51643
 216    C  7  f(c3)  Ryd( 4f)     0.00003       3.56407
 217    C  7  f(s3)  Ryd( 4f)     0.00032       3.58496

 218    C  8  s      Cor( 1s)     1.99999     -10.50674
 219    C  8  s      Val( 2s)     1.11513      -0.21713
 220    C  8  s      Ryd( 3s)     0.00028       1.40272
 221    C  8  s      Ryd( 4s)     0.00002       2.17780
 222    C  8  s      Ryd( 5s)     0.00000      22.29769
 223    C  8  px     Val( 2p)     1.15606      -0.07788
 224    C  8  px     Ryd( 3p)     0.00076       0.86374
 225    C  8  px     Ryd( 4p)     0.00007       1.84323
 226    C  8  py     Val( 2p)     1.18900      -0.08294
 227    C  8  py     Ryd( 3p)     0.00137       0.87937
 228    C  8  py     Ryd( 4p)     0.00003       1.83047
 229    C  8  pz     Val( 2p)     1.12657      -0.07106
 230    C  8  pz     Ryd( 3p)     0.00019       0.75492
 231    C  8  pz     Ryd( 4p)     0.00004       1.98960
 232    C  8  dxy    Ryd( 3d)     0.00105       1.87500
 233    C  8  dxy    Ryd( 4d)     0.00004       3.47878
 234    C  8  dxz    Ryd( 3d)     0.00149       2.13811
 235    C  8  dxz    Ryd( 4d)     0.00002       3.48956
 236    C  8  dyz    Ryd( 3d)     0.00053       1.88983
 237    C  8  dyz    Ryd( 4d)     0.00003       3.35644
 238    C  8  dx2y2  Ryd( 3d)     0.00177       1.88153
 239    C  8  dx2y2  Ryd( 4d)     0.00004       3.63396
 240    C  8  dz2    Ryd( 3d)     0.00154       1.93952
 241    C  8  dz2    Ryd( 4d)     0.00005       3.56649
 242    C  8  f(0)   Ryd( 4f)     0.00008       3.53257
 243    C  8  f(c1)  Ryd( 4f)     0.00036       3.60871
 244    C  8  f(s1)  Ryd( 4f)     0.00011       3.51577
 245    C  8  f(c2)  Ryd( 4f)     0.00002       3.43610
 246    C  8  f(s2)  Ryd( 4f)     0.00005       3.36709
 247    C  8  f(c3)  Ryd( 4f)     0.00003       3.40028
 248    C  8  f(s3)  Ryd( 4f)     0.00031       3.63546

 249    O  9  s      Cor( 1s)     2.00000     -19.60215
 250    O  9  s      Val( 2s)     1.62013      -0.75400
 251    O  9  s      Ryd( 3s)     0.00085       2.29051
 252    O  9  s      Ryd( 4s)     0.00006       6.50845
 253    O  9  s      Ryd( 5s)     0.00000      40.06876
 254    O  9  px     Val( 2p)     1.33255      -0.24697
 255    O  9  px     Ryd( 3p)     0.00148       1.08667
 256    O  9  px     Ryd( 4p)     0.00009       4.15598
 257    O  9  py     Val( 2p)     1.72338      -0.33128
 258    O  9  py     Ryd( 3p)     0.00231       0.72697
 259    O  9  py     Ryd( 4p)     0.00019       3.58122
 260    O  9  pz     Val( 2p)     1.86245      -0.34310
 261    O  9  pz     Ryd( 3p)     0.00358       0.72919
 262    O  9  pz     Ryd( 4p)     0.00005       3.03487
 263    O  9  dxy    Ryd( 3d)     0.00482       2.46069
 264    O  9  dxy    Ryd( 4d)     0.00003       6.69933
 265    O  9  dxz    Ryd( 3d)     0.00018       2.09543
 266    O  9  dxz    Ryd( 4d)     0.00005       6.62777
 267    O  9  dyz    Ryd( 3d)     0.00236       1.91773
 268    O  9  dyz    Ryd( 4d)     0.00002       6.53488
 269    O  9  dx2y2  Ryd( 3d)     0.00158       2.41697
 270    O  9  dx2y2  Ryd( 4d)     0.00005       6.76715
 271    O  9  dz2    Ryd( 3d)     0.00264       2.09225
 272    O  9  dz2    Ryd( 4d)     0.00001       6.64080
 273    O  9  f(0)   Ryd( 4f)     0.00010       5.60339
 274    O  9  f(c1)  Ryd( 4f)     0.00010       5.63857
 275    O  9  f(s1)  Ryd( 4f)     0.00006       5.45139
 276    O  9  f(c2)  Ryd( 4f)     0.00003       5.53913
 277    O  9  f(s2)  Ryd( 4f)     0.00001       5.79864
 278    O  9  f(c3)  Ryd( 4f)     0.00003       6.21199
 279    O  9  f(s3)  Ryd( 4f)     0.00012       6.04003

 280    C 10  s      Cor( 1s)     1.99999     -10.55374
 281    C 10  s      Val( 2s)     1.02258      -0.19174
 282    C 10  s      Ryd( 3s)     0.00342       1.40474
 283    C 10  s      Ryd( 4s)     0.00004       2.31642
 284    C 10  s      Ryd( 5s)     0.00000      21.50761
 285    C 10  px     Val( 2p)     0.84893      -0.03035
 286    C 10  px     Ryd( 3p)     0.00362       1.07761
 287    C 10  px     Ryd( 4p)     0.00022       1.33868
 288    C 10  py     Val( 2p)     1.09514      -0.06676
 289    C 10  py     Ryd( 3p)     0.00418       1.11022
 290    C 10  py     Ryd( 4p)     0.00026       1.38929
 291    C 10  pz     Val( 2p)     1.08356      -0.06546
 292    C 10  pz     Ryd( 3p)     0.00078       0.93786
 293    C 10  pz     Ryd( 4p)     0.00016       1.30609
 294    C 10  dxy    Ryd( 3d)     0.00135       2.48455
 295    C 10  dxy    Ryd( 4d)     0.00025       3.55276
 296    C 10  dxz    Ryd( 3d)     0.00120       2.07740
 297    C 10  dxz    Ryd( 4d)     0.00020       3.11261
 298    C 10  dyz    Ryd( 3d)     0.00145       2.15916
 299    C 10  dyz    Ryd( 4d)     0.00016       3.39623
 300    C 10  dx2y2  Ryd( 3d)     0.00086       2.20646
 301    C 10  dx2y2  Ryd( 4d)     0.00017       3.31164
 302    C 10  dz2    Ryd( 3d)     0.00069       2.41076
 303    C 10  dz2    Ryd( 4d)     0.00017       3.40974
 304    C 10  f(0)   Ryd( 4f)     0.00012       3.68973
 305    C 10  f(c1)  Ryd( 4f)     0.00005       3.63864
 306    C 10  f(s1)  Ryd( 4f)     0.00013       3.65616
 307    C 10  f(c2)  Ryd( 4f)     0.00006       3.65509
 308    C 10  f(s2)  Ryd( 4f)     0.00009       3.64124
 309    C 10  f(c3)  Ryd( 4f)     0.00004       3.70767
 310    C 10  f(s3)  Ryd( 4f)     0.00012       3.69897

 311    C 11  s      Cor( 1s)     1.99999     -10.50152
 312    C 11  s      Val( 2s)     1.12826      -0.22368
 313    C 11  s      Ryd( 3s)     0.00081       1.16238
 314    C 11  s      Ryd( 4s)     0.00002       1.80088
 315    C 11  s      Ryd( 5s)     0.00000      22.47184
 316    C 11  px     Val( 2p)     1.20203      -0.08565
 317    C 11  px     Ryd( 3p)     0.00100       0.88007
 318    C 11  px     Ryd( 4p)     0.00005       1.75979
 319    C 11  py     Val( 2p)     1.19922      -0.08605
 320    C 11  py     Ryd( 3p)     0.00041       0.83784
 321    C 11  py     Ryd( 4p)     0.00002       1.75894
 322    C 11  pz     Val( 2p)     1.09480      -0.06581
 323    C 11  pz     Ryd( 3p)     0.00042       0.76005
 324    C 11  pz     Ryd( 4p)     0.00006       2.10220
 325    C 11  dxy    Ryd( 3d)     0.00178       1.79460
 326    C 11  dxy    Ryd( 4d)     0.00001       3.73541
 327    C 11  dxz    Ryd( 3d)     0.00044       1.79209
 328    C 11  dxz    Ryd( 4d)     0.00005       3.40290
 329    C 11  dyz    Ryd( 3d)     0.00170       1.91427
 330    C 11  dyz    Ryd( 4d)     0.00004       3.63015
 331    C 11  dx2y2  Ryd( 3d)     0.00124       1.73140
 332    C 11  dx2y2  Ryd( 4d)     0.00002       3.58666
 333    C 11  dz2    Ryd( 3d)     0.00164       1.99010
 334    C 11  dz2    Ryd( 4d)     0.00003       3.51473
 335    C 11  f(0)   Ryd( 4f)     0.00018       3.52049
 336    C 11  f(c1)  Ryd( 4f)     0.00009       3.52313
 337    C 11  f(s1)  Ryd( 4f)     0.00025       3.50579
 338    C 11  f(c2)  Ryd( 4f)     0.00008       3.52073
 339    C 11  f(s2)  Ryd( 4f)     0.00008       3.44772
 340    C 11  f(c3)  Ryd( 4f)     0.00008       3.34429
 341    C 11  f(s3)  Ryd( 4f)     0.00026       3.50966

 342    H 12  s      Val( 1s)     0.84559       0.07190
 343    H 12  s      Ryd( 2s)     0.00263       0.55493
 344    H 12  s      Ryd( 3s)     0.00013       2.28572
 345    H 12  px     Ryd( 2p)     0.00010       2.27329
 346    H 12  px     Ryd( 3p)     0.00013       3.61528
 347    H 12  py     Ryd( 2p)     0.00018       2.79315
 348    H 12  py     Ryd( 3p)     0.00008       4.33444
 349    H 12  pz     Ryd( 2p)     0.00025       2.00098
 350    H 12  pz     Ryd( 3p)     0.00001       3.22467
 351    H 12  dxy    Ryd( 3d)     0.00003       4.46538
 352    H 12  dxz    Ryd( 3d)     0.00000       3.52530
 353    H 12  dyz    Ryd( 3d)     0.00002       4.17115
 354    H 12  dx2y2  Ryd( 3d)     0.00006       4.41686
 355    H 12  dz2    Ryd( 3d)     0.00001       3.97640

 356    H 13  s      Val( 1s)     0.87114       0.04562
 357    H 13  s      Ryd( 2s)     0.00386       0.51588
 358    H 13  s      Ryd( 3s)     0.00011       2.33900
 359    H 13  px     Ryd( 2p)     0.00009       2.60447
 360    H 13  px     Ryd( 3p)     0.00007       3.18210
 361    H 13  py     Ryd( 2p)     0.00024       2.84723
 362    H 13  py     Ryd( 3p)     0.00004       4.12262
 363    H 13  pz     Ryd( 2p)     0.00016       2.42182
 364    H 13  pz     Ryd( 3p)     0.00002       2.78473
 365    H 13  dxy    Ryd( 3d)     0.00003       4.42249
 366    H 13  dxz    Ryd( 3d)     0.00001       3.50381
 367    H 13  dyz    Ryd( 3d)     0.00001       4.17096
 368    H 13  dx2y2  Ryd( 3d)     0.00006       4.37683
 369    H 13  dz2    Ryd( 3d)     0.00001       3.94860

 370    H 14  s      Val( 1s)     0.81088       0.04903
 371    H 14  s      Ryd( 2s)     0.00152       0.83342
 372    H 14  s      Ryd( 3s)     0.00002       2.18626
 373    H 14  px     Ryd( 3p)     0.00013       4.03246
 374    H 14  px     Ryd( 2p)     0.00004       1.92072
 375    H 14  py     Ryd( 3p)     0.00008       4.03608
 376    H 14  py     Ryd( 2p)     0.00007       1.68162
 377    H 14  pz     Ryd( 3p)     0.00030       3.94128
 378    H 14  pz     Ryd( 2p)     0.00001       2.57414
 379    H 14  dxy    Ryd( 3d)     0.00002       3.78158
 380    H 14  dxz    Ryd( 3d)     0.00009       4.30815
 381    H 14  dyz    Ryd( 3d)     0.00003       4.11797
 382    H 14  dx2y2  Ryd( 3d)     0.00002       3.81898
 383    H 14  dz2    Ryd( 3d)     0.00007       4.38277

 384    H 15  s      Val( 1s)     0.80432       0.07119
 385    H 15  s      Ryd( 2s)     0.00041       0.82986
 386    H 15  s      Ryd( 3s)     0.00003       1.95441
 387    H 15  px     Ryd( 3p)     0.00027       4.24432
 388    H 15  px     Ryd( 2p)     0.00003       2.31784
 389    H 15  py     Ryd( 3p)     0.00013       3.98389
 390    H 15  py     Ryd( 2p)     0.00009       1.89023
 391    H 15  pz     Ryd( 3p)     0.00007       3.78761
 392    H 15  pz     Ryd( 2p)     0.00001       1.66441
 393    H 15  dxy    Ryd( 3d)     0.00006       4.38225
 394    H 15  dxz    Ryd( 3d)     0.00002       4.22234
 395    H 15  dyz    Ryd( 3d)     0.00001       3.75805
 396    H 15  dx2y2  Ryd( 3d)     0.00004       4.42048
 397    H 15  dz2    Ryd( 3d)     0.00002       3.86690

 398    H 16  s      Val( 1s)     0.79511       0.07782
 399    H 16  s      Ryd( 2s)     0.00114       0.80737
 400    H 16  s      Ryd( 3s)     0.00003       2.03167
 401    H 16  px     Ryd( 3p)     0.00013       3.71805
 402    H 16  px     Ryd( 2p)     0.00007       2.06953
 403    H 16  py     Ryd( 3p)     0.00012       3.62573
 404    H 16  py     Ryd( 2p)     0.00008       1.97956
 405    H 16  pz     Ryd( 3p)     0.00026       4.09213
 406    H 16  pz     Ryd( 2p)     0.00002       2.39584
 407    H 16  dxy    Ryd( 3d)     0.00001       3.82928
 408    H 16  dxz    Ryd( 3d)     0.00005       4.38949
 409    H 16  dyz    Ryd( 3d)     0.00003       4.19958
 410    H 16  dx2y2  Ryd( 3d)     0.00001       3.83503
 411    H 16  dz2    Ryd( 3d)     0.00005       4.48405

 412    H 17  s      Val( 1s)     0.78187       0.08991
 413    H 17  s      Ryd( 2s)     0.00062       0.78980
 414    H 17  s      Ryd( 3s)     0.00004       2.04069
 415    H 17  px     Ryd( 3p)     0.00016       3.77486
 416    H 17  px     Ryd( 2p)     0.00006       2.20083
 417    H 17  py     Ryd( 3p)     0.00015       3.62949
 418    H 17  py     Ryd( 2p)     0.00008       2.10508
 419    H 17  pz     Ryd( 3p)     0.00023       3.87083
 420    H 17  pz     Ryd( 2p)     0.00001       2.33718
 421    H 17  dxy    Ryd( 3d)     0.00003       4.00052
 422    H 17  dxz    Ryd( 3d)     0.00006       4.32061
 423    H 17  dyz    Ryd( 3d)     0.00003       4.09369
 424    H 17  dx2y2  Ryd( 3d)     0.00002       4.00334
 425    H 17  dz2    Ryd( 3d)     0.00003       4.30047

 426    H 18  s      Val( 1s)     0.79853       0.06556
 427    H 18  s      Ryd( 2s)     0.00060       0.75749
 428    H 18  s      Ryd( 3s)     0.00002       1.99543
 429    H 18  px     Ryd( 3p)     0.00029       4.28457
 430    H 18  px     Ryd( 2p)     0.00004       2.34503
 431    H 18  py     Ryd( 3p)     0.00011       3.86311
 432    H 18  py     Ryd( 2p)     0.00004       1.78152
 433    H 18  pz     Ryd( 3p)     0.00007       3.76923
 434    H 18  pz     Ryd( 2p)     0.00004       1.66321
 435    H 18  dxy    Ryd( 3d)     0.00006       4.35188
 436    H 18  dxz    Ryd( 3d)     0.00002       4.26500
 437    H 18  dyz    Ryd( 3d)     0.00001       3.65276
 438    H 18  dx2y2  Ryd( 3d)     0.00004       4.40160
 439    H 18  dz2    Ryd( 3d)     0.00003       3.88748

 440    H 19  s      Val( 1s)     0.79617       0.06862
 441    H 19  s      Ryd( 2s)     0.00043       0.81801
 442    H 19  s      Ryd( 3s)     0.00003       1.95539
 443    H 19  px     Ryd( 3p)     0.00008       3.88522
 444    H 19  px     Ryd( 2p)     0.00003       1.61030
 445    H 19  py     Ryd( 3p)     0.00033       4.38428
 446    H 19  py     Ryd( 2p)     0.00001       2.36526
 447    H 19  pz     Ryd( 3p)     0.00006       3.86956
 448    H 19  pz     Ryd( 2p)     0.00004       1.57469
 449    H 19  dxy    Ryd( 3d)     0.00003       4.36653
 450    H 19  dxz    Ryd( 3d)     0.00000       3.60543
 451    H 19  dyz    Ryd( 3d)     0.00003       4.31534
 452    H 19  dx2y2  Ryd( 3d)     0.00007       4.38717
 453    H 19  dz2    Ryd( 3d)     0.00003       3.89485

 454    H 20  s      Val( 1s)     0.79945       0.06692
 455    H 20  s      Ryd( 2s)     0.00110       0.79440
 456    H 20  s      Ryd( 3s)     0.00002       2.00198
 457    H 20  px     Ryd( 3p)     0.00013       3.79542
 458    H 20  px     Ryd( 2p)     0.00007       1.85912
 459    H 20  py     Ryd( 3p)     0.00010       3.69502
 460    H 20  py     Ryd( 2p)     0.00003       1.80173
 461    H 20  pz     Ryd( 3p)     0.00026       4.22360
 462    H 20  pz     Ryd( 2p)     0.00004       2.31981
 463    H 20  dxy    Ryd( 3d)     0.00001       3.72138
 464    H 20  dxz    Ryd( 3d)     0.00005       4.37800
 465    H 20  dyz    Ryd( 3d)     0.00003       4.23288
 466    H 20  dx2y2  Ryd( 3d)     0.00001       3.77752
 467    H 20  dz2    Ryd( 3d)     0.00005       4.51480

 468    H 21  s      Val( 1s)     0.82003       0.05366
 469    H 21  s      Ryd( 2s)     0.00185       0.68290
 470    H 21  s      Ryd( 3s)     0.00007       2.19775
 471    H 21  px     Ryd( 3p)     0.00006       3.59311
 472    H 21  px     Ryd( 2p)     0.00022       1.97481
 473    H 21  py     Ryd( 3p)     0.00023       3.59432
 474    H 21  py     Ryd( 2p)     0.00004       2.69855
 475    H 21  pz     Ryd( 3p)     0.00016       3.60235
 476    H 21  pz     Ryd( 2p)     0.00009       2.45587
 477    H 21  dxy    Ryd( 3d)     0.00003       4.05631
 478    H 21  dxz    Ryd( 3d)     0.00002       3.84114
 479    H 21  dyz    Ryd( 3d)     0.00008       4.37056
 480    H 21  dx2y2  Ryd( 3d)     0.00004       4.00883
 481    H 21  dz2    Ryd( 3d)     0.00003       4.12933

 482    H 22  s      Val( 1s)     0.82951       0.04428
 483    H 22  s      Ryd( 2s)     0.00094       0.73978
 484    H 22  s      Ryd( 3s)     0.00003       2.09344
 485    H 22  px     Ryd( 3p)     0.00019       4.22033
 486    H 22  px     Ryd( 2p)     0.00004       1.86906
 487    H 22  py     Ryd( 3p)     0.00016       4.20968
 488    H 22  py     Ryd( 2p)     0.00003       1.84602
 489    H 22  pz     Ryd( 3p)     0.00008       4.13131
 490    H 22  pz     Ryd( 2p)     0.00009       1.51916
 491    H 22  dxy    Ryd( 3d)     0.00008       4.25352
 492    H 22  dxz    Ryd( 3d)     0.00003       3.93050
 493    H 22  dyz    Ryd( 3d)     0.00003       4.00482
 494    H 22  dx2y2  Ryd( 3d)     0.00002       4.19927
 495    H 22  dz2    Ryd( 3d)     0.00003       3.95197

 496    H 23  s      Val( 1s)     0.77961       0.08205
 497    H 23  s      Ryd( 2s)     0.00096       0.91505
 498    H 23  s      Ryd( 3s)     0.00003       1.93232
 499    H 23  px     Ryd( 3p)     0.00016       3.78110
 500    H 23  px     Ryd( 2p)     0.00005       2.14161
 501    H 23  py     Ryd( 3p)     0.00021       3.81835
 502    H 23  py     Ryd( 2p)     0.00002       2.20619
 503    H 23  pz     Ryd( 3p)     0.00015       3.59268
 504    H 23  pz     Ryd( 2p)     0.00007       2.05759
 505    H 23  dxy    Ryd( 3d)     0.00006       4.30725
 506    H 23  dxz    Ryd( 3d)     0.00003       3.95075
 507    H 23  dyz    Ryd( 3d)     0.00002       4.09216
 508    H 23  dx2y2  Ryd( 3d)     0.00003       4.29070
 509    H 23  dz2    Ryd( 3d)     0.00002       3.97054

 510    H 24  s      Val( 1s)     0.79933       0.06450
 511    H 24  s      Ryd( 2s)     0.00075       0.75434
 512    H 24  s      Ryd( 3s)     0.00002       1.99882
 513    H 24  px     Ryd( 3p)     0.00007       3.78808
 514    H 24  px     Ryd( 2p)     0.00001       1.67734
 515    H 24  py     Ryd( 3p)     0.00023       4.05046
 516    H 24  py     Ryd( 2p)     0.00001       2.01874
 517    H 24  pz     Ryd( 3p)     0.00018       4.03321
 518    H 24  pz     Ryd( 2p)     0.00003       1.92820
 519    H 24  dxy    Ryd( 3d)     0.00002       4.06068
 520    H 24  dxz    Ryd( 3d)     0.00001       3.87808
 521    H 24  dyz    Ryd( 3d)     0.00007       4.37138
 522    H 24  dx2y2  Ryd( 3d)     0.00003       4.00143
 523    H 24  dz2    Ryd( 3d)     0.00002       4.18599

 524    H 25  s      Val( 1s)     0.79533       0.06155
 525    H 25  s      Ryd( 2s)     0.00036       0.73688
 526    H 25  s      Ryd( 3s)     0.00002       2.01825
 527    H 25  px     Ryd( 3p)     0.00032       4.23042
 528    H 25  px     Ryd( 2p)     0.00001       2.24059
 529    H 25  py     Ryd( 3p)     0.00010       3.89986
 530    H 25  py     Ryd( 2p)     0.00001       1.72600
 531    H 25  pz     Ryd( 3p)     0.00006       3.82207
 532    H 25  pz     Ryd( 2p)     0.00002       1.57576
 533    H 25  dxy    Ryd( 3d)     0.00006       4.36359
 534    H 25  dxz    Ryd( 3d)     0.00002       4.18869
 535    H 25  dyz    Ryd( 3d)     0.00001       3.74547
 536    H 25  dx2y2  Ryd( 3d)     0.00005       4.33103
 537    H 25  dz2    Ryd( 3d)     0.00003       3.84830


 Summary of Natural Population Analysis:

                                     Natural Population
             Natural    ---------------------------------------------
  Atom No    Charge        Core      Valence    Rydberg      Total
 --------------------------------------------------------------------
    O  1   -0.76416      2.00000     6.73938    0.02479     8.76416
    C  2    0.67315      1.99999     3.28592    0.04094     5.32685
    C  3   -0.38042      1.99999     4.34677    0.03365     6.38042
    N  4   -0.42863      1.99999     5.39376    0.03487     7.42863
    C  5   -0.02540      1.99999     3.99576    0.02965     6.02540
    C  6   -0.25956      1.99999     4.24665    0.01292     6.25956
    C  7   -0.59781      1.99999     4.58581    0.01201     6.59781
    C  8   -0.59703      1.99999     4.58676    0.01028     6.59703
    O  9   -0.55927      2.00000     6.53850    0.02078     8.55927
    C 10   -0.07001      1.99999     4.05021    0.01981     6.07001
    C 11   -0.63505      1.99999     4.62430    0.01076     6.63505
    H 12    0.15076      0.00000     0.84559    0.00365     0.84924
    H 13    0.12414      0.00000     0.87114    0.00472     0.87586
    H 14    0.18672      0.00000     0.81088    0.00240     0.81328
    H 15    0.19447      0.00000     0.80432    0.00120     0.80553
    H 16    0.20289      0.00000     0.79511    0.00200     0.79711
    H 17    0.21661      0.00000     0.78187    0.00152     0.78339
    H 18    0.20010      0.00000     0.79853    0.00137     0.79990
    H 19    0.20267      0.00000     0.79617    0.00117     0.79733
    H 20    0.19864      0.00000     0.79945    0.00191     0.80136
    H 21    0.17705      0.00000     0.82003    0.00292     0.82295
    H 22    0.16873      0.00000     0.82951    0.00176     0.83127
    H 23    0.21859      0.00000     0.77961    0.00180     0.78141
    H 24    0.19921      0.00000     0.79933    0.00146     0.80079
    H 25    0.20361      0.00000     0.79533    0.00106     0.79639
 ====================================================================
 * Total * -1.00000     21.99991    63.72070    0.27939    86.00000

                                 Natural Population
 ---------------------------------------------------------
   Core                      21.99991 ( 99.9996% of   22)
   Valence                   63.72070 ( 99.5636% of   64)
   Natural Minimal Basis     85.72061 ( 99.6751% of   86)
   Natural Rydberg Basis      0.27939 (  0.3249% of   86)
 ---------------------------------------------------------

    Atom No         Natural Electron Configuration
 ----------------------------------------------------------------------------
      O  1      [core]2s( 1.70)2p( 5.04)3p( 0.01)3d( 0.02)
      C  2      [core]2s( 0.82)2p( 2.46)3p( 0.03)4d( 0.01)
      C  3      [core]2s( 0.95)2p( 3.40)3p( 0.02)
      N  4      [core]2s( 1.33)2p( 4.07)3p( 0.01)3d( 0.02)
      C  5      [core]2s( 0.94)2p( 3.06)3s( 0.01)3p( 0.01)
      C  6      [core]2s( 1.01)2p( 3.24)3p( 0.01)
      C  7      [core]2s( 1.11)2p( 3.48)3d( 0.01)
      C  8      [core]2s( 1.12)2p( 3.47)3d( 0.01)
      O  9      [core]2s( 1.62)2p( 4.92)3p( 0.01)3d( 0.01)
      C 10      [core]2s( 1.02)2p( 3.03)3p( 0.01)3d( 0.01)
      C 11      [core]2s( 1.13)2p( 3.50)3d( 0.01)
      H 12            1s( 0.85)
      H 13            1s( 0.87)
      H 14            1s( 0.81)
      H 15            1s( 0.80)
      H 16            1s( 0.80)
      H 17            1s( 0.78)
      H 18            1s( 0.80)
      H 19            1s( 0.80)
      H 20            1s( 0.80)
      H 21            1s( 0.82)
      H 22            1s( 0.83)
      H 23            1s( 0.78)
      H 24            1s( 0.80)
      H 25            1s( 0.80)


 NATURAL BOND ORBITAL ANALYSIS:

                            Occupancies       Lewis Structure    Low   High
         Max    Occ     -------------------  -----------------   occ   occ
  Cycle  Ctr   Thresh    Lewis   non-Lewis     CR  BD  nC  LP    (L)   (NL)
 ============================================================================
    1     2     1.90    83.48593   2.51407     11  26   0   6     4      5
    2     2     1.88    83.60141   2.39859     11  26   0   6     3      5
    3     2     1.86    83.60514   2.39486     11  26   0   6     2      5
    4     2     1.85    84.54545   1.45455     11  26   0   6     1      3
    5     2     1.77    84.54545   1.45455     11  26   0   6     1      3
    6     2     1.75    84.54545   1.45455     11  26   0   6     1      3
    7     2     1.63    84.59235   1.40765     11  26   0   6     0      3
 ----------------------------------------------------------------------------

 Structure accepted: No low occupancy Lewis orbitals

 -------------------------------------------------------
   Core                     21.99991 (100.000% of  22)
   Valence Lewis            62.59244 ( 97.801% of  64)
  ==================      =============================
   Total Lewis              84.59235 ( 98.363% of  86)
  -----------------------------------------------------
   Valence non-Lewis         1.26138 (  1.467% of  86)
   Rydberg non-Lewis         0.14627 (  0.170% of  86)
  ==================      =============================
   Total non-Lewis           1.40765 (  1.637% of  86)
 -------------------------------------------------------


     (Occupancy)   Bond orbital / Coefficients / Hybrids
 ------------------ Lewis ------------------------------------------------------
   1. (2.00000) CR ( 1) O  1            s(100.00%)
                                         1.0000  0.0000  0.0000  0.0000  0.0000
                                         0.0000  0.0000  0.0000  0.0000  0.0000
                                         0.0000  0.0000  0.0000  0.0000  0.0000
                                         0.0000  0.0000  0.0000  0.0000  0.0000
                                         0.0000  0.0000  0.0000  0.0000  0.0000
                                         0.0000  0.0000  0.0000  0.0000  0.0000
                                         0.0000
   2. (1.99999) CR ( 1) C  2            s(100.00%)
                                         1.0000  0.0000  0.0000  0.0000  0.0000
                                         0.0000  0.0000  0.0000  0.0000  0.0000
                                         0.0000  0.0000  0.0000  0.0000  0.0000
                                         0.0000  0.0000  0.0000  0.0000  0.0000
                                         0.0000  0.0000  0.0000  0.0000  0.0000
                                         0.0000  0.0000  0.0000  0.0000  0.0000
                                         0.0000
   3. (1.99999) CR ( 1) C  3            s(100.00%)
                                         1.0000  0.0000  0.0000  0.0000  0.0000
                                         0.0000  0.0000  0.0000  0.0000  0.0000
                                         0.0000  0.0000  0.0000  0.0000  0.0000
                                         0.0000  0.0000  0.0000  0.0000  0.0000
                                         0.0000  0.0000  0.0000  0.0000  0.0000
                                         0.0000  0.0000  0.0000  0.0000  0.0000
                                         0.0000
   4. (1.99999) CR ( 1) N  4            s(100.00%)
                                         1.0000  0.0000  0.0000  0.0000  0.0000
                                         0.0000  0.0000  0.0000  0.0000  0.0000
                                         0.0000  0.0000  0.0000  0.0000  0.0000
                                         0.0000  0.0000  0.0000  0.0000  0.0000
                                         0.0000  0.0000  0.0000  0.0000  0.0000
                                         0.0000  0.0000  0.0000  0.0000  0.0000
                                         0.0000
   5. (1.99999) CR ( 1) C  5            s(100.00%)
                                         1.0000  0.0000  0.0000  0.0000  0.0000
                                         0.0000  0.0000  0.0000  0.0000  0.0000
                                         0.0000  0.0000  0.0000  0.0000  0.0000
                                         0.0000  0.0000  0.0000  0.0000  0.0000
                                         0.0000  0.0000  0.0000  0.0000  0.0000
                                         0.0000  0.0000  0.0000  0.0000  0.0000
                                         0.0000
   6. (1.99999) CR ( 1) C  6            s(100.00%)
                                         1.0000  0.0000  0.0000  0.0000  0.0000
                                         0.0000  0.0000  0.0000  0.0000  0.0000
                                         0.0000  0.0000  0.0000  0.0000  0.0000
                                         0.0000  0.0000  0.0000  0.0000  0.0000
                                         0.0000  0.0000  0.0000  0.0000  0.0000
                                         0.0000  0.0000  0.0000  0.0000  0.0000
                                         0.0000
   7. (1.99999) CR ( 1) C  7            s(100.00%)
                                         1.0000  0.0000  0.0000  0.0000  0.0000
                                         0.0000  0.0000  0.0000  0.0000  0.0000
                                         0.0000  0.0000  0.0000  0.0000  0.0000
                                         0.0000  0.0000  0.0000  0.0000  0.0000
                                         0.0000  0.0000  0.0000  0.0000  0.0000
                                         0.0000  0.0000  0.0000  0.0000  0.0000
                                         0.0000
   8. (1.99999) CR ( 1) C  8            s(100.00%)
                                         1.0000  0.0000  0.0000  0.0000  0.0000
                                         0.0000  0.0000  0.0000  0.0000  0.0000
                                         0.0000  0.0000  0.0000  0.0000  0.0000
                                         0.0000  0.0000  0.0000  0.0000  0.0000
                                         0.0000  0.0000  0.0000  0.0000  0.0000
                                         0.0000  0.0000  0.0000  0.0000  0.0000
                                         0.0000
   9. (2.00000) CR ( 1) O  9            s(100.00%)
                                         1.0000  0.0000  0.0000  0.0000  0.0000
                                         0.0000  0.0000  0.0000  0.0000  0.0000
                                         0.0000  0.0000  0.0000  0.0000  0.0000
                                         0.0000  0.0000  0.0000  0.0000  0.0000
                                         0.0000  0.0000  0.0000  0.0000  0.0000
                                         0.0000  0.0000  0.0000  0.0000  0.0000
                                         0.0000
  10. (1.99999) CR ( 1) C 10            s(100.00%)
                                         1.0000  0.0000  0.0000  0.0000  0.0000
                                         0.0000  0.0000  0.0000  0.0000  0.0000
                                         0.0000  0.0000  0.0000  0.0000  0.0000
                                         0.0000  0.0000  0.0000  0.0000  0.0000
                                         0.0000  0.0000  0.0000  0.0000  0.0000
                                         0.0000  0.0000  0.0000  0.0000  0.0000
                                         0.0000
  11. (1.99999) CR ( 1) C 11            s(100.00%)
                                         1.0000  0.0000  0.0000  0.0000  0.0000
                                         0.0000  0.0000  0.0000  0.0000  0.0000
                                         0.0000  0.0000  0.0000  0.0000  0.0000
                                         0.0000  0.0000  0.0000  0.0000  0.0000
                                         0.0000  0.0000  0.0000  0.0000  0.0000
                                         0.0000  0.0000  0.0000  0.0000  0.0000
                                         0.0000
  12. (1.97687) LP ( 1) O  1            s( 59.65%)p 0.68( 40.27%)d 0.00(  0.08%)
                                                  f 0.00(  0.00%)
                                         0.0000  0.7723 -0.0012  0.0002 -0.0002
                                        -0.0933 -0.0002  0.0000  0.6277 -0.0025
                                        -0.0046  0.0004 -0.0001  0.0001  0.0063
                                         0.0001  0.0000  0.0000  0.0000  0.0000
                                         0.0227  0.0003  0.0150  0.0000  0.0000
                                         0.0003 -0.0017  0.0000  0.0000  0.0011
                                        -0.0026
  13. (1.85209) LP ( 2) O  1            s(  0.01%)p99.99( 99.78%)d17.30(  0.20%)
                                                  f 0.89(  0.01%)
                                         0.0000  0.0099 -0.0040  0.0008  0.0001
                                        -0.9861 -0.0086  0.0007 -0.1588 -0.0033
                                         0.0005  0.0097  0.0002  0.0000  0.0431
                                        -0.0004  0.0002  0.0000 -0.0007  0.0000
                                        -0.0114 -0.0002 -0.0012  0.0002 -0.0001
                                         0.0016  0.0003 -0.0001  0.0000  0.0090
                                         0.0043
  14. (1.63589) LP ( 3) O  1            s(  0.00%)p 1.00( 99.69%)d 0.00(  0.30%)
                                                  f 0.00(  0.01%)
                                         0.0000  0.0006  0.0003 -0.0005  0.0000
                                        -0.0096  0.0001  0.0002 -0.0015  0.0001
                                         0.0000 -0.9984 -0.0070  0.0004  0.0000
                                         0.0001 -0.0033 -0.0006  0.0544 -0.0002
                                        -0.0004  0.0001  0.0003 -0.0001  0.0058
                                        -0.0001  0.0000  0.0087  0.0025  0.0000
                                         0.0000
  15. (1.88246) LP ( 1) N  4            s( 24.58%)p 3.06( 75.23%)d 0.01(  0.19%)
                                                  f 0.00(  0.00%)
                                         0.0000  0.4949 -0.0294 -0.0019  0.0000
                                        -0.0037  0.0020 -0.0005  0.8668  0.0283
                                         0.0050  0.0094  0.0005  0.0000  0.0034
                                        -0.0002 -0.0002  0.0000 -0.0008  0.0001
                                         0.0354 -0.0028  0.0241 -0.0009 -0.0001
                                         0.0000 -0.0045  0.0000  0.0001  0.0016
                                         0.0051
  16. (1.96365) LP ( 1) O  9            s( 41.05%)p 1.43( 58.87%)d 0.00(  0.08%)
                                                  f 0.00(  0.00%)
                                         0.0000  0.6407 -0.0007 -0.0031  0.0001
                                         0.0730 -0.0021 -0.0002 -0.7637 -0.0076
                                         0.0051  0.0096  0.0007 -0.0001  0.0043
                                         0.0002 -0.0004  0.0001 -0.0006  0.0001
                                         0.0251 -0.0015  0.0125  0.0001 -0.0001
                                        -0.0003  0.0026  0.0001  0.0000  0.0000
                                        -0.0010
  17. (1.86515) LP ( 2) O  9            s(  0.00%)p 1.00( 99.87%)d 0.00(  0.12%)
                                                  f 0.00(  0.01%)
                                         0.0000  0.0024  0.0026  0.0002  0.0001
                                         0.0088  0.0017  0.0007 -0.0096  0.0010
                                        -0.0004 -0.9992 -0.0101  0.0046  0.0009
                                        -0.0002  0.0006  0.0001 -0.0350  0.0015
                                         0.0001  0.0000  0.0004  0.0001  0.0073
                                        -0.0002  0.0000 -0.0037 -0.0006  0.0000
                                         0.0000
  18. (1.99642) BD ( 1) O  1- C  2
               ( 64.45%)   0.8028* O  1 s( 40.24%)p 1.47( 59.17%)d 0.01(  0.58%)
                                                  f 0.00(  0.01%)
                                         0.0000  0.6343  0.0028 -0.0007  0.0003
                                         0.1284 -0.0038  0.0012 -0.7579  0.0254
                                        -0.0074  0.0003  0.0001  0.0000 -0.0191
                                        -0.0001  0.0001  0.0000  0.0000  0.0000
                                        -0.0634 -0.0005 -0.0381  0.0002  0.0000
                                        -0.0009  0.0063  0.0000  0.0000 -0.0039
                                         0.0080
               ( 35.55%)   0.5962* C  2 s( 34.58%)p 1.89( 65.32%)d 0.00(  0.07%)
                                                  f 0.00(  0.03%)
                                         0.0000  0.5868 -0.0371  0.0063 -0.0006
                                        -0.1068 -0.0026  0.0016  0.7990 -0.0589
                                        -0.0028  0.0014  0.0007  0.0002 -0.0056
                                        -0.0050  0.0000  0.0000  0.0000 -0.0002
                                        -0.0132 -0.0188 -0.0082 -0.0094  0.0000
                                         0.0026 -0.0099  0.0000  0.0000  0.0058
                                        -0.0113
  19. (1.98278) BD ( 1) C  2- C  3
               ( 50.21%)   0.7086* C  2 s( 40.96%)p 1.44( 58.92%)d 0.00(  0.08%)
                                                  f 0.00(  0.04%)
                                         0.0000  0.6394  0.0273 -0.0064 -0.0001
                                         0.6675  0.0025  0.0025 -0.3789  0.0058
                                        -0.0060  0.0063 -0.0018  0.0014 -0.0246
                                         0.0031  0.0004 -0.0003 -0.0002  0.0001
                                         0.0089  0.0001 -0.0048 -0.0082 -0.0002
                                        -0.0114  0.0083  0.0000 -0.0002 -0.0017
                                        -0.0140
               ( 49.79%)   0.7056* C  3 s( 34.61%)p 1.88( 65.22%)d 0.00(  0.14%)
                                                  f 0.00(  0.04%)
                                         0.0000  0.5881 -0.0102 -0.0091 -0.0002
                                        -0.6765  0.0229  0.0030  0.4404 -0.0063
                                         0.0003 -0.0037  0.0006  0.0000 -0.0314
                                         0.0041  0.0001  0.0003 -0.0001 -0.0001
                                         0.0087 -0.0003 -0.0179 -0.0008  0.0002
                                         0.0115 -0.0077 -0.0003  0.0002 -0.0035
                                         0.0124
  20. (1.77362) BD ( 2) C  2- C  3
               ( 30.26%)   0.5501* C  2 s(  0.00%)p 1.00( 99.83%)d 0.00(  0.15%)
                                                  f 0.00(  0.03%)
                                         0.0000  0.0006  0.0000  0.0007  0.0003
                                         0.0103  0.0031 -0.0025  0.0027 -0.0008
                                         0.0008 -0.9973 -0.0554  0.0197 -0.0003
                                         0.0003 -0.0301  0.0099  0.0209 -0.0070
                                         0.0008 -0.0004 -0.0010  0.0007  0.0150
                                        -0.0002  0.0000  0.0045  0.0030 -0.0001
                                        -0.0001
               ( 69.74%)   0.8351* C  3 s(  0.00%)p 1.00( 99.92%)d 0.00(  0.04%)
                                                  f 0.00(  0.04%)
                                         0.0000  0.0006 -0.0001  0.0003 -0.0005
                                         0.0111  0.0021 -0.0004  0.0079  0.0000
                                        -0.0002 -0.9979 -0.0551  0.0103  0.0005
                                        -0.0002  0.0123 -0.0051 -0.0132  0.0001
                                        -0.0003  0.0001  0.0003 -0.0002  0.0204
                                        -0.0007 -0.0003 -0.0027 -0.0005  0.0001
                                         0.0000
  21. (1.98835) BD ( 1) C  2- O  9
               ( 31.56%)   0.5618* C  2 s( 24.57%)p 3.07( 75.35%)d 0.00(  0.07%)
                                                  f 0.00(  0.01%)
                                         0.0000  0.4956 -0.0015  0.0068  0.0005
                                        -0.7354  0.0057 -0.0054 -0.4602  0.0271
                                        -0.0075 -0.0086  0.0026 -0.0007  0.0210
                                         0.0109 -0.0006  0.0013  0.0002  0.0001
                                         0.0063  0.0027 -0.0116 -0.0017  0.0000
                                         0.0064  0.0023  0.0002 -0.0002  0.0014
                                        -0.0016
               ( 68.44%)   0.8273* O  9 s( 28.64%)p 2.48( 71.10%)d 0.01(  0.25%)
                                                  f 0.00(  0.01%)
                                         0.0000  0.5352 -0.0020  0.0017 -0.0002
                                         0.6692 -0.0174  0.0031  0.5126 -0.0026
                                         0.0064  0.0022 -0.0001  0.0003  0.0411
                                         0.0017  0.0006  0.0001  0.0012 -0.0002
                                        -0.0076  0.0000 -0.0278  0.0010 -0.0001
                                        -0.0053 -0.0042 -0.0001  0.0000  0.0010
                                         0.0059
  22. (1.98292) BD ( 1) C  3- N  4
               ( 40.32%)   0.6350* C  3 s( 34.08%)p 1.93( 65.84%)d 0.00(  0.05%)
                                                  f 0.00(  0.03%)
                                         0.0000  0.5820  0.0461  0.0014 -0.0002
                                         0.7302 -0.0547 -0.0069  0.3478 -0.0310
                                        -0.0049  0.0111 -0.0010 -0.0001  0.0087
                                         0.0124  0.0004  0.0002  0.0002  0.0002
                                         0.0045  0.0074 -0.0147 -0.0043 -0.0004
                                        -0.0111 -0.0049  0.0003  0.0003  0.0056
                                         0.0107
               ( 59.68%)   0.7725* N  4 s( 35.48%)p 1.81( 64.11%)d 0.01(  0.38%)
                                                  f 0.00(  0.03%)
                                         0.0000  0.5951  0.0255  0.0025 -0.0002
                                        -0.7239  0.0179  0.0039 -0.3414 -0.0061
                                         0.0067 -0.0092 -0.0004  0.0001  0.0477
                                         0.0019  0.0013  0.0000  0.0008  0.0000
                                         0.0126  0.0011 -0.0363  0.0024  0.0003
                                         0.0100  0.0051 -0.0003 -0.0002 -0.0101
                                        -0.0109
  23. (1.98437) BD ( 1) C  3- H 12
               ( 58.45%)   0.7645* C  3 s( 31.39%)p 2.18( 68.49%)d 0.00(  0.08%)
                                                  f 0.00(  0.04%)
                                         0.0000  0.5599 -0.0213  0.0071  0.0002
                                        -0.0504  0.0094 -0.0034 -0.8255  0.0205
                                        -0.0194 -0.0068  0.0001 -0.0002  0.0052
                                        -0.0007  0.0002 -0.0001  0.0005  0.0000
                                        -0.0208 -0.0037 -0.0178  0.0014  0.0004
                                         0.0019  0.0162  0.0003 -0.0002  0.0024
                                         0.0097
               ( 41.55%)   0.6446* H 12 s( 99.96%)p 0.00(  0.03%)d 0.00(  0.01%)
                                         0.9998 -0.0081  0.0007  0.0025  0.0005
                                         0.0141  0.0093  0.0001  0.0001  0.0009
                                         0.0000  0.0001 -0.0069 -0.0033
  24. (1.99101) BD ( 1) N  4- C  5
               ( 59.72%)   0.7728* N  4 s( 39.82%)p 1.50( 59.70%)d 0.01(  0.45%)
                                                  f 0.00(  0.03%)
                                         0.0000  0.6309  0.0150 -0.0002  0.0002
                                         0.6854 -0.0163 -0.0023 -0.3562  0.0046
                                         0.0050  0.0096  0.0003 -0.0001 -0.0523
                                        -0.0017  0.0003  0.0000 -0.0001 -0.0001
                                         0.0149  0.0006 -0.0390  0.0024 -0.0002
                                        -0.0098  0.0054  0.0002 -0.0002  0.0069
                                        -0.0128
               ( 40.28%)   0.6347* C  5 s( 36.32%)p 1.75( 63.58%)d 0.00(  0.06%)
                                                  f 0.00(  0.03%)
                                         0.0000  0.6005  0.0516 -0.0038 -0.0006
                                        -0.6980  0.0490  0.0094  0.3811 -0.0299
                                        -0.0037  0.0052  0.0001 -0.0005 -0.0131
                                        -0.0140  0.0001 -0.0003  0.0002 -0.0002
                                         0.0080  0.0045 -0.0126 -0.0047  0.0000
                                         0.0114 -0.0051 -0.0001  0.0000 -0.0026
                                         0.0131
  25. (1.95211) BD ( 2) N  4- C  5
               ( 52.47%)   0.7244* N  4 s(  0.00%)p 1.00( 99.68%)d 0.00(  0.29%)
                                                  f 0.00(  0.03%)
                                         0.0000  0.0052  0.0019  0.0007  0.0001
                                         0.0132 -0.0012  0.0000  0.0079  0.0005
                                        -0.0001 -0.9982  0.0110 -0.0031  0.0000
                                        -0.0002 -0.0181 -0.0066  0.0501  0.0007
                                         0.0014 -0.0001  0.0003 -0.0001  0.0132
                                        -0.0004 -0.0002 -0.0105  0.0032  0.0003
                                         0.0001
               ( 47.53%)   0.6894* C  5 s(  0.01%)p99.99( 99.89%)d 5.88(  0.07%)
                                                  f 2.22(  0.03%)
                                         0.0000 -0.0040  0.0096  0.0030 -0.0005
                                        -0.0039 -0.0018 -0.0016  0.0116 -0.0021
                                         0.0002 -0.9989 -0.0284  0.0134 -0.0016
                                         0.0017  0.0221 -0.0026 -0.0135  0.0019
                                        -0.0007  0.0006 -0.0002  0.0006  0.0160
                                        -0.0004 -0.0002 -0.0013  0.0012  0.0000
                                        -0.0004
  26. (1.97920) BD ( 1) C  5- C  6
               ( 47.93%)   0.6923* C  5 s( 33.99%)p 1.94( 65.88%)d 0.00(  0.08%)
                                                  f 0.00(  0.04%)
                                         0.0000  0.5829 -0.0076 -0.0055  0.0003
                                         0.7126 -0.0073  0.0048  0.3885  0.0038
                                         0.0033 -0.0007  0.0016  0.0042  0.0219
                                        -0.0052  0.0010 -0.0011  0.0003 -0.0004
                                         0.0099 -0.0011 -0.0142  0.0037 -0.0005
                                        -0.0121 -0.0072  0.0006  0.0005  0.0069
                                         0.0132
               ( 52.07%)   0.7216* C  6 s( 26.90%)p 2.71( 73.02%)d 0.00(  0.06%)
                                                  f 0.00(  0.02%)
                                         0.0000  0.5187  0.0044  0.0004 -0.0002
                                        -0.7510 -0.0010  0.0020 -0.4071  0.0095
                                        -0.0003 -0.0163  0.0071 -0.0032  0.0156
                                         0.0027 -0.0012  0.0012 -0.0027  0.0022
                                         0.0130 -0.0004 -0.0137  0.0001 -0.0012
                                         0.0088 -0.0014 -0.0015 -0.0013  0.0003
                                        -0.0088
  27. (1.98701) BD ( 1) C  5- H 13
               ( 57.58%)   0.7588* C  5 s( 29.83%)p 2.35( 70.04%)d 0.00(  0.09%)
                                                  f 0.00(  0.03%)
                                         0.0000  0.5453 -0.0304  0.0076  0.0000
                                         0.0098 -0.0080  0.0022 -0.8365 -0.0018
                                        -0.0191 -0.0122  0.0012 -0.0005 -0.0026
                                         0.0024  0.0001 -0.0001  0.0010 -0.0005
                                        -0.0236  0.0010 -0.0167  0.0077  0.0005
                                        -0.0005  0.0144  0.0004  0.0000 -0.0053
                                         0.0097
               ( 42.42%)   0.6513* H 13 s( 99.96%)p 0.00(  0.03%)d 0.00(  0.01%)
                                         0.9998 -0.0116  0.0005  0.0000 -0.0017
                                         0.0163  0.0063  0.0004 -0.0002 -0.0009
                                         0.0000  0.0002 -0.0067 -0.0020
  28. (1.98613) BD ( 1) C  6- C  7
               ( 50.85%)   0.7131* C  6 s( 27.19%)p 2.68( 72.76%)d 0.00(  0.04%)
                                                  f 0.00(  0.01%)
                                         0.0000  0.5214  0.0112 -0.0002 -0.0003
                                        -0.0990 -0.0037  0.0027  0.8441 -0.0072
                                         0.0010  0.0711  0.0069 -0.0028 -0.0044
                                        -0.0001  0.0011 -0.0013  0.0059 -0.0015
                                        -0.0136 -0.0045 -0.0098 -0.0019 -0.0021
                                         0.0060 -0.0059 -0.0011 -0.0004  0.0014
                                        -0.0081
               ( 49.15%)   0.7010* C  7 s( 29.05%)p 2.44( 70.79%)d 0.00(  0.13%)
                                                  f 0.00(  0.03%)
                                         0.0000  0.5389  0.0080  0.0016  0.0002
                                         0.1078 -0.0043  0.0024 -0.8303  0.0059
                                         0.0054 -0.0823  0.0027 -0.0032 -0.0083
                                         0.0005  0.0003 -0.0006  0.0046  0.0005
                                        -0.0295 -0.0003 -0.0187  0.0003  0.0027
                                        -0.0061  0.0080  0.0014  0.0007 -0.0030
                                         0.0117
  29. (1.98284) BD ( 1) C  6- C  8
               ( 50.35%)   0.7096* C  6 s( 26.24%)p 2.81( 73.71%)d 0.00(  0.04%)
                                                  f 0.00(  0.01%)
                                         0.0000  0.5120  0.0136 -0.0002 -0.0001
                                         0.5078 -0.0085  0.0024 -0.3091  0.0038
                                         0.0000  0.6194 -0.0012 -0.0009 -0.0054
                                        -0.0027  0.0153  0.0021 -0.0098 -0.0012
                                         0.0006  0.0029  0.0068 -0.0001 -0.0034
                                         0.0076 -0.0037  0.0005 -0.0029  0.0008
                                        -0.0052
               ( 49.65%)   0.7046* C  8 s( 29.41%)p 2.40( 70.44%)d 0.00(  0.12%)
                                                  f 0.00(  0.03%)
                                         0.0000  0.5423  0.0078  0.0014  0.0003
                                        -0.4859  0.0016  0.0061  0.2988 -0.0010
                                        -0.0025 -0.6156  0.0051  0.0009 -0.0121
                                        -0.0002  0.0266 -0.0006 -0.0150 -0.0002
                                         0.0062  0.0003  0.0088  0.0006  0.0039
                                        -0.0103  0.0058 -0.0028  0.0060  0.0002
                                         0.0075
  30. (1.96166) BD ( 1) C  6- H 14
               ( 59.60%)   0.7720* C  6 s( 19.73%)p 4.06( 80.16%)d 0.01(  0.10%)
                                                  f 0.00(  0.02%)
                                         0.0000  0.4432 -0.0297  0.0001  0.0002
                                         0.4088  0.0127  0.0015 -0.1595 -0.0064
                                         0.0005 -0.7801 -0.0152 -0.0009 -0.0053
                                         0.0006 -0.0223 -0.0003  0.0090  0.0000
                                         0.0047  0.0005  0.0193  0.0006 -0.0019
                                         0.0093 -0.0038 -0.0017 -0.0011  0.0012
                                        -0.0066
               ( 40.40%)   0.6356* H 14 s( 99.94%)p 0.00(  0.04%)d 0.00(  0.02%)
                                         0.9997 -0.0058 -0.0001  0.0097 -0.0026
                                        -0.0036 -0.0003 -0.0177  0.0013 -0.0019
                                        -0.0089  0.0031  0.0019  0.0074
  31. (1.99016) BD ( 1) C  7- H 15
               ( 59.78%)   0.7732* C  7 s( 23.76%)p 3.20( 76.08%)d 0.01(  0.14%)
                                                  f 0.00(  0.02%)
                                         0.0000  0.4874 -0.0003 -0.0010  0.0000
                                         0.7649  0.0077  0.0018  0.4181 -0.0046
                                         0.0052 -0.0278  0.0010  0.0001  0.0228
                                         0.0026 -0.0024  0.0005 -0.0001 -0.0005
                                         0.0216 -0.0019 -0.0203  0.0011  0.0019
                                        -0.0096 -0.0003 -0.0001  0.0006 -0.0020
                                         0.0088
               ( 40.22%)   0.6342* H 15 s( 99.95%)p 0.00(  0.04%)d 0.00(  0.01%)
                                         0.9997 -0.0011 -0.0001  0.0181 -0.0013
                                         0.0095 -0.0012 -0.0004  0.0002  0.0080
                                        -0.0004 -0.0002  0.0048 -0.0052
  32. (1.98971) BD ( 1) C  7- H 16
               ( 60.33%)   0.7767* C  7 s( 23.41%)p 3.26( 76.43%)d 0.01(  0.13%)
                                                  f 0.00(  0.02%)
                                         0.0000  0.4839 -0.0056  0.0001 -0.0003
                                        -0.3831  0.0032  0.0019  0.1882 -0.0097
                                         0.0029  0.7629  0.0023 -0.0017 -0.0042
                                        -0.0010 -0.0252  0.0001  0.0074  0.0023
                                         0.0024  0.0019  0.0248 -0.0008  0.0024
                                        -0.0102  0.0048  0.0002 -0.0021  0.0002
                                         0.0056
               ( 39.67%)   0.6299* H 16 s( 99.95%)p 0.00(  0.04%)d 0.00(  0.01%)
                                         0.9997 -0.0028 -0.0002 -0.0068  0.0059
                                         0.0037 -0.0009  0.0169 -0.0036 -0.0021
                                        -0.0067  0.0032  0.0010  0.0065
  33. (1.98913) BD ( 1) C  7- H 17
               ( 60.87%)   0.7802* C  7 s( 23.70%)p 3.21( 76.15%)d 0.01(  0.13%)
                                                  f 0.00(  0.02%)
                                         0.0000  0.4868 -0.0007 -0.0005  0.0001
                                        -0.5045 -0.0003  0.0013  0.3135 -0.0030
                                         0.0047 -0.6392 -0.0062 -0.0009 -0.0111
                                        -0.0011  0.0284 -0.0006 -0.0135 -0.0014
                                         0.0071  0.0006  0.0131 -0.0014  0.0037
                                        -0.0091  0.0037 -0.0008  0.0049  0.0008
                                         0.0064
               ( 39.13%)   0.6255* H 17 s( 99.94%)p 0.00(  0.04%)d 0.00(  0.01%)
                                         0.9997 -0.0014 -0.0001 -0.0101  0.0063
                                         0.0081  0.0005 -0.0154  0.0016 -0.0047
                                         0.0077 -0.0047  0.0015  0.0033
  34. (1.99072) BD ( 1) C  8- H 18
               ( 60.11%)   0.7753* C  8 s( 23.66%)p 3.22( 76.18%)d 0.01(  0.14%)
                                                  f 0.00(  0.02%)
                                         0.0000  0.4864 -0.0011 -0.0005 -0.0001
                                         0.7959  0.0011  0.0033  0.3572  0.0063
                                        -0.0005 -0.0266 -0.0043  0.0023  0.0248
                                        -0.0009 -0.0041  0.0014 -0.0032  0.0017
                                         0.0195  0.0010 -0.0180 -0.0002  0.0014
                                        -0.0087  0.0017  0.0017  0.0003  0.0026
                                         0.0094
               ( 39.89%)   0.6316* H 18 s( 99.95%)p 0.00(  0.04%)d 0.00(  0.01%)
                                         0.9997 -0.0017 -0.0001  0.0183 -0.0017
                                         0.0081 -0.0007 -0.0006 -0.0001  0.0067
                                        -0.0004  0.0000  0.0062 -0.0052
  35. (1.98994) BD ( 1) C  8- H 19
               ( 60.17%)   0.7757* C  8 s( 23.35%)p 3.28( 76.50%)d 0.01(  0.14%)
                                                  f 0.00(  0.02%)
                                         0.0000  0.4832 -0.0007 -0.0006 -0.0002
                                         0.0919 -0.0035  0.0025 -0.8671 -0.0035
                                        -0.0022 -0.0682 -0.0049  0.0023 -0.0042
                                        -0.0012  0.0004 -0.0008  0.0082 -0.0020
                                        -0.0311  0.0001 -0.0172 -0.0006  0.0019
                                        -0.0061  0.0062  0.0004 -0.0007 -0.0024
                                         0.0094
               ( 39.83%)   0.6311* H 19 s( 99.95%)p 0.00(  0.04%)d 0.00(  0.01%)
                                         0.9997 -0.0012 -0.0001  0.0021  0.0001
                                        -0.0200  0.0012 -0.0015 -0.0001 -0.0021
                                        -0.0002  0.0012 -0.0090 -0.0052
  36. (1.99106) BD ( 1) C  8- H 20
               ( 60.14%)   0.7755* C  8 s( 23.51%)p 3.25( 76.34%)d 0.01(  0.13%)
                                                  f 0.00(  0.02%)
                                         0.0000  0.4848 -0.0051  0.0002  0.0000
                                        -0.3468 -0.0061  0.0029  0.1715  0.0045
                                        -0.0016  0.7834 -0.0051  0.0009 -0.0082
                                         0.0022 -0.0236  0.0003  0.0110 -0.0001
                                         0.0055 -0.0010  0.0234  0.0013  0.0063
                                        -0.0084  0.0041  0.0015 -0.0009 -0.0001
                                         0.0061
               ( 39.86%)   0.6314* H 20 s( 99.95%)p 0.00(  0.04%)d 0.00(  0.01%)
                                         0.9998 -0.0027 -0.0001 -0.0073  0.0028
                                         0.0038 -0.0006  0.0168 -0.0041 -0.0013
                                        -0.0063  0.0030  0.0009  0.0072
  37. (1.99262) BD ( 1) O  9- C 10
               ( 66.12%)   0.8132* O  9 s( 30.22%)p 2.30( 69.49%)d 0.01(  0.28%)
                                                  f 0.00(  0.01%)
                                         0.0000  0.5496  0.0076  0.0032  0.0001
                                        -0.7363  0.0193 -0.0042  0.3900  0.0093
                                         0.0074 -0.0090  0.0026  0.0007 -0.0429
                                        -0.0016 -0.0003  0.0000  0.0001 -0.0001
                                         0.0087  0.0008 -0.0301  0.0009  0.0000
                                         0.0065 -0.0035  0.0000 -0.0001 -0.0034
                                         0.0057
               ( 33.88%)   0.5820* C 10 s( 23.30%)p 3.29( 76.63%)d 0.00(  0.07%)
                                                  f 0.00(  0.00%)
                                         0.0000  0.4812  0.0384  0.0021 -0.0004
                                         0.7872 -0.0285  0.0037 -0.3793  0.0410
                                         0.0034  0.0049  0.0123  0.0034 -0.0082
                                        -0.0157  0.0012 -0.0007 -0.0003  0.0004
                                         0.0153  0.0028 -0.0080 -0.0090  0.0031
                                        -0.0021  0.0032  0.0015 -0.0011  0.0010
                                        -0.0028
  38. (1.99488) BD ( 1) C 10- C 11
               ( 49.52%)   0.7037* C 10 s( 29.49%)p 2.39( 70.43%)d 0.00(  0.07%)
                                                  f 0.00(  0.01%)
                                         0.0000  0.5427  0.0188 -0.0011  0.0000
                                        -0.2152  0.0156 -0.0009  0.2518 -0.0040
                                         0.0027  0.7709 -0.0031 -0.0022 -0.0008
                                        -0.0015 -0.0118  0.0019  0.0123 -0.0004
                                        -0.0014  0.0007  0.0205  0.0004  0.0058
                                        -0.0046  0.0071  0.0020 -0.0045  0.0019
                                        -0.0032
               ( 50.48%)   0.7105* C 11 s( 28.12%)p 2.55( 71.71%)d 0.00(  0.14%)
                                                  f 0.00(  0.02%)
                                         0.0000  0.5299  0.0199  0.0011 -0.0002
                                         0.2011 -0.0034  0.0040 -0.2655  0.0043
                                        -0.0016 -0.7785  0.0100 -0.0016 -0.0047
                                        -0.0004 -0.0153 -0.0002  0.0186  0.0003
                                        -0.0009  0.0000  0.0281  0.0000 -0.0076
                                         0.0071 -0.0094 -0.0018  0.0049 -0.0026
                                         0.0040
  39. (1.98743) BD ( 1) C 10- H 21
               ( 59.60%)   0.7720* C 10 s( 24.20%)p 3.13( 75.66%)d 0.00(  0.12%)
                                                  f 0.00(  0.01%)
                                         0.0000  0.4913 -0.0251  0.0008  0.0003
                                         0.0265  0.0038  0.0016  0.6683  0.0081
                                         0.0055 -0.5561 -0.0068  0.0003 -0.0011
                                         0.0027 -0.0007 -0.0005 -0.0287  0.0005
                                        -0.0187  0.0020  0.0028 -0.0003  0.0051
                                        -0.0020  0.0060  0.0052 -0.0022  0.0033
                                        -0.0062
               ( 40.40%)   0.6356* H 21 s( 99.95%)p 0.00(  0.04%)d 0.00(  0.01%)
                                         0.9997 -0.0060 -0.0001  0.0020  0.0047
                                         0.0157 -0.0035 -0.0111  0.0038 -0.0012
                                        -0.0001 -0.0090 -0.0055  0.0014
  40. (1.98355) BD ( 1) C 10- H 22
               ( 58.78%)   0.7667* C 10 s( 23.17%)p 3.31( 76.68%)d 0.01(  0.14%)
                                                  f 0.00(  0.01%)
                                         0.0000  0.4811 -0.0151 -0.0011 -0.0002
                                        -0.5735 -0.0181  0.0029 -0.5859 -0.0151
                                         0.0035 -0.3066 -0.0017  0.0042  0.0294
                                        -0.0031  0.0130  0.0004  0.0134  0.0003
                                        -0.0015 -0.0008 -0.0123  0.0006  0.0055
                                        -0.0013  0.0045  0.0022 -0.0054  0.0025
                                        -0.0065
               ( 41.22%)   0.6420* H 22 s( 99.95%)p 0.00(  0.04%)d 0.00(  0.01%)
                                         0.9997 -0.0031 -0.0001 -0.0136 -0.0004
                                        -0.0126  0.0000 -0.0065  0.0014  0.0084
                                         0.0048  0.0041  0.0008 -0.0034
  41. (1.99026) BD ( 1) C 11- H 23
               ( 61.08%)   0.7815* C 11 s( 24.24%)p 3.12( 75.61%)d 0.01(  0.13%)
                                                  f 0.00(  0.02%)
                                         0.0000  0.4923 -0.0080  0.0003  0.0003
                                         0.5658  0.0052  0.0030  0.5998  0.0003
                                        -0.0005  0.2761 -0.0026 -0.0036  0.0292
                                         0.0001  0.0099  0.0013  0.0122  0.0004
                                         0.0007 -0.0008 -0.0142 -0.0001 -0.0057
                                         0.0013 -0.0046 -0.0034  0.0058 -0.0056
                                         0.0074
               ( 38.92%)   0.6239* H 23 s( 99.94%)p 0.00(  0.04%)d 0.00(  0.01%)
                                         0.9997 -0.0022 -0.0001  0.0114 -0.0053
                                         0.0139 -0.0021  0.0084  0.0029  0.0079
                                         0.0044  0.0044 -0.0009 -0.0036
  42. (1.99096) BD ( 1) C 11- H 24
               ( 60.08%)   0.7751* C 11 s( 23.90%)p 3.18( 75.94%)d 0.01(  0.14%)
                                                  f 0.00(  0.02%)
                                         0.0000  0.4889 -0.0069 -0.0001  0.0000
                                         0.0075  0.0022  0.0008 -0.6664 -0.0061
                                        -0.0012  0.5614 -0.0038 -0.0023 -0.0018
                                         0.0004 -0.0015  0.0009 -0.0300 -0.0013
                                        -0.0213  0.0010  0.0023  0.0005 -0.0041
                                         0.0016 -0.0082 -0.0065  0.0024 -0.0028
                                         0.0068
               ( 39.92%)   0.6318* H 24 s( 99.95%)p 0.00(  0.04%)d 0.00(  0.01%)
                                         0.9997 -0.0019 -0.0001 -0.0001 -0.0010
                                        -0.0158  0.0002  0.0131 -0.0005  0.0000
                                         0.0000 -0.0091 -0.0054  0.0016
  43. (1.98746) BD ( 1) C 11- H 25
               ( 60.10%)   0.7753* C 11 s( 23.71%)p 3.21( 76.13%)d 0.01(  0.14%)
                                                  f 0.00(  0.02%)
                                         0.0000  0.4869 -0.0034 -0.0011 -0.0003
                                        -0.7984 -0.0051  0.0020  0.3518  0.0008
                                        -0.0015  0.0046 -0.0064 -0.0020 -0.0234
                                        -0.0001  0.0053 -0.0020 -0.0023  0.0006
                                         0.0233 -0.0004 -0.0178 -0.0008 -0.0037
                                         0.0049 -0.0054 -0.0015  0.0013 -0.0041
                                         0.0099
               ( 39.90%)   0.6316* H 25 s( 99.94%)p 0.00(  0.04%)d 0.00(  0.01%)
                                         0.9997 -0.0008 -0.0001 -0.0194 -0.0010
                                         0.0082 -0.0003 -0.0006 -0.0016 -0.0070
                                        -0.0003  0.0002  0.0064 -0.0053
 ---------------- non-Lewis ----------------------------------------------------
  44. (0.02031) BD*( 1) O  1- C  2
               ( 35.55%)   0.5962* O  1 s( 40.24%)p 1.47( 59.17%)d 0.01(  0.58%)
                                                  f 0.00(  0.01%)
                                         0.0000 -0.6343 -0.0028  0.0007 -0.0003
                                        -0.1284  0.0038 -0.0012  0.7579 -0.0254
                                         0.0074 -0.0003 -0.0001  0.0000  0.0191
                                         0.0001 -0.0001  0.0000  0.0000  0.0000
                                         0.0634  0.0005  0.0381 -0.0002  0.0000
                                         0.0009 -0.0063  0.0000  0.0000  0.0039
                                        -0.0080
               ( 64.45%)  -0.8028* C  2 s( 34.58%)p 1.89( 65.32%)d 0.00(  0.07%)
                                                  f 0.00(  0.03%)
                                         0.0000 -0.5868  0.0371 -0.0063  0.0006
                                         0.1068  0.0026 -0.0016 -0.7990  0.0589
                                         0.0028 -0.0014 -0.0007 -0.0002  0.0056
                                         0.0050  0.0000  0.0000  0.0000  0.0002
                                         0.0132  0.0188  0.0082  0.0094  0.0000
                                        -0.0026  0.0099  0.0000  0.0000 -0.0058
                                         0.0113
  45. (0.05323) BD*( 1) C  2- C  3
               ( 49.79%)   0.7056* C  2 s( 40.96%)p 1.44( 58.92%)d 0.00(  0.08%)
                                                  f 0.00(  0.04%)
                                         0.0000  0.6394  0.0273 -0.0064 -0.0001
                                         0.6675  0.0025  0.0025 -0.3789  0.0058
                                        -0.0060  0.0063 -0.0018  0.0014 -0.0246
                                         0.0031  0.0004 -0.0003 -0.0002  0.0001
                                         0.0089  0.0001 -0.0048 -0.0082 -0.0002
                                        -0.0114  0.0083  0.0000 -0.0002 -0.0017
                                        -0.0140
               ( 50.21%)  -0.7086* C  3 s( 34.61%)p 1.88( 65.22%)d 0.00(  0.14%)
                                                  f 0.00(  0.04%)
                                         0.0000  0.5881 -0.0102 -0.0091 -0.0002
                                        -0.6765  0.0229  0.0030  0.4404 -0.0063
                                         0.0003 -0.0037  0.0006  0.0000 -0.0314
                                         0.0041  0.0001  0.0003 -0.0001 -0.0001
                                         0.0087 -0.0003 -0.0179 -0.0008  0.0002
                                         0.0115 -0.0077 -0.0003  0.0002 -0.0035
                                         0.0124
  46. (0.43472) BD*( 2) C  2- C  3
               ( 69.74%)   0.8351* C  2 s(  0.00%)p 1.00( 99.83%)d 0.00(  0.15%)
                                                  f 0.00(  0.03%)
                                         0.0000  0.0006  0.0000  0.0007  0.0003
                                         0.0103  0.0031 -0.0025  0.0027 -0.0008
                                         0.0008 -0.9973 -0.0554  0.0197 -0.0003
                                         0.0003 -0.0301  0.0099  0.0209 -0.0070
                                         0.0008 -0.0004 -0.0010  0.0007  0.0150
                                        -0.0002  0.0000  0.0045  0.0030 -0.0001
                                        -0.0001
               ( 30.26%)  -0.5501* C  3 s(  0.00%)p 1.00( 99.92%)d 0.00(  0.04%)
                                                  f 0.00(  0.04%)
                                         0.0000  0.0006 -0.0001  0.0003 -0.0005
                                         0.0111  0.0021 -0.0004  0.0079  0.0000
                                        -0.0002 -0.9979 -0.0551  0.0103  0.0005
                                        -0.0002  0.0123 -0.0051 -0.0132  0.0001
                                        -0.0003  0.0001  0.0003 -0.0002  0.0204
                                        -0.0007 -0.0003 -0.0027 -0.0005  0.0001
                                         0.0000
  47. (0.11612) BD*( 1) C  2- O  9
               ( 68.44%)   0.8273* C  2 s( 24.57%)p 3.07( 75.35%)d 0.00(  0.07%)
                                                  f 0.00(  0.01%)
                                         0.0000  0.4956 -0.0015  0.0068  0.0005
                                        -0.7354  0.0057 -0.0054 -0.4602  0.0271
                                        -0.0075 -0.0086  0.0026 -0.0007  0.0210
                                         0.0109 -0.0006  0.0013  0.0002  0.0001
                                         0.0063  0.0027 -0.0116 -0.0017  0.0000
                                         0.0064  0.0023  0.0002 -0.0002  0.0014
                                        -0.0016
               ( 31.56%)  -0.5618* O  9 s( 28.64%)p 2.48( 71.10%)d 0.01(  0.25%)
                                                  f 0.00(  0.01%)
                                         0.0000  0.5352 -0.0020  0.0017 -0.0002
                                         0.6692 -0.0174  0.0031  0.5126 -0.0026
                                         0.0064  0.0022 -0.0001  0.0003  0.0411
                                         0.0017  0.0006  0.0001  0.0012 -0.0002
                                        -0.0076  0.0000 -0.0278  0.0010 -0.0001
                                        -0.0053 -0.0042 -0.0001  0.0000  0.0010
                                         0.0059
  48. (0.01222) BD*( 1) C  3- N  4
               ( 59.68%)   0.7725* C  3 s( 34.08%)p 1.93( 65.84%)d 0.00(  0.05%)
                                                  f 0.00(  0.03%)
                                         0.0000  0.5820  0.0461  0.0014 -0.0002
                                         0.7302 -0.0547 -0.0069  0.3478 -0.0310
                                        -0.0049  0.0111 -0.0010 -0.0001  0.0087
                                         0.0124  0.0004  0.0002  0.0002  0.0002
                                         0.0045  0.0074 -0.0147 -0.0043 -0.0004
                                        -0.0111 -0.0049  0.0003  0.0003  0.0056
                                         0.0107
               ( 40.32%)  -0.6350* N  4 s( 35.48%)p 1.81( 64.11%)d 0.01(  0.38%)
                                                  f 0.00(  0.03%)
                                         0.0000  0.5951  0.0255  0.0025 -0.0002
                                        -0.7239  0.0179  0.0039 -0.3414 -0.0061
                                         0.0067 -0.0092 -0.0004  0.0001  0.0477
                                         0.0019  0.0013  0.0000  0.0008  0.0000
                                         0.0126  0.0011 -0.0363  0.0024  0.0003
                                         0.0100  0.0051 -0.0003 -0.0002 -0.0101
                                        -0.0109
  49. (0.03653) BD*( 1) C  3- H 12
               ( 41.55%)   0.6446* C  3 s( 31.39%)p 2.18( 68.49%)d 0.00(  0.08%)
                                                  f 0.00(  0.04%)
                                         0.0000 -0.5599  0.0213 -0.0071 -0.0002
                                         0.0504 -0.0094  0.0034  0.8255 -0.0205
                                         0.0194  0.0068 -0.0001  0.0002 -0.0052
                                         0.0007 -0.0002  0.0001 -0.0005  0.0000
                                         0.0208  0.0037  0.0178 -0.0014 -0.0004
                                        -0.0019 -0.0162 -0.0003  0.0002 -0.0024
                                        -0.0097
               ( 58.45%)  -0.7645* H 12 s( 99.96%)p 0.00(  0.03%)d 0.00(  0.01%)
                                        -0.9998  0.0081 -0.0007 -0.0025 -0.0005
                                        -0.0141 -0.0093 -0.0001 -0.0001 -0.0009
                                         0.0000 -0.0001  0.0069  0.0033
  50. (0.00922) BD*( 1) N  4- C  5
               ( 40.28%)   0.6347* N  4 s( 39.82%)p 1.50( 59.70%)d 0.01(  0.45%)
                                                  f 0.00(  0.03%)
                                         0.0000 -0.6309 -0.0150  0.0002 -0.0002
                                        -0.6854  0.0163  0.0023  0.3562 -0.0046
                                        -0.0050 -0.0096 -0.0003  0.0001  0.0523
                                         0.0017 -0.0003  0.0000  0.0001  0.0001
                                        -0.0149 -0.0006  0.0390 -0.0024  0.0002
                                         0.0098 -0.0054 -0.0002  0.0002 -0.0069
                                         0.0128
               ( 59.72%)  -0.7728* C  5 s( 36.32%)p 1.75( 63.58%)d 0.00(  0.06%)
                                                  f 0.00(  0.03%)
                                         0.0000 -0.6005 -0.0516  0.0038  0.0006
                                         0.6980 -0.0490 -0.0094 -0.3811  0.0299
                                         0.0037 -0.0052 -0.0001  0.0005  0.0131
                                         0.0140 -0.0001  0.0003 -0.0002  0.0002
                                        -0.0080 -0.0045  0.0126  0.0047  0.0000
                                        -0.0114  0.0051  0.0001  0.0000  0.0026
                                        -0.0131
  51. (0.27043) BD*( 2) N  4- C  5
               ( 47.53%)   0.6894* N  4 s(  0.00%)p 1.00( 99.68%)d 0.00(  0.29%)
                                                  f 0.00(  0.03%)
                                         0.0000 -0.0052 -0.0019 -0.0007 -0.0001
                                        -0.0132  0.0012  0.0000 -0.0079 -0.0005
                                         0.0001  0.9982 -0.0110  0.0031  0.0000
                                         0.0002  0.0181  0.0066 -0.0501 -0.0007
                                        -0.0014  0.0001 -0.0003  0.0001 -0.0132
                                         0.0004  0.0002  0.0105 -0.0032 -0.0003
                                        -0.0001
               ( 52.47%)  -0.7244* C  5 s(  0.01%)p99.99( 99.89%)d 5.88(  0.07%)
                                                  f 2.22(  0.03%)
                                         0.0000  0.0040 -0.0096 -0.0030  0.0005
                                         0.0039  0.0018  0.0016 -0.0116  0.0021
                                        -0.0002  0.9989  0.0284 -0.0134  0.0016
                                        -0.0017 -0.0221  0.0026  0.0135 -0.0019
                                         0.0007 -0.0006  0.0002 -0.0006 -0.0160
                                         0.0004  0.0002  0.0013 -0.0012  0.0000
                                         0.0004
  52. (0.03271) BD*( 1) C  5- C  6
               ( 52.07%)   0.7216* C  5 s( 33.99%)p 1.94( 65.88%)d 0.00(  0.08%)
                                                  f 0.00(  0.04%)
                                         0.0000  0.5829 -0.0076 -0.0055  0.0003
                                         0.7126 -0.0073  0.0048  0.3885  0.0038
                                         0.0033 -0.0007  0.0016  0.0042  0.0219
                                        -0.0052  0.0010 -0.0011  0.0003 -0.0004
                                         0.0099 -0.0011 -0.0142  0.0037 -0.0005
                                        -0.0121 -0.0072  0.0006  0.0005  0.0069
                                         0.0132
               ( 47.93%)  -0.6923* C  6 s( 26.90%)p 2.71( 73.02%)d 0.00(  0.06%)
                                                  f 0.00(  0.02%)
                                         0.0000  0.5187  0.0044  0.0004 -0.0002
                                        -0.7510 -0.0010  0.0020 -0.4071  0.0095
                                        -0.0003 -0.0163  0.0071 -0.0032  0.0156
                                         0.0027 -0.0012  0.0012 -0.0027  0.0022
                                         0.0130 -0.0004 -0.0137  0.0001 -0.0012
                                         0.0088 -0.0014 -0.0015 -0.0013  0.0003
                                        -0.0088
  53. (0.04942) BD*( 1) C  5- H 13
               ( 42.42%)   0.6513* C  5 s( 29.83%)p 2.35( 70.04%)d 0.00(  0.09%)
                                                  f 0.00(  0.03%)
                                         0.0000 -0.5453  0.0304 -0.0076  0.0000
                                        -0.0098  0.0080 -0.0022  0.8365  0.0018
                                         0.0191  0.0122 -0.0012  0.0005  0.0026
                                        -0.0024 -0.0001  0.0001 -0.0010  0.0005
                                         0.0236 -0.0010  0.0167 -0.0077 -0.0005
                                         0.0005 -0.0144 -0.0004  0.0000  0.0053
                                        -0.0097
               ( 57.58%)  -0.7588* H 13 s( 99.96%)p 0.00(  0.03%)d 0.00(  0.01%)
                                        -0.9998  0.0116 -0.0005  0.0000  0.0017
                                        -0.0163 -0.0063 -0.0004  0.0002  0.0009
                                         0.0000 -0.0002  0.0067  0.0020
  54. (0.01369) BD*( 1) C  6- C  7
               ( 49.15%)   0.7010* C  6 s( 27.19%)p 2.68( 72.76%)d 0.00(  0.04%)
                                                  f 0.00(  0.01%)
                                         0.0000 -0.5214 -0.0112  0.0002  0.0003
                                         0.0990  0.0037 -0.0027 -0.8441  0.0072
                                        -0.0010 -0.0711 -0.0069  0.0028  0.0044
                                         0.0001 -0.0011  0.0013 -0.0059  0.0015
                                         0.0136  0.0045  0.0098  0.0019  0.0021
                                        -0.0060  0.0059  0.0011  0.0004 -0.0014
                                         0.0081
               ( 50.85%)  -0.7131* C  7 s( 29.05%)p 2.44( 70.79%)d 0.00(  0.13%)
                                                  f 0.00(  0.03%)
                                         0.0000 -0.5389 -0.0080 -0.0016 -0.0002
                                        -0.1078  0.0043 -0.0024  0.8303 -0.0059
                                        -0.0054  0.0823 -0.0027  0.0032  0.0083
                                        -0.0005 -0.0003  0.0006 -0.0046 -0.0005
                                         0.0295  0.0003  0.0187 -0.0003 -0.0027
                                         0.0061 -0.0080 -0.0014 -0.0007  0.0030
                                        -0.0117
  55. (0.01667) BD*( 1) C  6- C  8
               ( 49.65%)   0.7046* C  6 s( 26.24%)p 2.81( 73.71%)d 0.00(  0.04%)
                                                  f 0.00(  0.01%)
                                         0.0000 -0.5120 -0.0136  0.0002  0.0001
                                        -0.5078  0.0085 -0.0024  0.3091 -0.0038
                                         0.0000 -0.6194  0.0012  0.0009  0.0054
                                         0.0027 -0.0153 -0.0021  0.0098  0.0012
                                        -0.0006 -0.0029 -0.0068  0.0001  0.0034
                                        -0.0076  0.0037 -0.0005  0.0029 -0.0008
                                         0.0052
               ( 50.35%)  -0.7096* C  8 s( 29.41%)p 2.40( 70.44%)d 0.00(  0.12%)
                                                  f 0.00(  0.03%)
                                         0.0000 -0.5423 -0.0078 -0.0014 -0.0003
                                         0.4859 -0.0016 -0.0061 -0.2988  0.0010
                                         0.0025  0.6156 -0.0051 -0.0009  0.0121
                                         0.0002 -0.0266  0.0006  0.0150  0.0002
                                        -0.0062 -0.0003 -0.0088 -0.0006 -0.0039
                                         0.0103 -0.0058  0.0028 -0.0060 -0.0002
                                        -0.0075
  56. (0.03176) BD*( 1) C  6- H 14
               ( 40.40%)   0.6356* C  6 s( 19.73%)p 4.06( 80.16%)d 0.01(  0.10%)
                                                  f 0.00(  0.02%)
                                         0.0000 -0.4432  0.0297 -0.0001 -0.0002
                                        -0.4088 -0.0127 -0.0015  0.1595  0.0064
                                        -0.0005  0.7801  0.0152  0.0009  0.0053
                                        -0.0006  0.0223  0.0003 -0.0090  0.0000
                                        -0.0047 -0.0005 -0.0193 -0.0006  0.0019
                                        -0.0093  0.0038  0.0017  0.0011 -0.0012
                                         0.0066
               ( 59.60%)  -0.7720* H 14 s( 99.94%)p 0.00(  0.04%)d 0.00(  0.02%)
                                        -0.9997  0.0058  0.0001 -0.0097  0.0026
                                         0.0036  0.0003  0.0177 -0.0013  0.0019
                                         0.0089 -0.0031 -0.0019 -0.0074
  57. (0.00715) BD*( 1) C  7- H 15
               ( 40.22%)   0.6342* C  7 s( 23.76%)p 3.20( 76.08%)d 0.01(  0.14%)
                                                  f 0.00(  0.02%)
                                         0.0000 -0.4874  0.0003  0.0010  0.0000
                                        -0.7649 -0.0077 -0.0018 -0.4181  0.0046
                                        -0.0052  0.0278 -0.0010 -0.0001 -0.0228
                                        -0.0026  0.0024 -0.0005  0.0001  0.0005
                                        -0.0216  0.0019  0.0203 -0.0011 -0.0019
                                         0.0096  0.0003  0.0001 -0.0006  0.0020
                                        -0.0088
               ( 59.78%)  -0.7732* H 15 s( 99.95%)p 0.00(  0.04%)d 0.00(  0.01%)
                                        -0.9997  0.0011  0.0001 -0.0181  0.0013
                                        -0.0095  0.0012  0.0004 -0.0002 -0.0080
                                         0.0004  0.0002 -0.0048  0.0052
  58. (0.01013) BD*( 1) C  7- H 16
               ( 39.67%)   0.6299* C  7 s( 23.41%)p 3.26( 76.43%)d 0.01(  0.13%)
                                                  f 0.00(  0.02%)
                                         0.0000 -0.4839  0.0056 -0.0001  0.0003
                                         0.3831 -0.0032 -0.0019 -0.1882  0.0097
                                        -0.0029 -0.7629 -0.0023  0.0017  0.0042
                                         0.0010  0.0252 -0.0001 -0.0074 -0.0023
                                        -0.0024 -0.0019 -0.0248  0.0008 -0.0024
                                         0.0102 -0.0048 -0.0002  0.0021 -0.0002
                                        -0.0056
               ( 60.33%)  -0.7767* H 16 s( 99.95%)p 0.00(  0.04%)d 0.00(  0.01%)
                                        -0.9997  0.0028  0.0002  0.0068 -0.0059
                                        -0.0037  0.0009 -0.0169  0.0036  0.0021
                                         0.0067 -0.0032 -0.0010 -0.0065
  59. (0.00655) BD*( 1) C  7- H 17
               ( 39.13%)   0.6255* C  7 s( 23.70%)p 3.21( 76.15%)d 0.01(  0.13%)
                                                  f 0.00(  0.02%)
                                         0.0000 -0.4868  0.0007  0.0005 -0.0001
                                         0.5045  0.0003 -0.0013 -0.3135  0.0030
                                        -0.0047  0.6392  0.0062  0.0009  0.0111
                                         0.0011 -0.0284  0.0006  0.0135  0.0014
                                        -0.0071 -0.0006 -0.0131  0.0014 -0.0037
                                         0.0091 -0.0037  0.0008 -0.0049 -0.0008
                                        -0.0064
               ( 60.87%)  -0.7802* H 17 s( 99.94%)p 0.00(  0.04%)d 0.00(  0.01%)
                                        -0.9997  0.0014  0.0001  0.0101 -0.0063
                                        -0.0081 -0.0005  0.0154 -0.0016  0.0047
                                        -0.0077  0.0047 -0.0015 -0.0033
  60. (0.00794) BD*( 1) C  8- H 18
               ( 39.89%)   0.6316* C  8 s( 23.66%)p 3.22( 76.18%)d 0.01(  0.14%)
                                                  f 0.00(  0.02%)
                                         0.0000 -0.4864  0.0011  0.0005  0.0001
                                        -0.7959 -0.0011 -0.0033 -0.3572 -0.0063
                                         0.0005  0.0266  0.0043 -0.0023 -0.0248
                                         0.0009  0.0041 -0.0014  0.0032 -0.0017
                                        -0.0195 -0.0010  0.0180  0.0002 -0.0014
                                         0.0087 -0.0017 -0.0017 -0.0003 -0.0026
                                        -0.0094
               ( 60.11%)  -0.7753* H 18 s( 99.95%)p 0.00(  0.04%)d 0.00(  0.01%)
                                        -0.9997  0.0017  0.0001 -0.0183  0.0017
                                        -0.0081  0.0007  0.0006  0.0001 -0.0067
                                         0.0004  0.0000 -0.0062  0.0052
  61. (0.00657) BD*( 1) C  8- H 19
               ( 39.83%)   0.6311* C  8 s( 23.35%)p 3.28( 76.50%)d 0.01(  0.14%)
                                                  f 0.00(  0.02%)
                                         0.0000 -0.4832  0.0007  0.0006  0.0002
                                        -0.0919  0.0035 -0.0025  0.8671  0.0035
                                         0.0022  0.0682  0.0049 -0.0023  0.0042
                                         0.0012 -0.0004  0.0008 -0.0082  0.0020
                                         0.0311 -0.0001  0.0172  0.0006 -0.0019
                                         0.0061 -0.0062 -0.0004  0.0007  0.0024
                                        -0.0094
               ( 60.17%)  -0.7757* H 19 s( 99.95%)p 0.00(  0.04%)d 0.00(  0.01%)
                                        -0.9997  0.0012  0.0001 -0.0021 -0.0001
                                         0.0200 -0.0012  0.0015  0.0001  0.0021
                                         0.0002 -0.0012  0.0090  0.0052
  62. (0.01023) BD*( 1) C  8- H 20
               ( 39.86%)   0.6314* C  8 s( 23.51%)p 3.25( 76.34%)d 0.01(  0.13%)
                                                  f 0.00(  0.02%)
                                         0.0000 -0.4848  0.0051 -0.0002  0.0000
                                         0.3468  0.0061 -0.0029 -0.1715 -0.0045
                                         0.0016 -0.7834  0.0051 -0.0009  0.0082
                                        -0.0022  0.0236 -0.0003 -0.0110  0.0001
                                        -0.0055  0.0010 -0.0234 -0.0013 -0.0063
                                         0.0084 -0.0041 -0.0015  0.0009  0.0001
                                        -0.0061
               ( 60.14%)  -0.7755* H 20 s( 99.95%)p 0.00(  0.04%)d 0.00(  0.01%)
                                        -0.9998  0.0027  0.0001  0.0073 -0.0028
                                        -0.0038  0.0006 -0.0168  0.0041  0.0013
                                         0.0063 -0.0030 -0.0009 -0.0072
  63. (0.02257) BD*( 1) O  9- C 10
               ( 33.88%)   0.5820* O  9 s( 30.22%)p 2.30( 69.49%)d 0.01(  0.28%)
                                                  f 0.00(  0.01%)
                                         0.0000 -0.5496 -0.0076 -0.0032 -0.0001
                                         0.7363 -0.0193  0.0042 -0.3900 -0.0093
                                        -0.0074  0.0090 -0.0026 -0.0007  0.0429
                                         0.0016  0.0003  0.0000 -0.0001  0.0001
                                        -0.0087 -0.0008  0.0301 -0.0009  0.0000
                                        -0.0065  0.0035  0.0000  0.0001  0.0034
                                        -0.0057
               ( 66.12%)  -0.8132* C 10 s( 23.30%)p 3.29( 76.63%)d 0.00(  0.07%)
                                                  f 0.00(  0.00%)
                                         0.0000 -0.4812 -0.0384 -0.0021  0.0004
                                        -0.7872  0.0285 -0.0037  0.3793 -0.0410
                                        -0.0034 -0.0049 -0.0123 -0.0034  0.0082
                                         0.0157 -0.0012  0.0007  0.0003 -0.0004
                                        -0.0153 -0.0028  0.0080  0.0090 -0.0031
                                         0.0021 -0.0032 -0.0015  0.0011 -0.0010
                                         0.0028
  64. (0.02081) BD*( 1) C 10- C 11
               ( 50.48%)   0.7105* C 10 s( 29.49%)p 2.39( 70.43%)d 0.00(  0.07%)
                                                  f 0.00(  0.01%)
                                         0.0000  0.5427  0.0188 -0.0011  0.0000
                                        -0.2152  0.0156 -0.0009  0.2518 -0.0040
                                         0.0027  0.7709 -0.0031 -0.0022 -0.0008
                                        -0.0015 -0.0118  0.0019  0.0123 -0.0004
                                        -0.0014  0.0007  0.0205  0.0004  0.0058
                                        -0.0046  0.0071  0.0020 -0.0045  0.0019
                                        -0.0032
               ( 49.52%)  -0.7037* C 11 s( 28.12%)p 2.55( 71.71%)d 0.00(  0.14%)
                                                  f 0.00(  0.02%)
                                         0.0000  0.5299  0.0199  0.0011 -0.0002
                                         0.2011 -0.0034  0.0040 -0.2655  0.0043
                                        -0.0016 -0.7785  0.0100 -0.0016 -0.0047
                                        -0.0004 -0.0153 -0.0002  0.0186  0.0003
                                        -0.0009  0.0000  0.0281  0.0000 -0.0076
                                         0.0071 -0.0094 -0.0018  0.0049 -0.0026
                                         0.0040
  65. (0.02939) BD*( 1) C 10- H 21
               ( 40.40%)   0.6356* C 10 s( 24.20%)p 3.13( 75.66%)d 0.00(  0.12%)
                                                  f 0.00(  0.01%)
                                         0.0000 -0.4913  0.0251 -0.0008 -0.0003
                                        -0.0265 -0.0038 -0.0016 -0.6683 -0.0081
                                        -0.0055  0.5561  0.0068 -0.0003  0.0011
                                        -0.0027  0.0007  0.0005  0.0287 -0.0005
                                         0.0187 -0.0020 -0.0028  0.0003 -0.0051
                                         0.0020 -0.0060 -0.0052  0.0022 -0.0033
                                         0.0062
               ( 59.60%)  -0.7720* H 21 s( 99.95%)p 0.00(  0.04%)d 0.00(  0.01%)
                                        -0.9997  0.0060  0.0001 -0.0020 -0.0047
                                        -0.0157  0.0035  0.0111 -0.0038  0.0012
                                         0.0001  0.0090  0.0055 -0.0014
  66. (0.02102) BD*( 1) C 10- H 22
               ( 41.22%)   0.6420* C 10 s( 23.17%)p 3.31( 76.68%)d 0.01(  0.14%)
                                                  f 0.00(  0.01%)
                                         0.0000 -0.4811  0.0151  0.0011  0.0002
                                         0.5735  0.0181 -0.0029  0.5859  0.0151
                                        -0.0035  0.3066  0.0017 -0.0042 -0.0294
                                         0.0031 -0.0130 -0.0004 -0.0134 -0.0003
                                         0.0015  0.0008  0.0123 -0.0006 -0.0055
                                         0.0013 -0.0045 -0.0022  0.0054 -0.0025
                                         0.0065
               ( 58.78%)  -0.7667* H 22 s( 99.95%)p 0.00(  0.04%)d 0.00(  0.01%)
                                        -0.9997  0.0031  0.0001  0.0136  0.0004
                                         0.0126  0.0000  0.0065 -0.0014 -0.0084
                                        -0.0048 -0.0041 -0.0008  0.0034
  67. (0.00886) BD*( 1) C 11- H 23
               ( 38.92%)   0.6239* C 11 s( 24.24%)p 3.12( 75.61%)d 0.01(  0.13%)
                                                  f 0.00(  0.02%)
                                         0.0000 -0.4923  0.0080 -0.0003 -0.0003
                                        -0.5658 -0.0052 -0.0030 -0.5998 -0.0003
                                         0.0005 -0.2761  0.0026  0.0036 -0.0292
                                        -0.0001 -0.0099 -0.0013 -0.0122 -0.0004
                                        -0.0007  0.0008  0.0142  0.0001  0.0057
                                        -0.0013  0.0046  0.0034 -0.0058  0.0056
                                        -0.0074
               ( 61.08%)  -0.7815* H 23 s( 99.94%)p 0.00(  0.04%)d 0.00(  0.01%)
                                        -0.9997  0.0022  0.0001 -0.0114  0.0053
                                        -0.0139  0.0021 -0.0084 -0.0029 -0.0079
                                        -0.0044 -0.0044  0.0009  0.0036
  68. (0.00834) BD*( 1) C 11- H 24
               ( 39.92%)   0.6318* C 11 s( 23.90%)p 3.18( 75.94%)d 0.01(  0.14%)
                                                  f 0.00(  0.02%)
                                         0.0000 -0.4889  0.0069  0.0001  0.0000
                                        -0.0075 -0.0022 -0.0008  0.6664  0.0061
                                         0.0012 -0.5614  0.0038  0.0023  0.0018
                                        -0.0004  0.0015 -0.0009  0.0300  0.0013
                                         0.0213 -0.0010 -0.0023 -0.0005  0.0041
                                        -0.0016  0.0082  0.0065 -0.0024  0.0028
                                        -0.0068
               ( 60.08%)  -0.7751* H 24 s( 99.95%)p 0.00(  0.04%)d 0.00(  0.01%)
                                        -0.9997  0.0019  0.0001  0.0001  0.0010
                                         0.0158 -0.0002 -0.0131  0.0005  0.0000
                                         0.0000  0.0091  0.0054 -0.0016
  69. (0.00478) BD*( 1) C 11- H 25
               ( 39.90%)   0.6316* C 11 s( 23.71%)p 3.21( 76.13%)d 0.01(  0.14%)
                                                  f 0.00(  0.02%)
                                         0.0000 -0.4869  0.0034  0.0011  0.0003
                                         0.7984  0.0051 -0.0020 -0.3518 -0.0008
                                         0.0015 -0.0046  0.0064  0.0020  0.0234
                                         0.0001 -0.0053  0.0020  0.0023 -0.0006
                                        -0.0233  0.0004  0.0178  0.0008  0.0037
                                        -0.0049  0.0054  0.0015 -0.0013  0.0041
                                        -0.0099
               ( 60.10%)  -0.7753* H 25 s( 99.94%)p 0.00(  0.04%)d 0.00(  0.01%)
                                        -0.9997  0.0008  0.0001  0.0194  0.0010
                                        -0.0082  0.0003  0.0006  0.0016  0.0070
                                         0.0003 -0.0002 -0.0064  0.0053
  70. (0.00264) RY ( 1) O  1            s(  0.03%)p99.99( 97.38%)d88.24(  2.58%)
                                                  f 0.48(  0.01%)
                                         0.0000 -0.0001  0.0169 -0.0027  0.0004
                                         0.0004  0.0744  0.0056  0.0007  0.0273
                                         0.0074 -0.0055  0.9821  0.0531  0.0260
                                         0.0063 -0.1176 -0.0001  0.0193  0.1030
                                        -0.0012 -0.0057 -0.0136  0.0026  0.0014
                                         0.0008  0.0012 -0.0028  0.0106  0.0038
                                         0.0006
  71. (0.00208) RY ( 2) O  1            s(  8.06%)p10.95( 88.21%)d 0.46(  3.70%)
                                                  f 0.00(  0.03%)
                                         0.0000 -0.0001  0.2808 -0.0419 -0.0005
                                        -0.0038  0.9225  0.0410  0.0034  0.1353
                                         0.0634  0.0010 -0.0832 -0.0088  0.1335
                                         0.0879  0.0018  0.0020  0.0020 -0.0118
                                        -0.0271 -0.0342 -0.0964  0.0106  0.0000
                                         0.0022  0.0093  0.0013 -0.0014  0.0142
                                         0.0017
  72. (0.00028) RY ( 3) O  1            s( 65.00%)p 0.09(  5.61%)d 0.42( 27.59%)
                                                  f 0.03(  1.79%)
                                         0.0000 -0.0009  0.7826  0.1937  0.0033
                                        -0.0248 -0.1587  0.0037  0.0033 -0.1252
                                         0.1180 -0.0019  0.0252  0.0057 -0.4851
                                         0.0436  0.1132 -0.0156 -0.0275  0.0166
                                         0.1055 -0.0363 -0.1102 -0.0024 -0.0010
                                        -0.0224 -0.0168 -0.0083 -0.0085 -0.1180
                                         0.0554
  73. (0.00014) RY ( 4) O  1            s( 21.50%)p 0.79( 16.97%)d 2.77( 59.59%)
                                                  f 0.09(  1.94%)
                                         0.0000 -0.0083  0.4380 -0.1515 -0.0116
                                         0.0283 -0.2678 -0.1682  0.0239  0.2548
                                         0.0562 -0.0014  0.0161  0.0030  0.6297
                                        -0.1399  0.2353 -0.0353 -0.0087  0.0076
                                        -0.3364  0.0598 -0.0743 -0.0283 -0.0017
                                         0.0521  0.0096  0.0016 -0.0324  0.1240
                                        -0.0128
  74. (0.00012) RY ( 5) O  1            s(  7.28%)p 2.95( 21.45%)d 9.59( 69.81%)
                                                  f 0.20(  1.47%)
                                         0.0000  0.0079 -0.1436  0.2282 -0.0042
                                         0.0068  0.1344 -0.0267 -0.0159 -0.4099
                                        -0.1303 -0.0086  0.1013 -0.0065  0.0897
                                        -0.0387  0.8132 -0.1011 -0.0830  0.0371
                                         0.0436  0.0246  0.0785 -0.0047 -0.0095
                                         0.0095 -0.0201 -0.0201 -0.1135 -0.0275
                                         0.0078
  75. (0.00007) RY ( 6) O  1            s( 14.43%)p 2.87( 41.42%)d 2.97( 42.81%)
                                                  f 0.09(  1.34%)
  76. (0.00005) RY ( 7) O  1            s(  4.28%)p 6.46( 27.67%)d14.82( 63.45%)
                                                  f 1.07(  4.60%)
  77. (0.00001) RY ( 8) O  1            s(  2.93%)p22.04( 64.57%)d10.65( 31.20%)
                                                  f 0.44(  1.30%)
  78. (0.00001) RY ( 9) O  1            s( 43.70%)p 0.56( 24.37%)d 0.68( 29.93%)
                                                  f 0.05(  2.00%)
  79. (0.00000) RY (10) O  1            s(  3.70%)p19.87( 73.55%)d 5.01( 18.54%)
                                                  f 1.14(  4.21%)
  80. (0.00000) RY (11) O  1            s( 16.92%)p 0.25(  4.18%)d 3.98( 67.42%)
                                                  f 0.68( 11.49%)
  81. (0.00000) RY (12) O  1            s(  5.69%)p 0.92(  5.26%)d 7.65( 43.55%)
                                                  f 7.99( 45.49%)
  82. (0.00000) RY (13) O  1            s( 16.95%)p 0.10(  1.64%)d 1.17( 19.83%)
                                                  f 3.63( 61.58%)
  83. (0.00000) RY (14) O  1            s(  5.15%)p 1.33(  6.86%)d 4.91( 25.29%)
                                                  f12.16( 62.70%)
  84. (0.00000) RY (15) O  1            s(  1.94%)p 9.42( 18.26%)d20.07( 38.92%)
                                                  f21.08( 40.88%)
  85. (0.00000) RY (16) O  1            s(  0.39%)p99.99( 61.31%)d62.21( 24.13%)
                                                  f36.54( 14.17%)
  86. (0.00000) RY (17) O  1            s(  1.53%)p 7.80( 11.97%)d48.10( 73.76%)
                                                  f 8.31( 12.74%)
  87. (0.00000) RY (18) O  1            s(  1.25%)p 8.27( 10.36%)d14.30( 17.90%)
                                                  f56.31( 70.49%)
  88. (0.00000) RY (19) O  1            s( 36.82%)p 0.01(  0.47%)d 0.87( 31.93%)
                                                  f 0.84( 30.79%)
  89. (0.00000) RY (20) O  1            s(  0.58%)p 7.50(  4.35%)d99.99( 74.17%)
                                                  f36.03( 20.90%)
  90. (0.00000) RY (21) O  1            s(  2.61%)p 1.34(  3.49%)d12.82( 33.51%)
                                                  f23.09( 60.38%)
  91. (0.00000) RY (22) O  1            s(  3.25%)p 1.38(  4.50%)d13.62( 44.26%)
                                                  f14.76( 47.99%)
  92. (0.00000) RY (23) O  1            s(  4.93%)p 0.67(  3.31%)d 7.10( 34.97%)
                                                  f11.52( 56.80%)
  93. (0.00000) RY (24) O  1            s(  2.09%)p 0.29(  0.60%)d23.27( 48.70%)
                                                  f23.22( 48.61%)
  94. (0.00000) RY (25) O  1            s(  3.46%)p 0.53(  1.84%)d10.25( 35.41%)
                                                  f17.16( 59.29%)
  95. (0.00000) RY (26) O  1            s( 25.62%)p 0.06(  1.51%)d 1.40( 35.88%)
                                                  f 1.44( 36.99%)
  96. (0.01723) RY ( 1) C  2            s(  9.04%)p10.02( 90.50%)d 0.03(  0.32%)
                                                  f 0.02(  0.14%)
                                         0.0000  0.0191  0.2995  0.0167 -0.0006
                                         0.0021  0.0205 -0.0388  0.0714  0.9459
                                         0.0552 -0.0010  0.0127 -0.0021 -0.0206
                                         0.0131 -0.0057  0.0055 -0.0069  0.0031
                                        -0.0210  0.0413 -0.0114  0.0131 -0.0005
                                        -0.0021  0.0264  0.0003 -0.0001 -0.0187
                                         0.0194
  97. (0.00620) RY ( 2) C  2            s(  6.08%)p14.09( 85.70%)d 1.31(  7.96%)
                                                  f 0.04(  0.26%)
                                         0.0000  0.0020  0.2418  0.0482  0.0050
                                        -0.0157 -0.9190 -0.0385 -0.0019 -0.0695
                                         0.0590 -0.0088  0.0478 -0.0049 -0.2325
                                        -0.1027  0.0315 -0.0158 -0.0930  0.0165
                                        -0.0283  0.0509  0.0336 -0.0183  0.0017
                                         0.0117  0.0378 -0.0078  0.0062  0.0276
                                        -0.0125
  98. (0.00542) RY ( 3) C  2            s(  0.16%)p99.99( 35.77%)d99.99( 63.79%)
                                                  f 1.79(  0.28%)
                                         0.0000  0.0001  0.0330  0.0211  0.0064
                                        -0.0043 -0.0794 -0.0585  0.0002 -0.0071
                                         0.0420  0.0642 -0.5501  0.1984 -0.0585
                                        -0.0113 -0.5339  0.1626  0.5629 -0.0748
                                         0.0126 -0.0017 -0.0132  0.0105 -0.0257
                                         0.0043  0.0058  0.0416 -0.0192  0.0020
                                        -0.0010
  99. (0.00228) RY ( 4) C  2            s(  8.10%)p 1.01(  8.17%)d10.25( 83.03%)
                                                  f 0.09(  0.70%)
                                         0.0000  0.0038  0.2375  0.1565  0.0061
                                         0.0219 -0.1730  0.1816  0.0069 -0.0568
                                        -0.1211  0.0028 -0.0183  0.0082  0.7969
                                         0.2607 -0.1354  0.0459 -0.0882  0.0239
                                        -0.2503 -0.0395 -0.1571  0.0985 -0.0123
                                        -0.0512  0.0075  0.0001  0.0082 -0.0639
                                         0.0028
 100. (0.00197) RY ( 5) C  2            s(  0.88%)p 7.65(  6.71%)d99.99( 91.76%)
                                                  f 0.75(  0.66%)
                                         0.0000  0.0009  0.0592  0.0723  0.0061
                                         0.0031 -0.0586  0.0185  0.0009 -0.0117
                                        -0.0007 -0.0135  0.1769 -0.1780  0.1034
                                         0.0398  0.5220 -0.1689  0.7643 -0.1224
                                        -0.0675  0.0091 -0.0195  0.0121  0.0489
                                        -0.0139  0.0068  0.0054 -0.0620 -0.0080
                                         0.0010
 101. (0.00078) RY ( 6) C  2            s( 54.44%)p 0.32( 17.63%)d 0.46( 24.82%)
                                                  f 0.06(  3.11%)
                                         0.0000 -0.0051  0.7174  0.1677 -0.0398
                                        -0.0231  0.2985 -0.1245  0.0030 -0.2394
                                        -0.0408  0.0036 -0.0997  0.0476 -0.2468
                                        -0.1158  0.0828 -0.0337 -0.0686 -0.0128
                                        -0.3393 -0.2097 -0.0426 -0.0124  0.0068
                                        -0.0324 -0.0015  0.0060  0.0092  0.1430
                                         0.0969
 102. (0.00056) RY ( 7) C  2            s(  4.15%)p13.51( 56.10%)d 9.36( 38.88%)
                                                  f 0.21(  0.87%)
                                         0.0000 -0.0020  0.1787 -0.0972 -0.0124
                                        -0.0035  0.0511 -0.0472  0.0046 -0.0620
                                        -0.0901 -0.0228  0.7035 -0.2208 -0.0528
                                        -0.0146 -0.5358  0.1597  0.2221  0.1252
                                         0.0840 -0.0253  0.0166 -0.0142 -0.0529
                                         0.0077 -0.0263 -0.0243 -0.0562  0.0370
                                         0.0014
 103. (0.00038) RY ( 8) C  2            s( 13.70%)p 0.36(  4.94%)d 5.73( 78.54%)
                                                  f 0.21(  2.82%)
                                         0.0000  0.0038  0.3469  0.1283 -0.0125
                                        -0.0082  0.0952 -0.1129  0.0288 -0.1444
                                         0.0217  0.0021 -0.0403  0.0610  0.0121
                                         0.2264  0.0676 -0.0034 -0.0323 -0.0126
                                         0.5836  0.6100 -0.0957  0.0794  0.0052
                                        -0.0909  0.0129  0.0046  0.0073 -0.1297
                                         0.0533
 104. (0.00011) RY ( 9) C  2            s( 32.87%)p 0.96( 31.65%)d 0.59( 19.35%)
                                                  f 0.49( 16.13%)
                                         0.0000  0.0053 -0.2259  0.5267 -0.0167
                                         0.0214 -0.0251 -0.4550 -0.0110  0.0298
                                         0.3138 -0.0032  0.0926 -0.0164  0.1042
                                        -0.1245 -0.0849 -0.1398 -0.0232  0.0202
                                         0.0803 -0.1313 -0.2452  0.2360 -0.0192
                                         0.0425 -0.0778 -0.0371 -0.0176  0.1973
                                         0.3353
 105. (0.00008) RY (10) C  2            s(  0.59%)p99.99( 78.80%)d22.04( 13.05%)
                                                  f12.77(  7.56%)
 106. (0.00005) RY (11) C  2            s(  2.20%)p 8.25( 18.13%)d30.80( 67.66%)
                                                  f 5.47( 12.02%)
 107. (0.00003) RY (12) C  2            s( 27.05%)p 0.31(  8.50%)d 1.27( 34.31%)
                                                  f 1.11( 30.14%)
 108. (0.00002) RY (13) C  2            s(  6.73%)p 6.69( 45.00%)d 2.32( 15.62%)
                                                  f 4.86( 32.66%)
 109. (0.00001) RY (14) C  2            s(  3.94%)p 4.75( 18.72%)d13.05( 51.44%)
                                                  f 6.57( 25.90%)
 110. (0.00001) RY (15) C  2            s( 20.84%)p 1.47( 30.67%)d 1.48( 30.95%)
                                                  f 0.84( 17.53%)
 111. (0.00000) RY (16) C  2            s( 15.16%)p 1.49( 22.58%)d 2.16( 32.76%)
                                                  f 1.94( 29.49%)
 112. (0.00000) RY (17) C  2            s( 15.40%)p 0.03(  0.48%)d 2.15( 33.08%)
                                                  f 3.32( 51.05%)
 113. (0.00000) RY (18) C  2            s( 28.20%)p 0.03(  0.96%)d 0.22(  6.29%)
                                                  f 2.29( 64.56%)
 114. (0.00000) RY (19) C  2            s( 21.01%)p 0.16(  3.31%)d 1.41( 29.65%)
                                                  f 2.19( 46.03%)
 115. (0.00000) RY (20) C  2            s(  1.61%)p 3.10(  5.00%)d39.94( 64.33%)
                                                  f18.05( 29.06%)
 116. (0.00000) RY (21) C  2            s(  0.74%)p 9.25(  6.81%)d91.14( 67.14%)
                                                  f34.35( 25.31%)
 117. (0.00000) RY (22) C  2            s(  1.87%)p 0.84(  1.57%)d19.63( 36.69%)
                                                  f32.02( 59.86%)
 118. (0.00000) RY (23) C  2            s(  8.93%)p 0.67(  5.94%)d 5.35( 47.78%)
                                                  f 4.18( 37.34%)
 119. (0.00000) RY (24) C  2            s(  7.44%)p 2.04( 15.19%)d 5.07( 37.69%)
                                                  f 5.33( 39.68%)
 120. (0.00000) RY (25) C  2            s(  1.06%)p 0.41(  0.44%)d 3.36(  3.58%)
                                                  f89.24( 94.92%)
 121. (0.00000) RY (26) C  2            s(  7.72%)p 0.17(  1.32%)d 2.48( 19.14%)
                                                  f 9.30( 71.82%)
 122. (0.00602) RY ( 1) C  3            s(  0.86%)p99.99( 92.61%)d 7.31(  6.27%)
                                                  f 0.31(  0.27%)
                                         0.0000 -0.0032  0.0920 -0.0052  0.0081
                                        -0.0086 -0.1261 -0.0164 -0.0046  0.0045
                                        -0.0250 -0.0570  0.9507 -0.0446 -0.0274
                                        -0.0040 -0.2351  0.0385 -0.0322 -0.0547
                                         0.0175  0.0261 -0.0115  0.0051 -0.0417
                                         0.0012  0.0014  0.0295  0.0067 -0.0027
                                         0.0006
 123. (0.00512) RY ( 2) C  3            s( 37.63%)p 1.41( 53.17%)d 0.24(  9.16%)
                                                  f 0.00(  0.04%)
                                         0.0000 -0.0174  0.6132  0.0046  0.0020
                                        -0.0568 -0.6517 -0.1573 -0.0269  0.1631
                                        -0.1633  0.0070 -0.1581  0.0063 -0.1778
                                        -0.0577  0.0325 -0.0029  0.0046  0.0043
                                         0.1038  0.2065 -0.0276  0.0366  0.0069
                                        -0.0070  0.0083 -0.0049 -0.0005 -0.0142
                                        -0.0011
 124. (0.00296) RY ( 3) C  3            s(  1.73%)p54.58( 94.45%)d 1.54(  2.67%)
                                                  f 0.67(  1.16%)
                                         0.0000 -0.0177  0.1296  0.0081  0.0107
                                        -0.0307 -0.0704 -0.0861 -0.0264 -0.9212
                                        -0.2853  0.0004 -0.0199 -0.0024  0.0455
                                         0.0319  0.0057 -0.0014  0.0102 -0.0047
                                        -0.0580 -0.1286 -0.0556  0.0206 -0.0005
                                        -0.0354 -0.0151 -0.0013 -0.0019  0.0985
                                         0.0196
 125. (0.00097) RY ( 4) C  3            s( 43.94%)p 1.19( 52.27%)d 0.03(  1.31%)
                                                  f 0.06(  2.48%)
                                         0.0000  0.0012  0.6473 -0.1429 -0.0029
                                         0.0118  0.6539  0.2043 -0.0049  0.0893
                                        -0.2107  0.0001  0.0270  0.0099 -0.0271
                                         0.0652  0.0331 -0.0053  0.0135 -0.0121
                                         0.0164  0.0660 -0.0452 -0.0003 -0.0027
                                        -0.0508  0.0071 -0.0062 -0.0113  0.1013
                                        -0.1083
 126. (0.00029) RY ( 5) C  3            s( 12.55%)p 1.47( 18.43%)d 4.86( 61.01%)
                                                  f 0.64(  8.01%)
                                         0.0000  0.0131  0.2493  0.2483 -0.0398
                                        -0.0286 -0.0668  0.0797  0.0070 -0.0544
                                         0.4118 -0.0004 -0.0070  0.0031  0.5199
                                        -0.3074 -0.0494 -0.0631  0.0722 -0.0517
                                        -0.4694  0.0431 -0.0415  0.0840  0.0144
                                        -0.0026 -0.0048 -0.0350  0.0123 -0.0003
                                        -0.2802
 127. (0.00023) RY ( 6) C  3            s(  7.44%)p 8.18( 60.83%)d 3.92( 29.16%)
                                                  f 0.35(  2.58%)
                                         0.0000  0.0024  0.0988  0.2541 -0.0044
                                        -0.0055  0.1866 -0.7308 -0.0022  0.0188
                                         0.1825 -0.0021  0.0744  0.0131  0.1855
                                         0.2892  0.2814  0.0963  0.0727 -0.0706
                                         0.2570 -0.0387 -0.0451  0.0723 -0.0384
                                        -0.0117  0.0220 -0.0107 -0.0957 -0.0661
                                        -0.1005
 128. (0.00021) RY ( 7) C  3            s(  0.85%)p10.10(  8.58%)d93.99( 79.81%)
                                                  f12.67( 10.76%)
                                         0.0000 -0.0006  0.0309  0.0861 -0.0109
                                        -0.0003  0.0772 -0.2111 -0.0014  0.0176
                                         0.0191  0.0039 -0.1490 -0.1112  0.0309
                                         0.1649 -0.7211 -0.4767  0.0172  0.0370
                                         0.1367 -0.0260 -0.0404  0.0088  0.1477
                                        -0.0151  0.0125 -0.1211  0.2645  0.0056
                                        -0.0278
 129. (0.00015) RY ( 8) C  3            s(  0.33%)p17.03(  5.61%)d99.99( 79.00%)
                                                  f45.68( 15.06%)
                                         0.0000  0.0003 -0.0288  0.0497 -0.0007
                                         0.0009 -0.0390  0.1561  0.0006  0.0102
                                        -0.1001 -0.0060  0.0785 -0.1181  0.0289
                                        -0.0668  0.2526 -0.3817  0.5884 -0.4482
                                         0.1337 -0.0488  0.0606 -0.0641  0.0685
                                         0.0314  0.0272 -0.3502 -0.0599 -0.0808
                                         0.1069
 130. (0.00013) RY ( 9) C  3            s(  1.30%)p16.28( 21.14%)d53.72( 69.76%)
                                                  f 6.01(  7.80%)
                                         0.0000  0.0047  0.0164  0.1053  0.0400
                                        -0.0168 -0.1107  0.2495  0.0095  0.1099
                                        -0.3490  0.0012 -0.0200  0.0472  0.6229
                                        -0.0088 -0.0458  0.1030 -0.1160  0.0912
                                         0.4384 -0.2866 -0.0254 -0.0117 -0.0159
                                         0.0849  0.1196  0.0798  0.0007 -0.2226
                                        -0.0193
 131. (0.00004) RY (10) C  3            s(  6.18%)p 7.95( 49.13%)d 4.02( 24.82%)
                                                  f 3.22( 19.87%)
 132. (0.00004) RY (11) C  3            s(  1.09%)p 8.70(  9.49%)d56.64( 61.73%)
                                                  f25.41( 27.69%)
 133. (0.00001) RY (12) C  3            s( 21.63%)p 0.28(  5.98%)d 2.98( 64.50%)
                                                  f 0.36(  7.88%)
 134. (0.00001) RY (13) C  3            s(  2.86%)p 5.60( 16.00%)d20.48( 58.56%)
                                                  f 7.90( 22.58%)
 135. (0.00001) RY (14) C  3            s(  0.86%)p17.18( 14.71%)d81.35( 69.69%)
                                                  f17.20( 14.74%)
 136. (0.00001) RY (15) C  3            s( 41.89%)p 0.24( 10.01%)d 0.98( 41.25%)
                                                  f 0.16(  6.85%)
 137. (0.00000) RY (16) C  3            s( 12.56%)p 2.14( 26.82%)d 1.93( 24.28%)
                                                  f 2.89( 36.35%)
 138. (0.00000) RY (17) C  3            s(  1.31%)p 1.61(  2.10%)d58.85( 77.10%)
                                                  f14.87( 19.49%)
 139. (0.00000) RY (18) C  3            s(  3.12%)p 0.48(  1.48%)d 4.24( 13.22%)
                                                  f26.35( 82.18%)
 140. (0.00000) RY (19) C  3            s(  5.16%)p 0.03(  0.15%)d 1.77(  9.14%)
                                                  f16.58( 85.55%)
 141. (0.00000) RY (20) C  3            s( 30.49%)p 0.01(  0.30%)d 1.39( 42.38%)
                                                  f 0.88( 26.83%)
 142. (0.00000) RY (21) C  3            s(  2.40%)p 1.31(  3.15%)d 9.89( 23.73%)
                                                  f29.49( 70.72%)
 143. (0.00000) RY (22) C  3            s( 21.55%)p 0.03(  0.71%)d 0.98( 21.07%)
                                                  f 2.63( 56.68%)
 144. (0.00000) RY (23) C  3            s( 21.10%)p 0.82( 17.28%)d 1.17( 24.66%)
                                                  f 1.75( 36.96%)
 145. (0.00000) RY (24) C  3            s( 13.48%)p 0.55(  7.46%)d 5.13( 69.21%)
                                                  f 0.73(  9.84%)
 146. (0.00000) RY (25) C  3            s(  6.40%)p 4.41( 28.24%)d 2.71( 17.33%)
                                                  f 7.51( 48.04%)
 147. (0.00000) RY (26) C  3            s(  1.23%)p 0.34(  0.42%)d15.34( 18.90%)
                                                  f64.49( 79.44%)
 148. (0.00731) RY ( 1) N  4            s(  7.62%)p11.68( 88.98%)d 0.43(  3.31%)
                                                  f 0.01(  0.09%)
                                         0.0000  0.0088  0.2677 -0.0667 -0.0023
                                         0.0112  0.0289 -0.0095  0.0403 -0.9413
                                         0.0274  0.0002 -0.0170  0.0022  0.0176
                                        -0.0012 -0.0011  0.0014  0.0018 -0.0011
                                        -0.0693  0.1442 -0.0844  0.0076  0.0004
                                        -0.0003  0.0197  0.0001 -0.0001 -0.0056
                                        -0.0227
 149. (0.00226) RY ( 2) N  4            s(  6.41%)p14.23( 91.21%)d 0.36(  2.28%)
                                                  f 0.02(  0.10%)
                                         0.0000 -0.0049  0.2529 -0.0104 -0.0006
                                        -0.0225 -0.9368  0.1111  0.0128  0.0457
                                        -0.0144  0.0016 -0.1376 -0.0165 -0.0361
                                         0.1199 -0.0474 -0.0278  0.0108 -0.0049
                                         0.0273 -0.0131 -0.0554 -0.0015  0.0063
                                         0.0035  0.0016 -0.0011  0.0065 -0.0281
                                        -0.0103
 150. (0.00123) RY ( 3) N  4            s(  2.00%)p21.11( 42.21%)d27.66( 55.31%)
                                                  f 0.24(  0.48%)
                                         0.0000 -0.0029  0.1398  0.0212  0.0027
                                         0.0072  0.1686 -0.0339  0.0034  0.0509
                                        -0.0170  0.0153 -0.6113 -0.1251  0.0427
                                        -0.0358 -0.6163 -0.3806  0.1406 -0.0614
                                         0.0341 -0.0192 -0.0133 -0.0093  0.0294
                                         0.0007 -0.0075 -0.0051  0.0607  0.0118
                                         0.0058
 151. (0.00070) RY ( 4) N  4            s( 79.65%)p 0.18( 14.37%)d 0.07(  5.72%)
                                                  f 0.00(  0.27%)
                                         0.0000 -0.0142  0.8880 -0.0869  0.0126
                                         0.0044  0.2376 -0.0397  0.0323  0.2554
                                        -0.1273 -0.0032  0.0549  0.0105 -0.0921
                                        -0.0221  0.1585  0.1004 -0.0373  0.0122
                                        -0.0086 -0.0830 -0.0663 -0.0112 -0.0025
                                         0.0067 -0.0229  0.0003 -0.0163 -0.0252
                                        -0.0343
 152. (0.00032) RY ( 5) N  4            s(  0.73%)p79.72( 57.88%)d56.75( 41.20%)
                                                  f 0.27(  0.20%)
                                         0.0000 -0.0017  0.0848  0.0079  0.0027
                                        -0.0074 -0.0373  0.0067  0.0033  0.0089
                                        -0.0244  0.0240  0.7589  0.0024 -0.0911
                                         0.0575 -0.5527 -0.2971  0.0779  0.0128
                                         0.0120  0.0138 -0.0092 -0.0077 -0.0351
                                         0.0128 -0.0024 -0.0060  0.0091 -0.0107
                                        -0.0184
 153. (0.00018) RY ( 6) N  4            s(  2.20%)p 1.75(  3.85%)d39.80( 87.62%)
                                                  f 2.87(  6.32%)
                                         0.0000 -0.0070  0.0797  0.1217 -0.0284
                                         0.0370 -0.0206 -0.1192 -0.0263 -0.1151
                                        -0.0618  0.0012  0.0679  0.0138  0.5204
                                         0.0447  0.0059  0.0221 -0.0108  0.0149
                                         0.6220 -0.3918  0.2472 -0.0322 -0.0108
                                         0.0318 -0.0682  0.0031 -0.0065  0.0482
                                         0.2346
 154. (0.00014) RY ( 7) N  4            s(  0.44%)p13.30(  5.91%)d99.99( 84.36%)
                                                  f20.89(  9.29%)
                                         0.0000 -0.0129 -0.0232  0.0608 -0.0066
                                        -0.0274  0.1142 -0.0482 -0.0070 -0.0392
                                         0.1837 -0.0018 -0.0799  0.0359 -0.5062
                                         0.6736  0.0288  0.0121  0.0024 -0.0040
                                         0.3619  0.0158  0.0386  0.0004  0.0040
                                         0.0240  0.0024 -0.0008  0.0131 -0.2894
                                         0.0911
 155. (0.00006) RY ( 8) N  4            s(  1.26%)p16.37( 20.64%)d49.48( 62.38%)
                                                  f12.47( 15.72%)
 156. (0.00003) RY ( 9) N  4            s( 14.45%)p 0.22(  3.22%)d 5.61( 81.10%)
                                                  f 0.09(  1.23%)
 157. (0.00002) RY (10) N  4            s(  3.64%)p 1.57(  5.72%)d24.06( 87.53%)
                                                  f 0.86(  3.11%)
 158. (0.00001) RY (11) N  4            s( 62.54%)p 0.22( 13.83%)d 0.24( 14.98%)
                                                  f 0.14(  8.65%)
 159. (0.00001) RY (12) N  4            s(  3.58%)p17.17( 61.48%)d 8.42( 30.16%)
                                                  f 1.34(  4.78%)
 160. (0.00001) RY (13) N  4            s(  2.38%)p13.95( 33.21%)d25.66( 61.08%)
                                                  f 1.40(  3.33%)
 161. (0.00000) RY (14) N  4            s(  3.45%)p17.13( 59.10%)d 9.05( 31.24%)
                                                  f 1.80(  6.21%)
 162. (0.00000) RY (15) N  4            s( 52.11%)p 0.01(  0.72%)d 0.48( 24.84%)
                                                  f 0.43( 22.32%)
 163. (0.00000) RY (16) N  4            s(  0.83%)p 0.86(  0.71%)d46.79( 38.65%)
                                                  f72.42( 59.81%)
 164. (0.00000) RY (17) N  4            s(  0.68%)p 4.10(  2.78%)d56.52( 38.40%)
                                                  f85.56( 58.14%)
 165. (0.00000) RY (18) N  4            s( 11.57%)p 0.07(  0.77%)d 0.66(  7.61%)
                                                  f 6.92( 80.05%)
 166. (0.00000) RY (19) N  4            s(  8.96%)p 0.24(  2.19%)d 1.49( 13.34%)
                                                  f 8.43( 75.52%)
 167. (0.00000) RY (20) N  4            s(  1.84%)p 0.99(  1.83%)d27.38( 50.49%)
                                                  f24.85( 45.83%)
 168. (0.00000) RY (21) N  4            s( 16.88%)p 0.22(  3.78%)d 1.60( 26.94%)
                                                  f 3.10( 52.40%)
 169. (0.00000) RY (22) N  4            s(  8.61%)p 0.53(  4.60%)d 6.27( 53.97%)
                                                  f 3.81( 32.81%)
 170. (0.00000) RY (23) N  4            s(  0.10%)p12.18(  1.24%)d99.99( 19.66%)
                                                  f99.99( 78.99%)
 171. (0.00000) RY (24) N  4            s(  1.58%)p 3.59(  5.69%)d20.01( 31.68%)
                                                  f38.55( 61.04%)
 172. (0.00000) RY (25) N  4            s(  3.14%)p 3.43( 10.76%)d 6.23( 19.55%)
                                                  f21.19( 66.55%)
 173. (0.00000) RY (26) N  4            s(  3.47%)p18.63( 64.58%)d 7.29( 25.28%)
                                                  f 1.93(  6.67%)
 174. (0.00847) RY ( 1) C  5            s( 60.92%)p 0.51( 31.33%)d 0.13(  7.69%)
                                                  f 0.00(  0.06%)
                                         0.0000 -0.0195  0.7792  0.0395  0.0055
                                         0.0495  0.5226  0.0590 -0.0476  0.0773
                                        -0.0994  0.0096 -0.1249  0.0197  0.1429
                                         0.0065  0.0126  0.0055 -0.0008  0.0095
                                         0.1554  0.1776  0.0016  0.0220  0.0031
                                         0.0134  0.0027  0.0049 -0.0033  0.0191
                                        -0.0007
 175. (0.00388) RY ( 2) C  5            s(  0.84%)p99.99( 96.17%)d 3.33(  2.80%)
                                                  f 0.21(  0.18%)
                                         0.0000  0.0030  0.0882  0.0251 -0.0034
                                        -0.0010 -0.2740 -0.0153  0.0027 -0.1789
                                        -0.0028  0.0288 -0.9166  0.1157 -0.0699
                                         0.0075 -0.0456  0.0532  0.0275  0.0883
                                        -0.0470 -0.0713 -0.0358  0.0328  0.0346
                                        -0.0054  0.0038  0.0174  0.0034 -0.0140
                                        -0.0045
 176. (0.00329) RY ( 3) C  5            s(  3.18%)p28.57( 90.95%)d 1.64(  5.22%)
                                                  f 0.20(  0.65%)
                                         0.0000 -0.0232  0.1405 -0.1067  0.0128
                                         0.0286 -0.0011  0.1743 -0.0098 -0.8905
                                        -0.2106 -0.0028  0.1983 -0.0399 -0.0041
                                        -0.0286  0.0363 -0.0102 -0.0203  0.0148
                                        -0.0534 -0.1993 -0.0753  0.0321 -0.0005
                                         0.0404 -0.0089 -0.0072 -0.0121 -0.0606
                                         0.0304
 177. (0.00083) RY ( 4) C  5            s( 17.85%)p 2.41( 43.12%)d 2.05( 36.66%)
                                                  f 0.13(  2.37%)
                                         0.0000  0.0089  0.4022  0.1288  0.0079
                                        -0.0092 -0.5922  0.0067 -0.0020  0.1172
                                         0.0439  0.0115  0.1682 -0.1905 -0.0558
                                        -0.0227  0.5483  0.1156 -0.1232  0.1133
                                         0.0424  0.0065 -0.0803  0.1127  0.0129
                                        -0.0426  0.0006  0.0225 -0.1442  0.0140
                                        -0.0139
 178. (0.00033) RY ( 5) C  5            s( 22.13%)p 0.67( 14.76%)d 2.34( 51.88%)
                                                  f 0.51( 11.23%)
                                         0.0000 -0.0054 -0.1603  0.4419  0.0180
                                        -0.0086  0.2934 -0.1064  0.0076 -0.0923
                                         0.1992  0.0073 -0.0276 -0.0332  0.2260
                                         0.4048  0.1496  0.0807 -0.1464  0.3188
                                        -0.1637 -0.1997 -0.2218  0.1897  0.0657
                                        -0.2071 -0.0533 -0.0115 -0.1079  0.2209
                                         0.0405
 179. (0.00017) RY ( 6) C  5            s(  3.22%)p 5.21( 16.77%)d20.22( 65.15%)
                                                  f 4.61( 14.86%)
                                         0.0000  0.0134  0.1447 -0.0489 -0.0933
                                         0.0259  0.2040 -0.2296  0.0037  0.0074
                                         0.2235  0.0037 -0.0290 -0.1479 -0.4074
                                         0.1890  0.2185 -0.0521  0.0530 -0.1753
                                        -0.4223 -0.3211  0.1899 -0.2197 -0.0741
                                         0.1436  0.1685  0.0356  0.0311 -0.1233
                                        -0.2769
 180. (0.00011) RY ( 7) C  5            s( 25.49%)p 1.07( 27.17%)d 1.52( 38.67%)
                                                  f 0.34(  8.67%)
                                         0.0000  0.0020  0.1819  0.4704 -0.0230
                                         0.0114 -0.1574 -0.2248 -0.0001 -0.1632
                                         0.2457 -0.0049  0.1702  0.2833 -0.3005
                                        -0.0871 -0.3755 -0.1233 -0.0661  0.0239
                                        -0.1097  0.3193 -0.0835  0.0817 -0.1081
                                        -0.0834 -0.0867  0.0809  0.1173 -0.1786
                                        -0.0913
 181. (0.00009) RY ( 8) C  5            s(  3.73%)p 6.27( 23.38%)d17.91( 66.74%)
                                                  f 1.65(  6.15%)
 182. (0.00006) RY ( 9) C  5            s(  7.06%)p 2.65( 18.71%)d 9.93( 70.10%)
                                                  f 0.59(  4.13%)
 183. (0.00005) RY (10) C  5            s(  3.56%)p 3.96( 14.10%)d15.44( 54.97%)
                                                  f 7.69( 27.37%)
 184. (0.00004) RY (11) C  5            s(  7.92%)p 1.58( 12.51%)d 6.84( 54.14%)
                                                  f 3.21( 25.44%)
 185. (0.00002) RY (12) C  5            s(  4.11%)p 2.81( 11.53%)d17.32( 71.17%)
                                                  f 3.21( 13.19%)
 186. (0.00001) RY (13) C  5            s(  3.78%)p 2.76( 10.45%)d18.50( 69.95%)
                                                  f 4.19( 15.83%)
 187. (0.00001) RY (14) C  5            s(  5.02%)p 6.59( 33.09%)d 9.94( 49.94%)
                                                  f 2.38( 11.94%)
 188. (0.00000) RY (15) C  5            s(  2.70%)p20.56( 55.47%)d 7.62( 20.56%)
                                                  f 7.88( 21.27%)
 189. (0.00000) RY (16) C  5            s(  0.92%)p 0.47(  0.44%)d22.20( 20.51%)
                                                  f84.56( 78.13%)
 190. (0.00000) RY (17) C  5            s(  3.99%)p 0.47(  1.88%)d 5.35( 21.34%)
                                                  f18.26( 72.80%)
 191. (0.00000) RY (18) C  5            s( 38.27%)p 0.08(  3.21%)d 0.64( 24.37%)
                                                  f 0.89( 34.14%)
 192. (0.00000) RY (19) C  5            s(  3.95%)p 2.35(  9.27%)d 6.70( 26.48%)
                                                  f15.25( 60.30%)
 193. (0.00000) RY (20) C  5            s( 50.36%)p 0.05(  2.69%)d 0.23( 11.73%)
                                                  f 0.70( 35.22%)
 194. (0.00000) RY (21) C  5            s(  1.73%)p 4.30(  7.43%)d 8.31( 14.37%)
                                                  f44.25( 76.48%)
 195. (0.00000) RY (22) C  5            s(  5.16%)p 2.95( 15.25%)d 5.70( 29.43%)
                                                  f 9.72( 50.16%)
 196. (0.00000) RY (23) C  5            s(  7.75%)p 0.34(  2.61%)d 4.84( 37.55%)
                                                  f 6.72( 52.09%)
 197. (0.00000) RY (24) C  5            s(  9.42%)p 4.11( 38.67%)d 4.07( 38.30%)
                                                  f 1.45( 13.61%)
 198. (0.00000) RY (25) C  5            s(  6.58%)p 2.87( 18.88%)d 6.68( 43.96%)
                                                  f 4.65( 30.58%)
 199. (0.00000) RY (26) C  5            s(  0.20%)p 3.95(  0.77%)d99.99( 66.02%)
                                                  f99.99( 33.02%)
 200. (0.00288) RY ( 1) C  6            s(  5.30%)p16.34( 86.54%)d 1.43(  7.59%)
                                                  f 0.11(  0.57%)
                                         0.0000  0.0000  0.2260  0.0418 -0.0111
                                         0.0152 -0.7092 -0.0325 -0.0037  0.3504
                                         0.0051 -0.0323  0.4756  0.1051  0.0109
                                         0.0788  0.1683  0.0522 -0.0278 -0.0518
                                        -0.0051 -0.0753 -0.1152 -0.1268 -0.0038
                                         0.0095 -0.0136 -0.0304  0.0264 -0.0141
                                         0.0601
 201. (0.00183) RY ( 2) C  6            s(  4.21%)p18.03( 75.92%)d 4.62( 19.45%)
                                                  f 0.10(  0.43%)
                                         0.0000  0.0001  0.2030 -0.0296  0.0050
                                         0.0089  0.5366 -0.0098 -0.0050  0.0327
                                         0.0673 -0.0078  0.6822  0.0071  0.0804
                                        -0.2604  0.0211 -0.1092 -0.0114 -0.2653
                                        -0.0637  0.1152  0.0201 -0.1399 -0.0002
                                         0.0108  0.0287 -0.0321  0.0153  0.0356
                                        -0.0281
 202. (0.00127) RY ( 3) C  6            s( 14.45%)p 4.56( 65.91%)d 1.31( 18.99%)
                                                  f 0.05(  0.66%)
                                         0.0000  0.0008  0.3771  0.0467  0.0115
                                         0.0015 -0.1563 -0.0770 -0.0107 -0.7824
                                         0.0679 -0.0180  0.0686  0.0822  0.0577
                                        -0.0464  0.2013  0.2101 -0.0589  0.1729
                                        -0.0424  0.2376 -0.0902  0.0036 -0.0008
                                        -0.0083 -0.0331 -0.0574  0.0341  0.0075
                                         0.0300
 203. (0.00070) RY ( 4) C  6            s( 11.01%)p 3.36( 36.96%)d 4.59( 50.55%)
                                                  f 0.14(  1.49%)
                                         0.0000  0.0006  0.3283 -0.0295  0.0379
                                        -0.0027  0.0586 -0.2513  0.0042  0.3746
                                        -0.2157 -0.0145 -0.3350  0.0607  0.1108
                                        -0.4225  0.2237  0.0998 -0.0239  0.2541
                                        -0.1673  0.2795  0.1724 -0.2317  0.0550
                                         0.0218  0.0289 -0.0012  0.0507  0.0010
                                        -0.0892
 204. (0.00048) RY ( 5) C  6            s( 12.66%)p 0.87( 11.05%)d 5.90( 74.69%)
                                                  f 0.13(  1.61%)
                                         0.0000  0.0013  0.3546  0.0232  0.0162
                                        -0.0022  0.0334 -0.1389 -0.0078 -0.0399
                                        -0.0076 -0.0137 -0.2953  0.0305 -0.1016
                                         0.0018  0.3424 -0.0715  0.2662 -0.6262
                                        -0.0446 -0.3487 -0.0326  0.1629 -0.0593
                                        -0.0006  0.0978 -0.0090  0.0510  0.0025
                                         0.0181
 205. (0.00030) RY ( 6) C  6            s( 12.37%)p 2.14( 26.54%)d 4.73( 58.58%)
                                                  f 0.20(  2.51%)
                                         0.0000  0.0008  0.3233 -0.1384  0.0090
                                         0.0074  0.2706 -0.2966  0.0025  0.1738
                                        -0.2381 -0.0080  0.1014 -0.0831 -0.0637
                                         0.6340 -0.0242  0.2387 -0.1229  0.1815
                                         0.0727  0.0163 -0.0198  0.2612 -0.0391
                                        -0.0636  0.0350 -0.0426 -0.0062  0.1231
                                        -0.0358
 206. (0.00014) RY ( 7) C  6            s(  4.55%)p11.30( 51.38%)d 4.04( 18.39%)
                                                  f 5.64( 25.68%)
                                         0.0000 -0.0072 -0.1440  0.0389  0.1523
                                         0.0047  0.0026 -0.4204  0.0000  0.0255
                                         0.5776  0.0036  0.0079  0.0526  0.3130
                                         0.0815  0.0897 -0.0340  0.0285  0.1217
                                        -0.1383 -0.1856 -0.0079  0.0289 -0.0078
                                         0.1310 -0.0515  0.0022 -0.0155  0.1678
                                        -0.4567
 207. (0.00010) RY ( 8) C  6            s( 15.59%)p 1.46( 22.74%)d 2.54( 39.64%)
                                                  f 1.41( 22.03%)
 208. (0.00008) RY ( 9) C  6            s(  6.93%)p 1.16(  8.06%)d10.59( 73.43%)
                                                  f 1.67( 11.58%)
 209. (0.00006) RY (10) C  6            s( 18.34%)p 1.71( 31.31%)d 1.76( 32.33%)
                                                  f 0.98( 18.02%)
 210. (0.00004) RY (11) C  6            s( 10.82%)p 4.51( 48.82%)d 2.91( 31.44%)
                                                  f 0.82(  8.93%)
 211. (0.00001) RY (12) C  6            s(  6.67%)p 3.17( 21.14%)d10.36( 69.10%)
                                                  f 0.46(  3.08%)
 212. (0.00000) RY (13) C  6            s( 41.39%)p 0.85( 35.07%)d 0.40( 16.75%)
                                                  f 0.16(  6.80%)
 213. (0.00000) RY (14) C  6            s(  8.96%)p 0.46(  4.09%)d 5.22( 46.74%)
                                                  f 4.49( 40.21%)
 214. (0.00000) RY (15) C  6            s( 16.36%)p 1.48( 24.13%)d 3.03( 49.56%)
                                                  f 0.61(  9.96%)
 215. (0.00000) RY (16) C  6            s(  0.50%)p 0.70(  0.35%)d44.65( 22.45%)
                                                  f99.99( 76.69%)
 216. (0.00000) RY (17) C  6            s(  0.34%)p 3.16(  1.07%)d85.93( 29.09%)
                                                  f99.99( 69.51%)
 217. (0.00000) RY (18) C  6            s(  5.39%)p 0.12(  0.66%)d 7.79( 42.04%)
                                                  f 9.62( 51.90%)
 218. (0.00000) RY (19) C  6            s(  3.24%)p 0.57(  1.83%)d11.13( 36.01%)
                                                  f18.20( 58.92%)
 219. (0.00000) RY (20) C  6            s( 12.87%)p 0.45(  5.83%)d 2.45( 31.47%)
                                                  f 3.87( 49.84%)
 220. (0.00000) RY (21) C  6            s( 15.93%)p 0.08(  1.20%)d 3.90( 62.19%)
                                                  f 1.30( 20.68%)
 221. (0.00000) RY (22) C  6            s(  5.24%)p 0.87(  4.57%)d12.98( 68.02%)
                                                  f 4.23( 22.17%)
 222. (0.00000) RY (23) C  6            s( 16.72%)p 0.27(  4.47%)d 0.41(  6.91%)
                                                  f 4.30( 71.89%)
 223. (0.00000) RY (24) C  6            s( 33.19%)p 0.22(  7.15%)d 0.65( 21.66%)
                                                  f 1.14( 38.00%)
 224. (0.00000) RY (25) C  6            s(  8.94%)p 1.80( 16.08%)d 3.67( 32.83%)
                                                  f 4.72( 42.16%)
 225. (0.00000) RY (26) C  6            s(  7.98%)p 0.94(  7.49%)d 5.00( 39.89%)
                                                  f 5.59( 44.63%)
 226. (0.00224) RY ( 1) C  7            s(  6.42%)p14.11( 90.60%)d 0.45(  2.89%)
                                                  f 0.01(  0.09%)
                                         0.0000 -0.0007  0.2530 -0.0144  0.0017
                                        -0.0067  0.8607  0.0165 -0.0002  0.4000
                                        -0.0014  0.0014  0.0688  0.0010  0.0816
                                         0.1283  0.0379 -0.0107  0.0088 -0.0013
                                        -0.0435 -0.0139  0.0193 -0.0414  0.0034
                                        -0.0192 -0.0067  0.0050  0.0028 -0.0069
                                        -0.0199
 227. (0.00138) RY ( 2) C  7            s( 16.89%)p 4.29( 72.46%)d 0.61( 10.28%)
                                                  f 0.02(  0.37%)
                                         0.0000  0.0024  0.4109 -0.0082 -0.0020
                                         0.0025 -0.2594 -0.0244  0.0073  0.4352
                                        -0.0155  0.0184 -0.6827 -0.0267 -0.0895
                                        -0.0356  0.1533  0.0407 -0.1577 -0.1954
                                         0.0067 -0.0168 -0.0697 -0.0113  0.0274
                                        -0.0227 -0.0139  0.0388 -0.0198  0.0023
                                        -0.0171
 228. (0.00028) RY ( 3) C  7            s(  9.02%)p 6.92( 62.40%)d 2.69( 24.24%)
                                                  f 0.48(  4.34%)
                                         0.0000  0.0019  0.2977  0.0397  0.0002
                                         0.0064 -0.2991 -0.0888  0.0139  0.3786
                                        -0.0820  0.0129  0.6134 -0.0002 -0.1986
                                        -0.0925  0.3814 -0.1745  0.1204 -0.0044
                                        -0.0462 -0.0018  0.0413  0.0101 -0.0205
                                        -0.0381  0.0663 -0.0659 -0.1764 -0.0111
                                         0.0400
 229. (0.00022) RY ( 4) C  7            s(  0.51%)p13.66(  6.95%)d99.99( 85.56%)
                                                  f13.73(  6.98%)
                                         0.0000 -0.0060  0.0254  0.0652 -0.0122
                                        -0.0250  0.0319  0.1045  0.0025 -0.2261
                                         0.0678  0.0174  0.0280  0.0107  0.0937
                                         0.3778  0.3363 -0.0468  0.1647 -0.3231
                                         0.1436 -0.1692 -0.6327  0.0879  0.0962
                                        -0.0611  0.1288  0.1226 -0.0437 -0.1526
                                        -0.0052
 230. (0.00015) RY ( 5) C  7            s( 34.35%)p 0.75( 25.75%)d 0.85( 29.05%)
                                                  f 0.32( 10.86%)
                                         0.0000  0.0041  0.5851 -0.0222 -0.0248
                                        -0.0017  0.0589 -0.2697 -0.0150 -0.4153
                                         0.0123 -0.0020  0.0491  0.0775 -0.1575
                                         0.0637 -0.1020  0.0864 -0.1393  0.1738
                                         0.4277  0.0392 -0.0068  0.0978 -0.1374
                                         0.0403 -0.0860 -0.1686 -0.0898  0.0092
                                        -0.2100
 231. (0.00007) RY ( 6) C  7            s(  7.18%)p 2.25( 16.14%)d 8.67( 62.21%)
                                                  f 2.02( 14.47%)
 232. (0.00005) RY ( 7) C  7            s(  9.90%)p 3.24( 32.10%)d 4.16( 41.21%)
                                                  f 1.69( 16.79%)
 233. (0.00004) RY ( 8) C  7            s(  8.90%)p 2.54( 22.62%)d 5.71( 50.78%)
                                                  f 1.99( 17.70%)
 234. (0.00002) RY ( 9) C  7            s(  7.82%)p 1.90( 14.86%)d 8.54( 66.80%)
                                                  f 1.34( 10.51%)
 235. (0.00001) RY (10) C  7            s(  8.76%)p 5.43( 47.57%)d 4.45( 38.96%)
                                                  f 0.54(  4.71%)
 236. (0.00000) RY (11) C  7            s( 28.90%)p 0.63( 18.09%)d 1.00( 28.91%)
                                                  f 0.83( 24.10%)
 237. (0.00000) RY (12) C  7            s(  8.49%)p 4.25( 36.06%)d 4.40( 37.37%)
                                                  f 2.13( 18.08%)
 238. (0.00000) RY (13) C  7            s( 34.99%)p 0.34( 11.75%)d 1.11( 38.82%)
                                                  f 0.41( 14.44%)
 239. (0.00000) RY (14) C  7            s( 13.52%)p 1.31( 17.67%)d 2.02( 27.32%)
                                                  f 3.07( 41.48%)
 240. (0.00000) RY (15) C  7            s(  8.66%)p 3.41( 29.55%)d 5.49( 47.55%)
                                                  f 1.64( 14.23%)
 241. (0.00000) RY (16) C  7            s(  2.76%)p10.68( 29.51%)d10.98( 30.34%)
                                                  f13.53( 37.39%)
 242. (0.00000) RY (17) C  7            s(  0.89%)p 1.94(  1.72%)d26.68( 23.75%)
                                                  f82.69( 73.63%)
 243. (0.00000) RY (18) C  7            s( 20.01%)p 0.02(  0.40%)d 1.47( 29.41%)
                                                  f 2.51( 50.17%)
 244. (0.00000) RY (19) C  7            s(  0.78%)p 4.85(  3.78%)d85.38( 66.54%)
                                                  f37.09( 28.91%)
 245. (0.00000) RY (20) C  7            s(  0.71%)p 1.08(  0.76%)d30.09( 21.26%)
                                                  f99.99( 77.27%)
 246. (0.00000) RY (21) C  7            s(  5.61%)p 1.10(  6.17%)d10.60( 59.50%)
                                                  f 5.12( 28.71%)
 247. (0.00000) RY (22) C  7            s(  3.65%)p 3.14( 11.46%)d11.27( 41.16%)
                                                  f11.97( 43.73%)
 248. (0.00000) RY (23) C  7            s( 10.10%)p 0.04(  0.37%)d 3.36( 33.95%)
                                                  f 5.50( 55.58%)
 249. (0.00000) RY (24) C  7            s( 21.46%)p 1.14( 24.50%)d 2.05( 43.91%)
                                                  f 0.47( 10.13%)
 250. (0.00000) RY (25) C  7            s(  2.02%)p 5.12( 10.36%)d24.07( 48.69%)
                                                  f19.24( 38.93%)
 251. (0.00000) RY (26) C  7            s( 27.78%)p 0.25(  6.93%)d 0.32(  8.98%)
                                                  f 2.03( 56.31%)
 252. (0.00154) RY ( 1) C  8            s(  0.97%)p95.24( 92.52%)d 6.35(  6.17%)
                                                  f 0.35(  0.34%)
                                         0.0000  0.0018  0.0954  0.0232 -0.0084
                                         0.0041 -0.3246 -0.0081  0.0117 -0.9033
                                        -0.0316  0.0026 -0.0514  0.0029 -0.0506
                                        -0.0861 -0.0640 -0.0420 -0.0619 -0.0913
                                        -0.1150 -0.1228 -0.0682 -0.0263 -0.0009
                                         0.0021 -0.0357 -0.0254 -0.0359 -0.0135
                                        -0.0021
 253. (0.00090) RY ( 2) C  8            s( 16.46%)p 3.97( 65.32%)d 1.03( 16.99%)
                                                  f 0.07(  1.23%)
                                         0.0000  0.0011  0.4037 -0.0403  0.0011
                                        -0.0063  0.7681  0.0235  0.0019 -0.2157
                                        -0.0202  0.0197 -0.1075 -0.0615 -0.0090
                                        -0.0861  0.1566  0.0310 -0.1127  0.0523
                                        -0.0150  0.0821 -0.2712 -0.2025 -0.0228
                                        -0.0673  0.0539  0.0517 -0.0084  0.0107
                                        -0.0381
 254. (0.00021) RY ( 3) C  8            s(  2.53%)p 4.77( 12.07%)d30.03( 75.92%)
                                                  f 3.75(  9.48%)
                                         0.0000 -0.0060  0.1286 -0.0848  0.0392
                                         0.0178 -0.1712 -0.1837  0.0169  0.1718
                                        -0.1484  0.0166 -0.0635 -0.0342 -0.2116
                                        -0.1292  0.3085 -0.1805 -0.3801  0.0648
                                        -0.6311  0.0180  0.1348 -0.0677  0.0927
                                        -0.2051  0.0624  0.0175  0.1449  0.1354
                                         0.0246
 255. (0.00016) RY ( 4) C  8            s(  8.83%)p 0.66(  5.82%)d 8.37( 73.96%)
                                                  f 1.29( 11.38%)
                                         0.0000  0.0054  0.2965  0.0002 -0.0193
                                         0.0151  0.1315 -0.0472  0.0097  0.0410
                                        -0.1216 -0.0165  0.1468 -0.0113 -0.5081
                                         0.2605 -0.5085  0.1328  0.0581  0.0139
                                        -0.2068 -0.1549  0.0892  0.2431 -0.0180
                                         0.2416 -0.1175  0.1430  0.0124  0.1333
                                         0.0539
 256. (0.00011) RY ( 5) C  8            s(  6.11%)p10.87( 66.42%)d 2.71( 16.58%)
                                                  f 1.78( 10.89%)
                                         0.0000  0.0005  0.1950 -0.1419 -0.0541
                                        -0.0168 -0.2080  0.0211  0.0091  0.1598
                                         0.0133 -0.0102 -0.6874  0.3490  0.1619
                                         0.0261 -0.2048  0.0263  0.0296  0.0984
                                        -0.1021  0.0285 -0.2504 -0.1085  0.0635
                                         0.1543 -0.1079  0.1403 -0.1729  0.0495
                                        -0.1319
 257. (0.00006) RY ( 6) C  8            s( 17.11%)p 1.06( 18.11%)d 2.91( 49.87%)
                                                  f 0.87( 14.91%)
 258. (0.00002) RY ( 7) C  8            s( 40.45%)p 0.48( 19.31%)d 0.80( 32.53%)
                                                  f 0.19(  7.71%)
 259. (0.00001) RY ( 8) C  8            s( 19.46%)p 2.09( 40.76%)d 1.56( 30.39%)
                                                  f 0.48(  9.40%)
 260. (0.00001) RY ( 9) C  8            s(  0.13%)p99.99( 14.84%)d99.99( 64.93%)
                                                  f99.99( 20.11%)
 261. (0.00000) RY (10) C  8            s(  4.10%)p11.25( 46.10%)d 9.05( 37.06%)
                                                  f 3.11( 12.75%)
 262. (0.00000) RY (11) C  8            s( 31.84%)p 0.81( 25.70%)d 0.77( 24.38%)
                                                  f 0.57( 18.08%)
 263. (0.00000) RY (12) C  8            s(  8.99%)p 5.29( 47.54%)d 2.60( 23.33%)
                                                  f 2.24( 20.14%)
 264. (0.00000) RY (13) C  8            s( 16.04%)p 1.44( 23.03%)d 1.94( 31.06%)
                                                  f 1.86( 29.87%)
 265. (0.00000) RY (14) C  8            s( 34.82%)p 0.38( 13.28%)d 0.67( 23.40%)
                                                  f 0.82( 28.49%)
 266. (0.00000) RY (15) C  8            s(  8.83%)p 1.20( 10.63%)d 4.15( 36.68%)
                                                  f 4.97( 43.86%)
 267. (0.00000) RY (16) C  8            s( 17.15%)p 2.63( 45.16%)d 1.00( 17.12%)
                                                  f 1.20( 20.56%)
 268. (0.00000) RY (17) C  8            s( 25.19%)p 0.68( 17.12%)d 1.92( 48.33%)
                                                  f 0.37(  9.36%)
 269. (0.00000) RY (18) C  8            s(  0.59%)p 1.55(  0.91%)d28.94( 17.08%)
                                                  f99.99( 81.42%)
 270. (0.00000) RY (19) C  8            s( 11.21%)p 0.06(  0.71%)d 2.80( 31.43%)
                                                  f 5.05( 56.65%)
 271. (0.00000) RY (20) C  8            s(  2.26%)p 1.15(  2.60%)d17.39( 39.26%)
                                                  f24.75( 55.89%)
 272. (0.00000) RY (21) C  8            s(  3.16%)p 0.96(  3.03%)d24.12( 76.17%)
                                                  f 5.58( 17.64%)
 273. (0.00000) RY (22) C  8            s(  1.27%)p 3.07(  3.89%)d14.31( 18.16%)
                                                  f60.41( 76.68%)
 274. (0.00000) RY (23) C  8            s(  5.14%)p 0.87(  4.47%)d13.14( 67.59%)
                                                  f 4.43( 22.80%)
 275. (0.00000) RY (24) C  8            s(  0.40%)p13.47(  5.42%)d68.13( 27.41%)
                                                  f99.99( 66.77%)
 276. (0.00000) RY (25) C  8            s(  9.85%)p 1.00(  9.86%)d 6.00( 59.11%)
                                                  f 2.15( 21.18%)
 277. (0.00000) RY (26) C  8            s(  7.19%)p 0.82(  5.89%)d 7.59( 54.58%)
                                                  f 4.49( 32.34%)
 278. (0.00357) RY ( 1) O  9            s(  2.73%)p35.04( 95.77%)d 0.52(  1.43%)
                                                  f 0.02(  0.07%)
                                         0.0000  0.0000  0.1629  0.0280  0.0010
                                         0.0036  0.0601  0.0078 -0.0019  0.2269
                                         0.0106  0.0081 -0.9494 -0.0329 -0.0026
                                         0.0108 -0.0470 -0.0495  0.0609  0.0462
                                         0.0467  0.0296 -0.0241  0.0009 -0.0162
                                        -0.0037  0.0041 -0.0052 -0.0168  0.0014
                                         0.0066
 279. (0.00224) RY ( 2) O  9            s(  2.29%)p39.43( 90.25%)d 3.19(  7.30%)
                                                  f 0.07(  0.16%)
                                         0.0000 -0.0052  0.1493  0.0236  0.0005
                                         0.0095 -0.0310  0.0178 -0.0060  0.9141
                                         0.0113 -0.0012  0.2556  0.0105  0.0350
                                         0.0371  0.0602  0.0016  0.0038 -0.0148
                                         0.2244  0.1117 -0.0570 -0.0204  0.0069
                                         0.0103  0.0118  0.0014  0.0050  0.0094
                                         0.0348
 280. (0.00101) RY ( 3) O  9            s( 46.62%)p 1.05( 48.76%)d 0.08(  3.80%)
                                                  f 0.02(  0.83%)
                                         0.0000 -0.0014  0.6788 -0.0730 -0.0047
                                        -0.0139 -0.6666 -0.1615 -0.0057 -0.1225
                                        -0.0210  0.0006  0.0378  0.0093  0.0019
                                         0.0512 -0.0002  0.0017 -0.0215 -0.0025
                                        -0.1315  0.0867 -0.0945 -0.0337  0.0001
                                         0.0191 -0.0055  0.0022 -0.0014 -0.0108
                                        -0.0880
 281. (0.00039) RY ( 4) O  9            s( 35.88%)p 1.35( 48.28%)d 0.40( 14.37%)
                                                  f 0.04(  1.47%)
                                         0.0000 -0.0019  0.5988  0.0174  0.0002
                                         0.0020  0.6671  0.0771 -0.0044 -0.1132
                                         0.0136 -0.0019  0.1264  0.0533  0.2898
                                         0.1369 -0.1081  0.0151  0.1033 -0.0553
                                        -0.0815  0.0778 -0.0512 -0.0066  0.0024
                                        -0.0726  0.0147  0.0038 -0.0170 -0.0680
                                        -0.0650
 282. (0.00019) RY ( 5) O  9            s(  0.04%)p40.58(  1.81%)d99.99( 96.76%)
                                                  f31.16(  1.39%)
                                         0.0000  0.0000  0.0144  0.0135  0.0075
                                        -0.0033  0.0985 -0.0590 -0.0081 -0.0131
                                        -0.0374  0.0085 -0.0563 -0.0037  0.0783
                                         0.1228  0.9110  0.0905 -0.2119  0.1377
                                        -0.1642  0.0016 -0.1303  0.0228 -0.0247
                                         0.0237 -0.0274  0.0483  0.0601 -0.0752
                                        -0.0193
 283. (0.00010) RY ( 6) O  9            s(  7.69%)p 1.36( 10.46%)d 9.74( 74.93%)
                                                  f 0.90(  6.92%)
                                         0.0000 -0.0005  0.2760 -0.0272 -0.0001
                                         0.0159  0.0518  0.2808  0.0253 -0.1320
                                         0.0513  0.0141  0.0014  0.0430 -0.2102
                                        -0.3280  0.1357  0.0331 -0.3833  0.0667
                                         0.5267 -0.1031  0.3671 -0.0631 -0.0277
                                        -0.0923  0.0793  0.0927 -0.0112  0.2118
                                         0.0064
 284. (0.00008) RY ( 7) O  9            s(  4.91%)p 1.05(  5.17%)d17.52( 85.99%)
                                                  f 0.80(  3.93%)
 285. (0.00006) RY ( 8) O  9            s(  3.23%)p 2.16(  6.99%)d26.96( 87.04%)
                                                  f 0.85(  2.75%)
 286. (0.00002) RY ( 9) O  9            s(  0.19%)p99.99( 40.59%)d99.99( 53.58%)
                                                  f29.47(  5.63%)
 287. (0.00002) RY (10) O  9            s(  6.98%)p 2.19( 15.31%)d10.59( 73.97%)
                                                  f 0.54(  3.74%)
 288. (0.00001) RY (11) O  9            s( 12.36%)p 2.17( 26.88%)d 4.22( 52.14%)
                                                  f 0.70(  8.61%)
 289. (0.00000) RY (12) O  9            s( 23.80%)p 0.88( 21.03%)d 1.49( 35.48%)
                                                  f 0.83( 19.69%)
 290. (0.00000) RY (13) O  9            s(  6.02%)p 8.75( 52.62%)d 3.53( 21.25%)
                                                  f 3.34( 20.12%)
 291. (0.00000) RY (14) O  9            s(  8.19%)p 2.63( 21.55%)d 2.63( 21.56%)
                                                  f 5.94( 48.70%)
 292. (0.00000) RY (15) O  9            s(  2.35%)p21.25( 49.85%)d13.82( 32.42%)
                                                  f 6.56( 15.39%)
 293. (0.00000) RY (16) O  9            s( 17.78%)p 1.87( 33.24%)d 1.10( 19.64%)
                                                  f 1.65( 29.34%)
 294. (0.00000) RY (17) O  9            s( 49.27%)p 0.01(  0.33%)d 0.14(  7.11%)
                                                  f 0.88( 43.29%)
 295. (0.00000) RY (18) O  9            s( 31.17%)p 0.10(  3.08%)d 0.61( 18.86%)
                                                  f 1.50( 46.88%)
 296. (0.00000) RY (19) O  9            s( 10.06%)p 0.43(  4.29%)d 2.52( 25.36%)
                                                  f 5.99( 60.29%)
 297. (0.00000) RY (20) O  9            s(  2.45%)p 0.80(  1.95%)d11.46( 28.10%)
                                                  f27.52( 67.50%)
 298. (0.00000) RY (21) O  9            s(  3.56%)p 2.12(  7.55%)d10.82( 38.46%)
                                                  f14.18( 50.42%)
 299. (0.00000) RY (22) O  9            s(  0.89%)p 3.50(  3.13%)d32.29( 28.89%)
                                                  f74.98( 67.08%)
 300. (0.00000) RY (23) O  9            s(  6.35%)p 0.26(  1.64%)d11.47( 72.82%)
                                                  f 3.03( 19.20%)
 301. (0.00000) RY (24) O  9            s( 11.58%)p 0.68(  7.88%)d 2.13( 24.64%)
                                                  f 4.83( 55.90%)
 302. (0.00000) RY (25) O  9            s(  0.06%)p 5.50(  0.34%)d99.99( 22.10%)
                                                  f99.99( 77.49%)
 303. (0.00000) RY (26) O  9            s(  3.64%)p 0.52(  1.91%)d14.10( 51.26%)
                                                  f11.88( 43.20%)
 304. (0.00358) RY ( 1) C 10            s(  8.65%)p 9.08( 78.48%)d 1.46( 12.59%)
                                                  f 0.03(  0.28%)
                                         0.0000 -0.0145  0.2906 -0.0416  0.0075
                                        -0.0183 -0.8580  0.0447  0.0385 -0.0887
                                         0.1462  0.0052  0.0530  0.1130  0.1774
                                         0.0270  0.1805  0.0226  0.0046  0.0434
                                         0.2315 -0.0047  0.0136 -0.0704 -0.0074
                                        -0.0118  0.0033  0.0299 -0.0132  0.0325
                                         0.0214
 305. (0.00293) RY ( 2) C 10            s(  3.51%)p26.47( 93.00%)d 0.94(  3.29%)
                                                  f 0.06(  0.20%)
                                         0.0000 -0.0159  0.1850 -0.0214  0.0142
                                        -0.0503 -0.0090 -0.1472  0.0065  0.9389
                                         0.0666 -0.0039  0.1373 -0.0286 -0.0193
                                        -0.0678 -0.0033 -0.0795 -0.0723 -0.0489
                                         0.0910 -0.0736  0.0095 -0.0126  0.0140
                                        -0.0040  0.0301 -0.0126 -0.0055  0.0188
                                        -0.0185
 306. (0.00219) RY ( 3) C 10            s( 39.75%)p 0.27( 10.92%)d 1.21( 47.93%)
                                                  f 0.04(  1.39%)
                                         0.0000 -0.0024  0.6304  0.0091  0.0002
                                        -0.0121  0.1256 -0.1666  0.0101 -0.1464
                                         0.0866 -0.0357  0.0451 -0.1822  0.1180
                                        -0.0823 -0.5941  0.0019  0.2506  0.1664
                                         0.0609  0.0507 -0.0547  0.0770  0.0724
                                         0.0225 -0.0145 -0.0366  0.0813 -0.0037
                                         0.0012
 307. (0.00085) RY ( 4) C 10            s(  0.18%)p99.99( 68.99%)d99.99( 29.55%)
                                                  f 7.02(  1.28%)
                                         0.0000  0.0036  0.0394  0.0106 -0.0122
                                        -0.0090  0.1413  0.2249  0.0129 -0.1214
                                        -0.0774 -0.0043  0.7726 -0.0391 -0.0633
                                        -0.1347  0.1795 -0.3631  0.0707  0.1479
                                         0.1457 -0.0054 -0.0862 -0.2317  0.0382
                                         0.0563 -0.0398  0.0136  0.0362 -0.0409
                                         0.0584
 308. (0.00046) RY ( 5) C 10            s(  5.67%)p 4.24( 24.05%)d12.15( 68.93%)
                                                  f 0.24(  1.36%)
                                         0.0000  0.0049  0.2363 -0.0277  0.0094
                                        -0.0243 -0.1076 -0.0096 -0.0095 -0.0599
                                        -0.3987 -0.0145 -0.2556 -0.0059 -0.6985
                                        -0.0171 -0.0567 -0.2144 -0.1334  0.0432
                                         0.0984 -0.1813  0.1737 -0.2438  0.0511
                                         0.0636  0.0334  0.0036 -0.0008  0.0668
                                        -0.0363
 309. (0.00026) RY ( 6) C 10            s(  2.08%)p 2.09(  4.33%)d43.48( 90.23%)
                                                  f 1.62(  3.37%)
                                         0.0000  0.0009  0.1418  0.0247 -0.0045
                                        -0.0039  0.0424  0.1224 -0.0030  0.0042
                                        -0.1346 -0.0021 -0.0907 -0.0138  0.1067
                                         0.2176 -0.0150 -0.3828 -0.1750 -0.4096
                                         0.1348  0.6854  0.0518  0.0873 -0.0351
                                         0.1112  0.0526 -0.0963 -0.0134  0.0668
                                         0.0580
 310. (0.00020) RY ( 7) C 10            s(  4.93%)p 4.04( 19.89%)d14.76( 72.72%)
                                                  f 0.50(  2.47%)
                                         0.0000 -0.0008 -0.1519  0.1589  0.0309
                                         0.0018  0.2030  0.2053  0.0127  0.0591
                                         0.0185 -0.0046 -0.3215  0.0903  0.1438
                                        -0.1178  0.0058  0.0438  0.1879  0.1792
                                         0.7618  0.0183 -0.0819 -0.1896  0.0794
                                         0.0175  0.0406  0.0686  0.0081  0.0912
                                        -0.0575
 311. (0.00015) RY ( 8) C 10            s( 28.54%)p 0.52( 14.94%)d 1.74( 49.64%)
                                                  f 0.24(  6.88%)
                                         0.0000 -0.0047  0.4452  0.2952 -0.0008
                                        -0.0014  0.2314 -0.1103  0.0081 -0.0822
                                         0.0164 -0.0080 -0.2115 -0.1784  0.1827
                                        -0.1514  0.5433  0.0162 -0.0105 -0.1934
                                        -0.1419 -0.1102 -0.0886 -0.2590  0.0374
                                        -0.1093  0.0499  0.0837 -0.1452 -0.1051
                                         0.1175
 312. (0.00005) RY ( 9) C 10            s( 15.90%)p 1.56( 24.84%)d 2.53( 40.21%)
                                                  f 1.20( 19.05%)
 313. (0.00004) RY (10) C 10            s(  3.69%)p 2.02(  7.46%)d20.74( 76.49%)
                                                  f 3.35( 12.36%)
 314. (0.00002) RY (11) C 10            s(  2.26%)p30.71( 69.41%)d11.44( 25.86%)
                                                  f 1.09(  2.47%)
 315. (0.00001) RY (12) C 10            s( 34.74%)p 0.54( 18.93%)d 1.21( 42.03%)
                                                  f 0.12(  4.30%)
 316. (0.00000) RY (13) C 10            s( 22.02%)p 0.69( 15.14%)d 2.65( 58.37%)
                                                  f 0.20(  4.47%)
 317. (0.00000) RY (14) C 10            s( 14.56%)p 0.18(  2.62%)d 2.19( 31.82%)
                                                  f 3.50( 51.00%)
 318. (0.00000) RY (15) C 10            s( 16.80%)p 2.01( 33.71%)d 1.84( 30.85%)
                                                  f 1.11( 18.63%)
 319. (0.00000) RY (16) C 10            s(  0.29%)p 0.95(  0.28%)d24.13(  7.09%)
                                                  f99.99( 92.34%)
 320. (0.00000) RY (17) C 10            s(  2.05%)p 0.84(  1.73%)d 6.44( 13.21%)
                                                  f40.47( 83.01%)
 321. (0.00000) RY (18) C 10            s(  9.48%)p 0.12(  1.16%)d 0.56(  5.27%)
                                                  f 8.87( 84.08%)
 322. (0.00000) RY (19) C 10            s(  5.37%)p 0.40(  2.17%)d 1.37(  7.34%)
                                                  f15.85( 85.12%)
 323. (0.00000) RY (20) C 10            s( 16.53%)p 0.11(  1.81%)d 2.99( 49.47%)
                                                  f 1.95( 32.19%)
 324. (0.00000) RY (21) C 10            s(  3.51%)p 0.89(  3.13%)d 3.15( 11.05%)
                                                  f23.47( 82.32%)
 325. (0.00000) RY (22) C 10            s( 20.70%)p 0.47(  9.76%)d 1.73( 35.88%)
                                                  f 1.63( 33.66%)
 326. (0.00000) RY (23) C 10            s( 14.07%)p 1.59( 22.37%)d 3.05( 42.91%)
                                                  f 1.47( 20.64%)
 327. (0.00000) RY (24) C 10            s(  5.11%)p 3.93( 20.08%)d11.00( 56.22%)
                                                  f 3.64( 18.59%)
 328. (0.00000) RY (25) C 10            s( 11.91%)p 2.66( 31.67%)d 2.69( 32.00%)
                                                  f 2.05( 24.42%)
 329. (0.00000) RY (26) C 10            s(  7.54%)p 2.62( 19.72%)d 7.78( 58.67%)
                                                  f 1.87( 14.08%)
 330. (0.00132) RY ( 1) C 11            s( 19.72%)p 3.78( 74.43%)d 0.28(  5.49%)
                                                  f 0.02(  0.36%)
                                         0.0000 -0.0016  0.4419 -0.0414  0.0122
                                         0.0054 -0.8195 -0.0127 -0.0008  0.2257
                                         0.0104  0.0213  0.1205  0.0805 -0.0542
                                        -0.0612  0.0315 -0.1355  0.1350 -0.0005
                                         0.0578  0.0254 -0.0098 -0.0812 -0.0260
                                        -0.0110 -0.0512 -0.0074  0.0082  0.0105
                                         0.0013
 331. (0.00050) RY ( 2) C 11            s(  0.29%)p99.99( 74.26%)d81.66( 23.64%)
                                                  f 6.25(  1.81%)
                                         0.0000 -0.0001  0.0533  0.0071 -0.0018
                                        -0.0010 -0.1521 -0.0498  0.0192 -0.7374
                                         0.0942 -0.0015  0.3969 -0.0807 -0.0921
                                         0.0636  0.0408 -0.1222 -0.2142 -0.2384
                                        -0.1839  0.1311  0.2069  0.1036  0.0287
                                        -0.0394 -0.0799  0.0913  0.0277 -0.0119
                                         0.0099
 332. (0.00035) RY ( 3) C 11            s(  3.14%)p 9.64( 30.32%)d17.24( 54.22%)
                                                  f 3.92( 12.32%)
                                         0.0000  0.0051  0.1675  0.0124 -0.0566
                                         0.0157  0.1705  0.0026 -0.0103  0.0578
                                        -0.0407  0.0020  0.5184  0.0020 -0.2930
                                         0.0335 -0.1773  0.0479  0.0038  0.0317
                                         0.2292 -0.0436 -0.5671  0.2110  0.2677
                                        -0.0563  0.1243 -0.0908  0.1137  0.0007
                                        -0.1082
 333. (0.00023) RY ( 4) C 11            s(  2.70%)p13.32( 35.94%)d21.07( 56.87%)
                                                  f 1.66(  4.49%)
                                         0.0000  0.0010 -0.0871  0.1306 -0.0483
                                         0.0247 -0.2092  0.2360  0.0104 -0.0267
                                         0.0537 -0.0187 -0.5036 -0.0411 -0.3143
                                         0.0008 -0.2924 -0.1064 -0.5508 -0.1117
                                         0.0642  0.0953 -0.1985  0.0674  0.1148
                                        -0.1427  0.0455  0.0858  0.0159 -0.0402
                                        -0.0087
 334. (0.00009) RY ( 5) C 11            s(  7.62%)p 5.38( 40.97%)d 5.11( 38.96%)
                                                  f 1.63( 12.45%)
 335. (0.00006) RY ( 6) C 11            s(  9.11%)p 2.45( 22.33%)d 6.30( 57.39%)
                                                  f 1.23( 11.18%)
 336. (0.00003) RY ( 7) C 11            s( 15.38%)p 1.97( 30.30%)d 3.34( 51.28%)
                                                  f 0.20(  3.05%)
 337. (0.00001) RY ( 8) C 11            s( 25.62%)p 0.31(  7.95%)d 2.29( 58.80%)
                                                  f 0.30(  7.63%)
 338. (0.00001) RY ( 9) C 11            s( 41.19%)p 0.47( 19.37%)d 0.82( 33.90%)
                                                  f 0.13(  5.53%)
 339. (0.00000) RY (10) C 11            s(  7.52%)p 5.75( 43.24%)d 5.85( 43.95%)
                                                  f 0.70(  5.29%)
 340. (0.00000) RY (11) C 11            s(  4.13%)p 3.24( 13.38%)d10.39( 42.86%)
                                                  f 9.61( 39.64%)
 341. (0.00000) RY (12) C 11            s( 35.78%)p 0.10(  3.74%)d 0.34( 12.32%)
                                                  f 1.35( 48.16%)
 342. (0.00000) RY (13) C 11            s(  8.87%)p 1.25( 11.05%)d 5.88( 52.14%)
                                                  f 3.15( 27.94%)
 343. (0.00000) RY (14) C 11            s( 10.96%)p 4.02( 44.08%)d 2.41( 26.44%)
                                                  f 1.69( 18.53%)
 344. (0.00000) RY (15) C 11            s( 10.05%)p 3.86( 38.76%)d 0.97(  9.73%)
                                                  f 4.13( 41.45%)
 345. (0.00000) RY (16) C 11            s(  2.88%)p 5.32( 15.34%)d11.79( 33.99%)
                                                  f16.57( 47.78%)
 346. (0.00000) RY (17) C 11            s(  5.60%)p 1.13(  6.34%)d11.76( 65.91%)
                                                  f 3.95( 22.15%)
 347. (0.00000) RY (18) C 11            s( 50.29%)p 0.47( 23.52%)d 0.28( 14.13%)
                                                  f 0.24( 12.06%)
 348. (0.00000) RY (19) C 11            s( 24.44%)p 1.70( 41.45%)d 0.72( 17.63%)
                                                  f 0.67( 16.49%)
 349. (0.00000) RY (20) C 11            s(  1.61%)p 0.43(  0.70%)d19.66( 31.60%)
                                                  f41.13( 66.10%)
 350. (0.00000) RY (21) C 11            s(  2.05%)p 0.24(  0.48%)d10.37( 21.28%)
                                                  f37.15( 76.19%)
 351. (0.00000) RY (22) C 11            s(  3.95%)p 0.57(  2.24%)d12.15( 48.02%)
                                                  f11.58( 45.78%)
 352. (0.00000) RY (23) C 11            s(  0.78%)p 6.47(  5.05%)d90.80( 70.94%)
                                                  f29.73( 23.22%)
 353. (0.00000) RY (24) C 11            s(  1.29%)p 6.06(  7.80%)d39.26( 50.51%)
                                                  f31.40( 40.40%)
 354. (0.00000) RY (25) C 11            s(  2.56%)p 0.96(  2.46%)d23.34( 59.74%)
                                                  f13.77( 35.24%)
 355. (0.00000) RY (26) C 11            s(  2.51%)p 2.03(  5.10%)d 7.05( 17.71%)
                                                  f29.75( 74.68%)
 356. (0.00275) RY ( 1) H 12            s( 97.42%)p 0.02(  2.06%)d 0.01(  0.52%)
                                         0.0081  0.9870 -0.0001 -0.1290  0.0534
                                        -0.0205  0.0238 -0.0080  0.0027 -0.0416
                                        -0.0008  0.0014 -0.0558  0.0192
 357. (0.00028) RY ( 2) H 12            s(  0.01%)p99.99( 91.23%)d99.99(  8.76%)
                                        -0.0001 -0.0058  0.0085  0.0135 -0.0028
                                         0.0125 -0.0022 -0.9520  0.0744  0.0009
                                         0.0504  0.2916  0.0074  0.0065
 358. (0.00019) RY ( 3) H 12            s( 10.85%)p 7.41( 80.38%)d 0.81(  8.76%)
                                        -0.0001 -0.1204  0.3067 -0.4625  0.7634
                                        -0.0752  0.0364 -0.0077  0.0089 -0.2837
                                         0.0002 -0.0033 -0.0817 -0.0216
 359. (0.00014) RY ( 4) H 12            s( 77.42%)p 0.23( 17.77%)d 0.06(  4.81%)
                                         0.0008  0.0175  0.8797  0.0389 -0.2832
                                        -0.2164  0.2215  0.0060 -0.0048  0.1921
                                        -0.0015 -0.0007  0.0121  0.1051
 360. (0.00002) RY ( 5) H 12            s(  2.65%)p32.04( 84.88%)d 4.70( 12.47%)
 361. (0.00001) RY ( 6) H 12            s(  5.03%)p12.52( 63.03%)d 6.35( 31.94%)
 362. (0.00001) RY ( 7) H 12            s(  0.09%)p99.99( 39.88%)d99.99( 60.03%)
 363. (0.00000) RY ( 8) H 12            s(  0.56%)p48.29( 26.97%)d99.99( 72.47%)
 364. (0.00000) RY ( 9) H 12            s(  0.00%)p 1.00( 27.49%)d 2.64( 72.51%)
 365. (0.00000) RY (10) H 12            s(  0.14%)p99.99( 41.62%)d99.99( 58.25%)
 366. (0.00000) RY (11) H 12            s(  1.41%)p 7.18( 10.10%)d62.89( 88.49%)
 367. (0.00000) RY (12) H 12            s(  0.06%)p99.99( 41.70%)d99.99( 58.24%)
 368. (0.00000) RY (13) H 12            s(  4.39%)p16.61( 72.88%)d 5.18( 22.74%)
 369. (0.00405) RY ( 1) H 13            s( 98.25%)p 0.01(  1.24%)d 0.01(  0.51%)
                                         0.0113  0.9912 -0.0010  0.0857 -0.0695
                                        -0.0090  0.0049  0.0103 -0.0067  0.0432
                                        -0.0011 -0.0003 -0.0525  0.0210
 370. (0.00018) RY ( 2) H 13            s(  0.51%)p99.99( 91.07%)d16.57(  8.43%)
                                         0.0001  0.0076  0.0709 -0.1022  0.1097
                                        -0.0249  0.0202  0.9164 -0.2177 -0.0547
                                        -0.0924 -0.2697  0.0001 -0.0023
 371. (0.00013) RY ( 3) H 13            s( 88.86%)p 0.10(  9.16%)d 0.02(  1.98%)
                                         0.0001 -0.0075  0.9426  0.0066 -0.0453
                                        -0.1569  0.2400 -0.0704  0.0479 -0.0624
                                        -0.0313  0.0038 -0.0712  0.0992
 372. (0.00008) RY ( 4) H 13            s(  1.38%)p68.99( 94.90%)d 2.71(  3.72%)
 373. (0.00005) RY ( 5) H 13            s(  0.03%)p99.99( 72.01%)d99.99( 27.96%)
 374. (0.00001) RY ( 6) H 13            s(  0.40%)p99.99( 61.77%)d94.78( 37.83%)
 375. (0.00001) RY ( 7) H 13            s(  2.70%)p24.90( 67.31%)d11.10( 29.99%)
 376. (0.00000) RY ( 8) H 13            s(  0.64%)p28.04( 17.92%)d99.99( 81.44%)
 377. (0.00000) RY ( 9) H 13            s(  0.49%)p74.47( 36.63%)d99.99( 62.88%)
 378. (0.00000) RY (10) H 13            s(  0.01%)p99.99( 20.45%)d99.99( 79.54%)
 379. (0.00000) RY (11) H 13            s(  0.43%)p99.99( 58.34%)d97.02( 41.24%)
 380. (0.00000) RY (12) H 13            s(  1.47%)p30.90( 45.55%)d35.94( 52.97%)
 381. (0.00000) RY (13) H 13            s(  4.86%)p 4.86( 23.63%)d14.70( 71.51%)
 382. (0.00159) RY ( 1) H 14            s( 96.88%)p 0.03(  2.44%)d 0.01(  0.68%)
                                         0.0029  0.9843 -0.0001  0.0620 -0.0873
                                        -0.0219  0.0930 -0.0599 -0.0134 -0.0083
                                        -0.0566  0.0374 -0.0029  0.0465
 383. (0.00010) RY ( 2) H 14            s(  0.75%)p99.99( 96.21%)d 4.08(  3.05%)
                                         0.0005  0.0821 -0.0271  0.4193  0.3610
                                         0.5045 -0.5992  0.0932  0.1834  0.0885
                                         0.0722  0.0743  0.1012  0.0407
 384. (0.00009) RY ( 3) H 14            s(  0.08%)p99.99( 86.14%)d99.99( 13.78%)
 385. (0.00007) RY ( 4) H 14            s(  4.11%)p12.70( 52.18%)d10.64( 43.72%)
 386. (0.00003) RY ( 5) H 14            s(  2.53%)p11.97( 30.31%)d26.53( 67.16%)
 387. (0.00002) RY ( 6) H 14            s( 54.18%)p 0.48( 26.27%)d 0.36( 19.55%)
 388. (0.00001) RY ( 7) H 14            s(  4.73%)p 5.47( 25.86%)d14.67( 69.41%)
 389. (0.00001) RY ( 8) H 14            s(  0.05%)p99.99( 40.36%)d99.99( 59.59%)
 390. (0.00000) RY ( 9) H 14            s(  0.02%)p99.99( 31.98%)d99.99( 68.00%)
 391. (0.00000) RY (10) H 14            s( 17.07%)p 3.47( 59.31%)d 1.38( 23.62%)
 392. (0.00000) RY (11) H 14            s( 17.54%)p 2.18( 38.15%)d 2.53( 44.31%)
 393. (0.00000) RY (12) H 14            s(  1.23%)p68.37( 84.06%)d11.97( 14.71%)
 394. (0.00000) RY (13) H 14            s(  0.89%)p30.09( 26.70%)d81.59( 72.41%)
 395. (0.00043) RY ( 1) H 15            s( 94.57%)p 0.05(  4.60%)d 0.01(  0.83%)
                                        -0.0008  0.9725 -0.0013  0.0447 -0.1193
                                         0.0208  0.1649  0.0096  0.0452  0.0605
                                        -0.0015 -0.0017  0.0614 -0.0290
 396. (0.00011) RY ( 2) H 15            s(  1.14%)p71.96( 82.36%)d14.41( 16.49%)
                                         0.0017  0.0970  0.0452  0.1507  0.0703
                                        -0.4243 -0.4995  0.6035  0.0472  0.0299
                                        -0.2836 -0.2147 -0.1938  0.0007
 397. (0.00009) RY ( 3) H 15            s(  7.38%)p 9.38( 69.24%)d 3.17( 23.38%)
 398. (0.00008) RY ( 4) H 15            s( 12.93%)p 5.95( 76.93%)d 0.78( 10.14%)
 399. (0.00003) RY ( 5) H 15            s( 41.22%)p 0.97( 39.84%)d 0.46( 18.93%)
 400. (0.00001) RY ( 6) H 15            s( 25.79%)p 2.59( 66.77%)d 0.29(  7.44%)
 401. (0.00001) RY ( 7) H 15            s(  1.08%)p67.04( 72.39%)d24.57( 26.53%)
 402. (0.00000) RY ( 8) H 15            s(  0.09%)p99.99( 15.71%)d99.99( 84.20%)
 403. (0.00000) RY ( 9) H 15            s(  0.49%)p31.38( 15.40%)d99.99( 84.11%)
 404. (0.00000) RY (10) H 15            s(  0.44%)p80.17( 35.31%)d99.99( 64.25%)
 405. (0.00000) RY (11) H 15            s(  5.44%)p 2.87( 15.62%)d14.52( 78.94%)
 406. (0.00000) RY (12) H 15            s(  8.65%)p 8.43( 72.94%)d 2.13( 18.41%)
 407. (0.00000) RY (13) H 15            s(  0.81%)p40.33( 32.86%)d81.39( 66.32%)
 408. (0.00116) RY ( 1) H 16            s( 98.44%)p 0.01(  1.09%)d 0.00(  0.47%)
                                         0.0026  0.9922 -0.0001 -0.0660 -0.0589
                                        -0.0150  0.0414 -0.0192 -0.0278  0.0243
                                        -0.0285 -0.0064  0.0350  0.0450
 409. (0.00017) RY ( 2) H 16            s(  4.36%)p19.40( 84.69%)d 2.51( 10.94%)
                                         0.0049 -0.0239  0.2075 -0.4095 -0.2019
                                        -0.6417 -0.4115 -0.2241 -0.0846 -0.0041
                                         0.1838  0.2094 -0.1745 -0.0362
 410. (0.00015) RY ( 3) H 16            s(  2.64%)p31.91( 84.24%)d 4.97( 13.12%)
                                        -0.0002  0.0783  0.1424  0.6527  0.1817
                                        -0.4516 -0.2038  0.3571  0.1011 -0.1832
                                        -0.1317  0.0454  0.0279 -0.2784
 411. (0.00007) RY ( 4) H 16            s(  5.87%)p13.53( 79.44%)d 2.50( 14.69%)
 412. (0.00003) RY ( 5) H 16            s(  6.05%)p12.40( 75.08%)d 3.12( 18.87%)
 413. (0.00002) RY ( 6) H 16            s( 62.84%)p 0.33( 20.98%)d 0.26( 16.18%)
 414. (0.00001) RY ( 7) H 16            s(  8.44%)p 8.54( 72.11%)d 2.31( 19.45%)
 415. (0.00000) RY ( 8) H 16            s(  0.55%)p18.73( 10.22%)d99.99( 89.23%)
 416. (0.00000) RY ( 9) H 16            s(  0.37%)p74.82( 28.02%)d99.99( 71.60%)
 417. (0.00000) RY (10) H 16            s(  1.12%)p25.40( 28.55%)d62.58( 70.33%)
 418. (0.00000) RY (11) H 16            s(  1.73%)p21.00( 36.30%)d35.86( 61.97%)
 419. (0.00000) RY (12) H 16            s(  0.11%)p87.72(  9.90%)d99.99( 89.98%)
 420. (0.00000) RY (13) H 16            s(  7.52%)p 9.22( 69.34%)d 3.08( 23.14%)
 421. (0.00066) RY ( 1) H 17            s( 93.89%)p 0.06(  5.47%)d 0.01(  0.64%)
                                         0.0007  0.9690  0.0000 -0.1489 -0.1326
                                         0.0145  0.0655  0.0565  0.0854  0.0229
                                         0.0442 -0.0277  0.0440  0.0346
 422. (0.00017) RY ( 2) H 17            s(  3.18%)p26.73( 84.99%)d 3.72( 11.83%)
                                         0.0064 -0.0397  0.1737 -0.4025 -0.1200
                                        -0.6601 -0.4361  0.2174  0.0126  0.0104
                                        -0.1680 -0.1708 -0.2459  0.0201
 423. (0.00012) RY ( 3) H 17            s(  6.73%)p10.95( 73.67%)d 2.91( 19.60%)
                                         0.0013  0.1440  0.2157  0.5158  0.0355
                                        -0.4347 -0.0439 -0.5278 -0.0048 -0.1970
                                        -0.0380  0.0030  0.0289 -0.3936
 424. (0.00006) RY ( 4) H 17            s(  6.09%)p13.12( 79.92%)d 2.30( 13.99%)
 425. (0.00004) RY ( 5) H 17            s( 52.44%)p 0.67( 35.19%)d 0.24( 12.38%)
 426. (0.00001) RY ( 6) H 17            s( 27.27%)p 2.15( 58.56%)d 0.52( 14.17%)
 427. (0.00000) RY ( 7) H 17            s(  5.72%)p11.94( 68.27%)d 4.55( 26.01%)
 428. (0.00000) RY ( 8) H 17            s(  0.52%)p50.03( 25.81%)d99.99( 73.68%)
 429. (0.00000) RY ( 9) H 17            s(  1.76%)p34.62( 60.98%)d21.15( 37.26%)
 430. (0.00000) RY (10) H 17            s(  0.01%)p 1.00( 17.22%)d 4.81( 82.77%)
 431. (0.00000) RY (11) H 17            s(  0.00%)p 1.00( 38.58%)d 1.59( 61.41%)
 432. (0.00000) RY (12) H 17            s(  0.39%)p54.23( 21.03%)d99.99( 78.58%)
 433. (0.00000) RY (13) H 17            s(  2.07%)p14.64( 30.27%)d32.72( 67.67%)
 434. (0.00063) RY ( 1) H 18            s( 96.68%)p 0.03(  2.78%)d 0.01(  0.54%)
                                         0.0002  0.9833 -0.0022  0.0255 -0.0096
                                         0.0150 -0.1064 -0.0119  0.1240  0.0447
                                         0.0031  0.0042  0.0459 -0.0352
 435. (0.00012) RY ( 2) H 18            s(  3.78%)p21.48( 81.17%)d 3.98( 15.05%)
                                         0.0042  0.0737  0.1799 -0.4188 -0.2766
                                         0.5427  0.2748 -0.2952 -0.3204 -0.3086
                                         0.1610  0.0089  0.1682  0.0316
 436. (0.00010) RY ( 3) H 18            s(  3.05%)p23.70( 72.26%)d 8.10( 24.69%)
                                         0.0019 -0.0013  0.1746  0.0917  0.0164
                                        -0.3989 -0.0469 -0.7420 -0.0455  0.1120
                                         0.4148  0.1756 -0.1677  0.0577
 437. (0.00006) RY ( 4) H 18            s(  5.91%)p13.98( 82.60%)d 1.95( 11.49%)
 438. (0.00003) RY ( 5) H 18            s( 34.29%)p 1.45( 49.87%)d 0.46( 15.83%)
 439. (0.00001) RY ( 6) H 18            s( 10.53%)p 5.88( 61.90%)d 2.62( 27.58%)
 440. (0.00000) RY ( 7) H 18            s( 21.11%)p 3.30( 69.58%)d 0.44(  9.32%)
 441. (0.00000) RY ( 8) H 18            s(  1.55%)p11.40( 17.61%)d52.33( 80.85%)
 442. (0.00000) RY ( 9) H 18            s(  0.90%)p28.37( 25.59%)d81.51( 73.51%)
 443. (0.00000) RY (10) H 18            s(  1.40%)p17.71( 24.77%)d52.79( 73.83%)
 444. (0.00000) RY (11) H 18            s(  0.20%)p99.99( 20.31%)d99.99( 79.50%)
 445. (0.00000) RY (12) H 18            s(  2.56%)p14.35( 36.71%)d23.74( 60.73%)
 446. (0.00000) RY (13) H 18            s( 18.11%)p 3.03( 54.82%)d 1.50( 27.07%)
 447. (0.00047) RY ( 1) H 19            s( 93.05%)p 0.07(  6.16%)d 0.01(  0.79%)
                                        -0.0010  0.9646 -0.0082 -0.0130  0.0768
                                        -0.0699 -0.0607  0.0168  0.2160  0.0103
                                        -0.0135  0.0128 -0.0703 -0.0497
 448. (0.00011) RY ( 2) H 19            s(  4.01%)p18.86( 75.58%)d 5.09( 20.42%)
                                         0.0024  0.0463  0.1947 -0.8121 -0.2446
                                        -0.0174 -0.0103  0.1563 -0.1076 -0.4042
                                        -0.0198  0.0883  0.1800  0.0122
 449. (0.00009) RY ( 3) H 19            s( 11.35%)p 5.59( 63.48%)d 2.22( 25.17%)
 450. (0.00005) RY ( 4) H 19            s( 18.14%)p 3.77( 68.29%)d 0.75( 13.57%)
 451. (0.00002) RY ( 5) H 19            s( 33.68%)p 1.71( 57.44%)d 0.26(  8.88%)
 452. (0.00001) RY ( 6) H 19            s( 22.20%)p 3.16( 70.11%)d 0.35(  7.70%)
 453. (0.00000) RY ( 7) H 19            s(  2.13%)p35.66( 76.13%)d10.18( 21.73%)
 454. (0.00000) RY ( 8) H 19            s(  1.55%)p 5.57(  8.64%)d57.95( 89.81%)
 455. (0.00000) RY ( 9) H 19            s(  0.20%)p99.99( 23.52%)d99.99( 76.29%)
 456. (0.00000) RY (10) H 19            s(  0.65%)p46.63( 30.46%)d99.99( 68.89%)
 457. (0.00000) RY (11) H 19            s(  0.38%)p70.97( 26.77%)d99.99( 72.85%)
 458. (0.00000) RY (12) H 19            s(  0.16%)p99.99( 34.90%)d99.99( 64.94%)
 459. (0.00000) RY (13) H 19            s( 12.55%)p 4.66( 58.48%)d 2.31( 28.97%)
 460. (0.00112) RY ( 1) H 20            s( 99.18%)p 0.01(  0.59%)d 0.00(  0.23%)
                                         0.0020  0.9959  0.0009 -0.0639  0.0156
                                         0.0155 -0.0292 -0.0209 -0.0012  0.0006
                                        -0.0271  0.0243  0.0125  0.0286
 461. (0.00017) RY ( 2) H 20            s(  1.14%)p78.83( 89.62%)d 8.13(  9.24%)
                                         0.0035 -0.0294  0.1024 -0.5766 -0.4825
                                         0.1974  0.2135 -0.4173 -0.2686  0.0507
                                         0.2541 -0.0939 -0.0334  0.1240
 462. (0.00012) RY ( 3) H 20            s(  0.35%)p99.99( 81.02%)d52.95( 18.63%)
                                         0.0003  0.0183  0.0564  0.3521  0.0261
                                         0.8033  0.1961 -0.0388 -0.0181  0.0638
                                        -0.1780 -0.3792  0.0802 -0.0170
 463. (0.00007) RY ( 4) H 20            s( 12.63%)p 5.73( 72.45%)d 1.18( 14.91%)
 464. (0.00003) RY ( 5) H 20            s( 34.17%)p 1.37( 46.77%)d 0.56( 19.05%)
 465. (0.00002) RY ( 6) H 20            s( 17.75%)p 3.54( 62.85%)d 1.09( 19.39%)
 466. (0.00000) RY ( 7) H 20            s( 10.39%)p 7.55( 78.45%)d 1.07( 11.16%)
 467. (0.00000) RY ( 8) H 20            s(  0.21%)p29.45(  6.25%)d99.99( 93.54%)
 468. (0.00000) RY ( 9) H 20            s(  0.43%)p63.65( 27.17%)d99.99( 72.40%)
 469. (0.00000) RY (10) H 20            s(  0.05%)p99.99( 24.64%)d99.99( 75.31%)
 470. (0.00000) RY (11) H 20            s(  2.28%)p 3.78(  8.62%)d39.09( 89.10%)
 471. (0.00000) RY (12) H 20            s(  3.09%)p19.81( 61.22%)d11.55( 35.69%)
 472. (0.00000) RY (13) H 20            s( 18.36%)p 2.20( 40.31%)d 2.25( 41.33%)
 473. (0.00191) RY ( 1) H 21            s( 98.02%)p 0.01(  0.97%)d 0.01(  1.01%)
                                         0.0045  0.9900 -0.0037  0.0236  0.0646
                                         0.0451 -0.0477  0.0249 -0.0050  0.0804
                                        -0.0144 -0.0525 -0.0156  0.0205
 474. (0.00029) RY ( 2) H 21            s( 17.88%)p 4.40( 78.69%)d 0.19(  3.43%)
                                         0.0083  0.0669  0.4174 -0.2240 -0.7777
                                        -0.1020 -0.1253  0.0288 -0.3239 -0.1023
                                         0.0546  0.0635  0.1158  0.0588
 475. (0.00011) RY ( 3) H 21            s(  3.90%)p22.85( 89.22%)d 1.76(  6.88%)
                                        -0.0013 -0.0308  0.1952  0.3620  0.2864
                                        -0.2834 -0.2709 -0.4459 -0.5715  0.1291
                                        -0.0892  0.0795 -0.0713  0.1810
 476. (0.00008) RY ( 4) H 21            s(  5.51%)p10.03( 55.33%)d 7.10( 39.16%)
 477. (0.00004) RY ( 5) H 21            s( 11.72%)p 6.22( 72.89%)d 1.31( 15.40%)
 478. (0.00002) RY ( 6) H 21            s( 46.91%)p 0.88( 41.24%)d 0.25( 11.85%)
 479. (0.00001) RY ( 7) H 21            s(  3.28%)p20.71( 68.03%)d 8.73( 28.68%)
 480. (0.00001) RY ( 8) H 21            s(  0.29%)p92.13( 26.97%)d99.99( 72.74%)
 481. (0.00001) RY ( 9) H 21            s(  2.49%)p12.48( 31.03%)d26.73( 66.48%)
 482. (0.00000) RY (10) H 21            s(  1.54%)p15.11( 23.31%)d48.71( 75.15%)
 483. (0.00000) RY (11) H 21            s(  6.90%)p 5.64( 38.91%)d 7.86( 54.19%)
 484. (0.00000) RY (12) H 21            s(  1.30%)p31.25( 40.59%)d44.74( 58.11%)
 485. (0.00000) RY (13) H 21            s(  0.31%)p99.99( 32.78%)d99.99( 66.91%)
 486. (0.00102) RY ( 1) H 22            s( 92.74%)p 0.06(  6.02%)d 0.01(  1.24%)
                                         0.0007  0.9630 -0.0006 -0.0916 -0.0760
                                        -0.0454  0.0522  0.0123 -0.2027  0.0682
                                         0.0424  0.0047 -0.0702 -0.0319
 487. (0.00010) RY ( 2) H 22            s(  6.31%)p10.25( 64.62%)d 4.61( 29.07%)
                                         0.0033 -0.0105  0.2509  0.0382  0.2053
                                        -0.2104 -0.3663  0.5682 -0.3183 -0.2764
                                         0.2904  0.0694  0.2748  0.2227
 488. (0.00006) RY ( 3) H 22            s(  0.40%)p99.99( 71.16%)d71.70( 28.44%)
 489. (0.00005) RY ( 4) H 22            s(  4.01%)p22.33( 89.57%)d 1.60(  6.42%)
 490. (0.00005) RY ( 5) H 22            s(  0.73%)p99.99( 90.43%)d12.20(  8.84%)
 491. (0.00002) RY ( 6) H 22            s( 79.27%)p 0.17( 13.72%)d 0.09(  7.01%)
 492. (0.00001) RY ( 7) H 22            s(  0.01%)p 1.00( 46.66%)d 1.14( 53.33%)
 493. (0.00001) RY ( 8) H 22            s(  1.59%)p30.37( 48.19%)d31.65( 50.22%)
 494. (0.00000) RY ( 9) H 22            s(  4.27%)p 8.74( 37.32%)d13.67( 58.40%)
 495. (0.00000) RY (10) H 22            s(  7.63%)p 6.89( 52.59%)d 5.21( 39.78%)
 496. (0.00000) RY (11) H 22            s(  0.01%)p99.99( 20.61%)d99.99( 79.37%)
 497. (0.00000) RY (12) H 22            s(  0.42%)p74.44( 31.38%)d99.99( 68.20%)
 498. (0.00000) RY (13) H 22            s(  2.68%)p10.34( 27.68%)d26.00( 69.64%)
 499. (0.00100) RY ( 1) H 23            s( 96.01%)p 0.04(  3.85%)d 0.00(  0.14%)
                                         0.0021  0.9798  0.0043  0.1148  0.0556
                                        -0.0063 -0.0095 -0.1359 -0.0604  0.0213
                                         0.0073  0.0256  0.0054 -0.0141
 500. (0.00013) RY ( 2) H 23            s(  2.81%)p27.10( 76.17%)d 7.48( 21.02%)
                                         0.0020 -0.0273  0.1654 -0.4081  0.0212
                                         0.5664  0.0766 -0.5041 -0.1181 -0.0686
                                         0.2081  0.0411  0.3552  0.1852
 501. (0.00013) RY ( 3) H 23            s(  8.00%)p 9.80( 78.37%)d 1.70( 13.63%)
                                         0.0079 -0.1602  0.2329  0.3820  0.2112
                                        -0.3362 -0.0757 -0.5723 -0.3835 -0.1537
                                         0.0005  0.1503 -0.2298  0.1930
 502. (0.00006) RY ( 4) H 23            s(  0.04%)p99.99( 80.84%)d99.99( 19.12%)
 503. (0.00003) RY ( 5) H 23            s( 61.37%)p 0.46( 28.31%)d 0.17( 10.31%)
 504. (0.00001) RY ( 6) H 23            s(  1.23%)p65.56( 80.66%)d14.72( 18.11%)
 505. (0.00001) RY ( 7) H 23            s(  0.77%)p99.99( 93.62%)d 7.26(  5.61%)
 506. (0.00000) RY ( 8) H 23            s( 24.57%)p 2.19( 53.90%)d 0.88( 21.53%)
 507. (0.00000) RY ( 9) H 23            s(  0.85%)p 7.64(  6.46%)d99.99( 92.69%)
 508. (0.00000) RY (10) H 23            s(  1.78%)p12.77( 22.69%)d42.53( 75.53%)
 509. (0.00000) RY (11) H 23            s(  1.62%)p15.94( 25.89%)d44.63( 72.49%)
 510. (0.00000) RY (12) H 23            s(  0.86%)p11.03(  9.44%)d99.99( 89.71%)
 511. (0.00000) RY (13) H 23            s(  0.16%)p99.99( 39.74%)d99.99( 60.10%)
 512. (0.00077) RY ( 1) H 24            s( 97.81%)p 0.02(  1.70%)d 0.01(  0.49%)
                                         0.0003  0.9890  0.0024  0.0522  0.0073
                                        -0.0911  0.0397 -0.0306  0.0579 -0.0176
                                        -0.0110 -0.0639 -0.0070  0.0185
 513. (0.00010) RY ( 2) H 24            s(  1.14%)p61.65( 70.24%)d25.11( 28.62%)
                                         0.0026 -0.0356  0.1006  0.8243  0.0861
                                         0.0591  0.0318 -0.0938 -0.0468  0.4069
                                        -0.3444  0.0212  0.0371  0.0124
 514. (0.00009) RY ( 3) H 24            s(  9.05%)p 6.95( 62.85%)d 3.11( 28.10%)
 515. (0.00003) RY ( 4) H 24            s(  1.08%)p87.32( 94.00%)d 4.57(  4.92%)
 516. (0.00002) RY ( 5) H 24            s( 22.18%)p 2.86( 63.40%)d 0.65( 14.42%)
 517. (0.00001) RY ( 6) H 24            s( 32.33%)p 1.77( 57.27%)d 0.32( 10.40%)
 518. (0.00000) RY ( 7) H 24            s(  2.71%)p31.17( 84.58%)d 4.68( 12.71%)
 519. (0.00000) RY ( 8) H 24            s( 12.28%)p 1.59( 19.56%)d 5.55( 68.16%)
 520. (0.00000) RY ( 9) H 24            s(  1.64%)p13.93( 22.86%)d46.00( 75.49%)
 521. (0.00000) RY (10) H 24            s(  4.61%)p 1.54(  7.11%)d19.14( 88.27%)
 522. (0.00000) RY (11) H 24            s(  1.13%)p38.52( 43.68%)d48.66( 55.18%)
 523. (0.00000) RY (12) H 24            s(  1.21%)p16.89( 20.50%)d64.51( 78.29%)
 524. (0.00000) RY (13) H 24            s( 12.88%)p 4.05( 52.20%)d 2.71( 34.93%)
 525. (0.00039) RY ( 1) H 25            s( 90.88%)p 0.07(  6.52%)d 0.03(  2.60%)
                                        -0.0006  0.9532  0.0142 -0.0435  0.1114
                                        -0.0280 -0.0212 -0.2028  0.0922 -0.0774
                                        -0.1251  0.0581  0.0265 -0.0165
 526. (0.00009) RY ( 2) H 25            s(  0.09%)p99.99( 66.00%)d99.99( 33.90%)
 527. (0.00008) RY ( 3) H 25            s( 21.71%)p 2.45( 53.11%)d 1.16( 25.18%)
 528. (0.00003) RY ( 4) H 25            s(  7.59%)p11.54( 87.62%)d 0.63(  4.78%)
 529. (0.00001) RY ( 5) H 25            s( 31.23%)p 1.56( 48.64%)d 0.64( 20.13%)
 530. (0.00001) RY ( 6) H 25            s(  3.54%)p22.34( 79.13%)d 4.89( 17.33%)
 531. (0.00000) RY ( 7) H 25            s( 20.68%)p 2.83( 58.61%)d 1.00( 20.70%)
 532. (0.00000) RY ( 8) H 25            s(  4.89%)p 4.06( 19.83%)d15.39( 75.28%)
 533. (0.00000) RY ( 9) H 25            s(  0.69%)p25.64( 17.69%)d99.99( 81.62%)
 534. (0.00000) RY (10) H 25            s(  0.21%)p99.99( 39.85%)d99.99( 59.95%)
 535. (0.00000) RY (11) H 25            s(  0.89%)p14.48( 12.91%)d96.66( 86.19%)
 536. (0.00000) RY (12) H 25            s(  6.49%)p 7.32( 47.46%)d 7.10( 46.06%)
 537. (0.00000) RY (13) H 25            s( 11.16%)p 5.61( 62.58%)d 2.35( 26.26%)


 NHO DIRECTIONALITY AND BOND BENDING (deviation from line of nuclear centers at
                                      the position of maximum hybrid amplitude)

         [Thresholds for printing:  angular deviation  >  1.0 degree]
                                    p- or d-character  > 25.0%
                                    orbital occupancy  >  0.10e

                        Line of Centers        Hybrid 1             Hybrid 2
                        ---------------  -------------------  ------------------
           NBO            Theta   Phi    Theta   Phi    Dev   Theta   Phi    Dev
 ===============================================================================
  12. LP ( 1) O  1          --     --     89.9   98.7   --      --     --    --
  13. LP ( 2) O  1          --     --     89.4  190.0   --      --     --    --
  14. LP ( 3) O  1          --     --    179.0  243.8   --      --     --    --
  15. LP ( 1) N  4          --     --     89.4   89.9   --      --     --    --
  16. LP ( 1) O  9          --     --     89.3  275.5   --      --     --    --
  17. LP ( 2) O  9          --     --    179.6  343.3   --      --     --    --
  18. BD ( 1) O  1- C  2   90.0  278.6     --     --    --     89.9   97.3   1.3
  19. BD ( 1) C  2- C  3   89.6  327.3    89.6  328.8   1.5    90.3  146.2   1.2
  20. BD ( 2) C  2- C  3   89.6  327.3   177.8  334.7  88.1   179.0   79.3  89.2
  21. BD ( 1) C  2- O  9   90.4  216.9    90.7  213.9   3.1    89.8   38.0   1.1
  22. BD ( 1) C  3- N  4   89.2   26.6    89.2   27.7   1.1     --     --    --
  24. BD ( 1) N  4- C  5   89.9  330.7     --     --    --     89.8  149.7   1.0
  25. BD ( 2) N  4- C  5   89.9  330.7   178.1  336.4  88.2   177.8  133.8  87.7
  26. BD ( 1) C  5- C  6   89.4   28.3    90.4   29.4   1.5     --     --    --
  29. BD ( 1) C  6- C  8   43.6  328.7     --     --    --    137.5  148.5   1.2
  38. BD ( 1) C 10- C 11   23.9  130.0     --     --    --    156.8  307.7   1.2
  39. BD ( 1) C 10- H 21  128.2   88.6   129.1   87.8   1.1     --     --    --
  40. BD ( 1) C 10- H 22  110.1  224.9   110.2  226.1   1.1     --     --    --


 3-Center, 4-Electron A:-B-:C Hyperbonds (A-B :C <=> A: B-C)
              [threshold for detection: 33.3%]

                                                  NBOs       3-center hybrids
                                              -------------  ----------------
       Hyperbond A:-B-:C   %A-B/%B-C   occ    BD(A-B) LP(C)  h(A)  h(B)  h(C)
      -------------------  ---------  ------  ------- -----  ----  ----  ----
   1.  C  3:- C  2-: O  1  52.8/47.2  3.8442      20     14    22    23    14


 SECOND ORDER PERTURBATION THEORY ANALYSIS OF FOCK MATRIX IN NBO BASIS

     Threshold for printing:   0.50 kcal/mol
                                                          E(2) E(NL)-E(L) F(L,NL)
      Donor (L) NBO              Acceptor (NL) NBO      kcal/mol   a.u.    a.u.
 ===============================================================================

 within unit  1
   12. LP ( 1) O  1            45. BD*( 1) C  2- C  3      3.72    1.21   0.060
   12. LP ( 1) O  1            47. BD*( 1) C  2- O  9      1.47    1.02   0.035
   12. LP ( 1) O  1            72. RY ( 3) O  1            0.63    2.73   0.037
   12. LP ( 1) O  1            96. RY ( 1) C  2           14.60    1.89   0.148
   13. LP ( 2) O  1            45. BD*( 1) C  2- C  3     18.94    0.88   0.115
   13. LP ( 2) O  1            47. BD*( 1) C  2- O  9     45.21    0.69   0.158
   13. LP ( 2) O  1            66. BD*( 1) C 10- H 22      0.85    0.71   0.022
   13. LP ( 2) O  1            97. RY ( 2) C  2            0.81    1.82   0.034
   13. LP ( 2) O  1            99. RY ( 4) C  2            1.69    3.61   0.070
   14. LP ( 3) O  1            46. BD*( 2) C  2- C  3    138.94    0.34   0.193
   14. LP ( 3) O  1            70. RY ( 1) O  1            0.51    1.09   0.021
   14. LP ( 3) O  1            98. RY ( 3) C  2            4.55    1.87   0.082
   14. LP ( 3) O  1           100. RY ( 5) C  2            1.46    2.26   0.051
   15. LP ( 1) N  4            45. BD*( 1) C  2- C  3      5.30    0.91   0.062
   15. LP ( 1) N  4            47. BD*( 1) C  2- O  9      0.56    0.72   0.018
   15. LP ( 1) N  4            49. BD*( 1) C  3- H 12     13.74    0.79   0.093
   15. LP ( 1) N  4            52. BD*( 1) C  5- C  6      6.30    0.78   0.063
   15. LP ( 1) N  4            53. BD*( 1) C  5- H 13     17.40    0.76   0.103
   15. LP ( 1) N  4            57. BD*( 1) C  7- H 15      0.97    0.78   0.024
   15. LP ( 1) N  4           123. RY ( 2) C  3            3.41    1.77   0.069
   15. LP ( 1) N  4           174. RY ( 1) C  5            5.56    1.51   0.082
   16. LP ( 1) O  9            44. BD*( 1) O  1- C  2      7.21    1.26   0.085
   16. LP ( 1) O  9            48. BD*( 1) C  3- N  4      0.64    1.18   0.025
   16. LP ( 1) O  9            64. BD*( 1) C 10- C 11      0.65    0.98   0.023
   16. LP ( 1) O  9            65. BD*( 1) C 10- H 21      2.82    0.99   0.047
   16. LP ( 1) O  9            66. BD*( 1) C 10- H 22      2.81    0.99   0.047
   16. LP ( 1) O  9            96. RY ( 1) C  2            1.25    1.84   0.043
   16. LP ( 1) O  9            97. RY ( 2) C  2            1.19    2.10   0.045
   16. LP ( 1) O  9           304. RY ( 1) C 10            2.00    1.91   0.055
   16. LP ( 1) O  9           305. RY ( 2) C 10            0.53    1.74   0.027
   17. LP ( 2) O  9            46. BD*( 2) C  2- C  3     37.12    0.43   0.113
   17. LP ( 2) O  9            64. BD*( 1) C 10- C 11      9.73    0.77   0.077
   17. LP ( 2) O  9            65. BD*( 1) C 10- H 21      5.08    0.78   0.056
   17. LP ( 2) O  9            66. BD*( 1) C 10- H 22      1.27    0.78   0.028
   17. LP ( 2) O  9            69. BD*( 1) C 11- H 25      0.89    0.79   0.024
   17. LP ( 2) O  9           100. RY ( 5) C  2            1.56    2.35   0.054
   17. LP ( 2) O  9           306. RY ( 3) C 10            1.11    2.00   0.042
   18. BD ( 1) O  1- C  2      45. BD*( 1) C  2- C  3      1.15    1.54   0.038
   18. BD ( 1) O  1- C  2      49. BD*( 1) C  3- H 12      0.82    1.42   0.030
   19. BD ( 1) C  2- C  3      44. BD*( 1) O  1- C  2      0.66    1.33   0.027
   19. BD ( 1) C  2- C  3      48. BD*( 1) C  3- N  4      0.68    1.26   0.026
   19. BD ( 1) C  2- C  3      50. BD*( 1) N  4- C  5      3.60    1.35   0.062
   19. BD ( 1) C  2- C  3      63. BD*( 1) O  9- C 10      3.16    1.04   0.051
   19. BD ( 1) C  2- C  3      71. RY ( 2) O  1            0.75    1.61   0.031
   19. BD ( 1) C  2- C  3     148. RY ( 1) N  4            1.16    1.53   0.038
   19. BD ( 1) C  2- C  3     279. RY ( 2) O  9            0.53    1.50   0.025
   20. BD ( 2) C  2- C  3      46. BD*( 2) C  2- C  3      9.89    0.32   0.050
   20. BD ( 2) C  2- C  3      51. BD*( 2) N  4- C  5     44.32    0.34   0.110
   20. BD ( 2) C  2- C  3      70. RY ( 1) O  1            1.90    1.08   0.040
   20. BD ( 2) C  2- C  3     150. RY ( 3) N  4            1.37    2.09   0.048
   21. BD ( 1) C  2- O  9      48. BD*( 1) C  3- N  4      1.97    1.41   0.047
   21. BD ( 1) C  2- O  9      65. BD*( 1) C 10- H 21      0.66    1.22   0.025
   21. BD ( 1) C  2- O  9      66. BD*( 1) C 10- H 22      1.40    1.22   0.037
   21. BD ( 1) C  2- O  9     124. RY ( 3) C  3            0.64    2.18   0.033
   21. BD ( 1) C  2- O  9     305. RY ( 2) C 10            2.10    1.97   0.057
   22. BD ( 1) C  3- N  4      45. BD*( 1) C  2- C  3      0.73    1.32   0.028
   22. BD ( 1) C  3- N  4      47. BD*( 1) C  2- O  9      2.11    1.13   0.044
   22. BD ( 1) C  3- N  4      50. BD*( 1) N  4- C  5      0.76    1.44   0.030
   22. BD ( 1) C  3- N  4      52. BD*( 1) C  5- C  6      3.58    1.19   0.058
   22. BD ( 1) C  3- N  4      96. RY ( 1) C  2            1.24    2.01   0.045
   22. BD ( 1) C  3- N  4     176. RY ( 3) C  5            2.56    2.18   0.067
   23. BD ( 1) C  3- H 12      44. BD*( 1) O  1- C  2      5.60    1.20   0.073
   23. BD ( 1) C  3- H 12      47. BD*( 1) C  2- O  9      0.52    0.91   0.019
   23. BD ( 1) C  3- H 12      97. RY ( 2) C  2            0.93    2.04   0.039
   23. BD ( 1) C  3- H 12     148. RY ( 1) N  4            0.97    1.40   0.033
   24. BD ( 1) N  4- C  5      45. BD*( 1) C  2- C  3      1.45    1.38   0.040
   24. BD ( 1) N  4- C  5      48. BD*( 1) C  3- N  4      0.92    1.41   0.032
   24. BD ( 1) N  4- C  5      52. BD*( 1) C  5- C  6      0.55    1.26   0.023
   24. BD ( 1) N  4- C  5      55. BD*( 1) C  6- C  8      0.54    1.20   0.023
   24. BD ( 1) N  4- C  5     124. RY ( 3) C  3            2.16    2.18   0.061
   25. BD ( 2) N  4- C  5      46. BD*( 2) C  2- C  3     12.87    0.41   0.065
   25. BD ( 2) N  4- C  5      51. BD*( 2) N  4- C  5      1.40    0.43   0.022
   25. BD ( 2) N  4- C  5      55. BD*( 1) C  6- C  8      2.34    0.75   0.037
   25. BD ( 2) N  4- C  5      56. BD*( 1) C  6- H 14      3.59    0.75   0.046
   25. BD ( 2) N  4- C  5     122. RY ( 1) C  3            2.62    0.94   0.044
   26. BD ( 1) C  5- C  6      48. BD*( 1) C  3- N  4      4.53    1.20   0.066
   26. BD ( 1) C  5- C  6      50. BD*( 1) N  4- C  5      0.76    1.29   0.028
   26. BD ( 1) C  5- C  6      57. BD*( 1) C  7- H 15      1.86    1.03   0.039
   26. BD ( 1) C  5- C  6      60. BD*( 1) C  8- H 18      2.00    1.02   0.040
   26. BD ( 1) C  5- C  6     148. RY ( 1) N  4            0.93    1.47   0.033
   26. BD ( 1) C  5- C  6     226. RY ( 1) C  7            0.54    1.79   0.028
   27. BD ( 1) C  5- H 13      54. BD*( 1) C  6- C  7      3.02    0.94   0.048
   27. BD ( 1) C  5- H 13     148. RY ( 1) N  4            1.53    1.41   0.041
   27. BD ( 1) C  5- H 13     149. RY ( 2) N  4            0.86    1.78   0.035
   27. BD ( 1) C  5- H 13     200. RY ( 1) C  6            0.69    1.68   0.030
   27. BD ( 1) C  5- H 13     201. RY ( 2) C  6            0.56    1.98   0.030
   28. BD ( 1) C  6- C  7      53. BD*( 1) C  5- H 13      2.55    1.01   0.045
   28. BD ( 1) C  6- C  7      61. BD*( 1) C  8- H 19      1.91    1.02   0.039
   28. BD ( 1) C  6- C  7     176. RY ( 3) C  5            0.69    2.02   0.033
   28. BD ( 1) C  6- C  7     252. RY ( 1) C  8            0.64    1.61   0.029
   29. BD ( 1) C  6- C  8      50. BD*( 1) N  4- C  5      1.32    1.28   0.037
   29. BD ( 1) C  6- C  8      51. BD*( 2) N  4- C  5      2.49    0.66   0.036
   29. BD ( 1) C  6- C  8      59. BD*( 1) C  7- H 17      1.93    1.04   0.040
   29. BD ( 1) C  6- C  8     227. RY ( 2) C  7            0.66    1.85   0.031
   30. BD ( 1) C  6- H 14      50. BD*( 1) N  4- C  5      1.07    1.21   0.032
   30. BD ( 1) C  6- H 14      51. BD*( 2) N  4- C  5      5.29    0.59   0.050
   30. BD ( 1) C  6- H 14      58. BD*( 1) C  7- H 16      3.56    0.95   0.052
   30. BD ( 1) C  6- H 14      62. BD*( 1) C  8- H 20      3.67    0.94   0.052
   30. BD ( 1) C  6- H 14     175. RY ( 2) C  5            0.65    1.26   0.025
   31. BD ( 1) C  7- H 15      52. BD*( 1) C  5- C  6      3.51    0.98   0.052
   32. BD ( 1) C  7- H 16      56. BD*( 1) C  6- H 14      3.27    0.92   0.049
   33. BD ( 1) C  7- H 17      55. BD*( 1) C  6- C  8      3.60    0.92   0.051
   33. BD ( 1) C  7- H 17     201. RY ( 2) C  6            0.72    1.97   0.034
   34. BD ( 1) C  8- H 18      52. BD*( 1) C  5- C  6      3.07    0.98   0.049
   35. BD ( 1) C  8- H 19      54. BD*( 1) C  6- C  7      3.34    0.94   0.050
   36. BD ( 1) C  8- H 20      56. BD*( 1) C  6- H 14      2.95    0.93   0.047
   36. BD ( 1) C  8- H 20     200. RY ( 1) C  6            0.71    1.68   0.031
   37. BD ( 1) O  9- C 10      45. BD*( 1) C  2- C  3      1.80    1.40   0.045
   37. BD ( 1) O  9- C 10      69. BD*( 1) C 11- H 25      0.96    1.25   0.031
   37. BD ( 1) O  9- C 10      96. RY ( 1) C  2            1.04    2.09   0.042
   38. BD ( 1) C 10- C 11     278. RY ( 1) O  9            1.06    1.37   0.034
   39. BD ( 1) C 10- H 21      68. BD*( 1) C 11- H 24      3.07    0.96   0.049
   39. BD ( 1) C 10- H 21     278. RY ( 1) O  9            0.72    1.31   0.027
   40. BD ( 1) C 10- H 22      47. BD*( 1) C  2- O  9      3.85    0.93   0.053
   40. BD ( 1) C 10- H 22      67. BD*( 1) C 11- H 23      2.79    0.98   0.047
   41. BD ( 1) C 11- H 23      66. BD*( 1) C 10- H 22      2.78    0.94   0.046
   42. BD ( 1) C 11- H 24      63. BD*( 1) O  9- C 10      0.59    0.92   0.021
   42. BD ( 1) C 11- H 24      65. BD*( 1) C 10- H 21      2.57    0.95   0.044
   43. BD ( 1) C 11- H 25      63. BD*( 1) O  9- C 10      4.26    0.92   0.056
   43. BD ( 1) C 11- H 25     307. RY ( 4) C 10            0.56    2.10   0.031


 NATURAL BOND ORBITALS (Summary):

                                                     Principal Delocalizations
           NBO                 Occupancy    Energy   (geminal,vicinal,remote)
 ===============================================================================
 Molecular unit  1  (C8H14NO2)
 ------ Lewis --------------------------------------
    1. CR ( 1) O  1             2.00000   -19.53762
    2. CR ( 1) C  2             1.99999   -10.59294
    3. CR ( 1) C  3             1.99999   -10.47717
    4. CR ( 1) N  4             1.99999   -14.70200
    5. CR ( 1) C  5             1.99999   -10.51224
    6. CR ( 1) C  6             1.99999   -10.51426
    7. CR ( 1) C  7             1.99999   -10.49734
    8. CR ( 1) C  8             1.99999   -10.50674
    9. CR ( 1) O  9             2.00000   -19.60215
   10. CR ( 1) C 10             1.99999   -10.55374
   11. CR ( 1) C 11             1.99999   -10.50152
   12. LP ( 1) O  1             1.97687    -0.60494  96(v),45(v),47(v),72(g)
   13. LP ( 2) O  1             1.85209    -0.27703  47(v),45(v),99(v),66(r)
                                                     97(v)
   14. LP ( 3) O  1             1.63589    -0.25332  46(v),98(v),100(v),70(g)
   15. LP ( 1) N  4             1.88246    -0.31098  53(v),49(v),52(v),174(v)
                                                     45(v),123(v),57(r),47(r)
   16. LP ( 1) O  9             1.96365    -0.55245  44(v),65(v),66(v),304(v)
                                                     96(v),97(v),64(v),48(r)
                                                     305(v)
   17. LP ( 2) O  9             1.86515    -0.34494  46(v),64(v),65(v),100(v)
                                                     66(v),306(v),69(r)
   18. BD ( 1) O  1- C  2       1.99642    -0.93679  45(g),49(v)
   19. BD ( 1) C  2- C  3       1.98278    -0.62448  50(v),63(v),148(v),71(v)
                                                     48(g),44(g),279(v)
   20. BD ( 2) C  2- C  3       1.77362    -0.23984  51(v),46(g),70(v),150(v)
   21. BD ( 1) C  2- O  9       1.98835    -0.78361  305(v),48(v),66(v),65(v)
                                                     124(v)
   22. BD ( 1) C  3- N  4       1.98292    -0.72122  52(v),176(v),47(v),96(v)
                                                     50(g),45(g)
   23. BD ( 1) C  3- H 12       1.98437    -0.49499  44(v),148(v),97(v),47(v)
   24. BD ( 1) N  4- C  5       1.99101    -0.78225  124(v),45(v),48(g),52(g)
                                                     55(v)
   25. BD ( 2) N  4- C  5       1.95211    -0.32975  46(v),56(v),122(v),55(v)
                                                     51(g)
   26. BD ( 1) C  5- C  6       1.97920    -0.56490  48(v),60(v),57(v),148(v)
                                                     50(g),226(v)
   27. BD ( 1) C  5- H 13       1.98701    -0.50918  54(v),148(v),149(v),200(v)
                                                     201(v)
   28. BD ( 1) C  6- C  7       1.98613    -0.55940  53(v),61(v),176(v),252(v)
   29. BD ( 1) C  6- C  8       1.98284    -0.55993  51(v),59(v),50(v),227(v)
   30. BD ( 1) C  6- H 14       1.96166    -0.48479  51(v),62(v),58(v),50(v)
                                                     175(v)
   31. BD ( 1) C  7- H 15       1.99016    -0.50416  52(v)
   32. BD ( 1) C  7- H 16       1.98971    -0.49876  56(v)
   33. BD ( 1) C  7- H 17       1.98913    -0.49825  55(v),201(v)
   34. BD ( 1) C  8- H 18       1.99072    -0.51065  52(v)
   35. BD ( 1) C  8- H 19       1.98994    -0.50982  54(v)
   36. BD ( 1) C  8- H 20       1.99106    -0.50867  56(v),200(v)
   37. BD ( 1) O  9- C 10       1.99262    -0.80090  45(v),96(v),69(v)
   38. BD ( 1) C 10- C 11       1.99488    -0.57775  278(v)
   39. BD ( 1) C 10- H 21       1.98743    -0.51220  68(v),278(v)
   40. BD ( 1) C 10- H 22       1.98355    -0.51430  47(v),67(v)
   41. BD ( 1) C 11- H 23       1.99026    -0.50642  66(v)
   42. BD ( 1) C 11- H 24       1.99096    -0.51011  65(v),63(v)
   43. BD ( 1) C 11- H 25       1.98746    -0.51188  63(v),307(v)
 ------ non-Lewis ----------------------------------
   44. BD*( 1) O  1- C  2       0.02031     0.70868
   45. BD*( 1) C  2- C  3       0.05323     0.60151
   46. BD*( 2) C  2- C  3       0.43472     0.08317
   47. BD*( 1) C  2- O  9       0.11612     0.41217
   48. BD*( 1) C  3- N  4       0.01222     0.63082
   49. BD*( 1) C  3- H 12       0.03653     0.47983
   50. BD*( 1) N  4- C  5       0.00922     0.72109
   51. BD*( 2) N  4- C  5       0.27043     0.10501
   52. BD*( 1) C  5- C  6       0.03271     0.47372
   53. BD*( 1) C  5- H 13       0.04942     0.45028
   54. BD*( 1) C  6- C  7       0.01369     0.43429
   55. BD*( 1) C  6- C  8       0.01667     0.41787
   56. BD*( 1) C  6- H 14       0.03176     0.41710
   57. BD*( 1) C  7- H 15       0.00715     0.46420
   58. BD*( 1) C  7- H 16       0.01013     0.46257
   59. BD*( 1) C  7- H 17       0.00655     0.47616
   60. BD*( 1) C  8- H 18       0.00794     0.45357
   61. BD*( 1) C  8- H 19       0.00657     0.45717
   62. BD*( 1) C  8- H 20       0.01023     0.45180
   63. BD*( 1) O  9- C 10       0.02257     0.41093
   64. BD*( 1) C 10- C 11       0.02081     0.42599
   65. BD*( 1) C 10- H 21       0.02939     0.43501
   66. BD*( 1) C 10- H 22       0.02102     0.43476
   67. BD*( 1) C 11- H 23       0.00886     0.46314
   68. BD*( 1) C 11- H 24       0.00834     0.45092
   69. BD*( 1) C 11- H 25       0.00478     0.44991
   70. RY ( 1) O  1             0.00264     0.83596
   71. RY ( 2) O  1             0.00208     0.98899
   72. RY ( 3) O  1             0.00028     2.12732
   73. RY ( 4) O  1             0.00014     2.17490
   74. RY ( 5) O  1             0.00012     1.78252
   75. RY ( 6) O  1             0.00007     2.23401
   76. RY ( 7) O  1             0.00005     2.56685
   77. RY ( 8) O  1             0.00001     3.66839
   78. RY ( 9) O  1             0.00001     3.93043
   79. RY (10) O  1             0.00000     3.87435
   80. RY (11) O  1             0.00000     3.05947
   81. RY (12) O  1             0.00000     6.46278
   82. RY (13) O  1             0.00000    11.39313
   83. RY (14) O  1             0.00000     5.84671
   84. RY (15) O  1             0.00000     5.59553
   85. RY (16) O  1             0.00000     4.33728
   86. RY (17) O  1             0.00000     2.95028
   87. RY (18) O  1             0.00000     5.18568
   88. RY (19) O  1             0.00000    19.43104
   89. RY (20) O  1             0.00000     6.22258
   90. RY (21) O  1             0.00000     6.61380
   91. RY (22) O  1             0.00000     6.36398
   92. RY (23) O  1             0.00000     7.48886
   93. RY (24) O  1             0.00000     6.81909
   94. RY (25) O  1             0.00000     7.45434
   95. RY (26) O  1             0.00000    14.71438
   96. RY ( 1) C  2             0.01723     1.28508
   97. RY ( 2) C  2             0.00620     1.54640
   98. RY ( 3) C  2             0.00542     1.61935
   99. RY ( 4) C  2             0.00228     3.33244
  100. RY ( 5) C  2             0.00197     2.00924
  101. RY ( 6) C  2             0.00078     2.11206
  102. RY ( 7) C  2             0.00056     1.29476
  103. RY ( 8) C  2             0.00038     3.40015
  104. RY ( 9) C  2             0.00011     1.90418
  105. RY (10) C  2             0.00008     1.69706
  106. RY (11) C  2             0.00005     2.71658
  107. RY (12) C  2             0.00003     3.09244
  108. RY (13) C  2             0.00002     2.97284
  109. RY (14) C  2             0.00001     2.84768
  110. RY (15) C  2             0.00001     2.99109
  111. RY (16) C  2             0.00000     5.88138
  112. RY (17) C  2             0.00000     5.88626
  113. RY (18) C  2             0.00000     7.94885
  114. RY (19) C  2             0.00000     6.76126
  115. RY (20) C  2             0.00000     3.10982
  116. RY (21) C  2             0.00000     3.07361
  117. RY (22) C  2             0.00000     4.12021
  118. RY (23) C  2             0.00000     5.27469
  119. RY (24) C  2             0.00000     2.80494
  120. RY (25) C  2             0.00000     3.51287
  121. RY (26) C  2             0.00000     4.56048
  122. RY ( 1) C  3             0.00602     0.60592
  123. RY ( 2) C  3             0.00512     1.45759
  124. RY ( 3) C  3             0.00296     1.39758
  125. RY ( 4) C  3             0.00097     1.29063
  126. RY ( 5) C  3             0.00029     2.40223
  127. RY ( 6) C  3             0.00023     2.37034
  128. RY ( 7) C  3             0.00021     3.01659
  129. RY ( 8) C  3             0.00015     1.63370
  130. RY ( 9) C  3             0.00013     2.89806
  131. RY (10) C  3             0.00004     2.63047
  132. RY (11) C  3             0.00004     3.67427
  133. RY (12) C  3             0.00001     2.51282
  134. RY (13) C  3             0.00001     3.33836
  135. RY (14) C  3             0.00001     2.46753
  136. RY (15) C  3             0.00001     2.94082
  137. RY (16) C  3             0.00000     3.46020
  138. RY (17) C  3             0.00000     3.66129
  139. RY (18) C  3             0.00000     3.92867
  140. RY (19) C  3             0.00000     4.33315
  141. RY (20) C  3             0.00000     8.19103
  142. RY (21) C  3             0.00000     3.36808
  143. RY (22) C  3             0.00000     5.84598
  144. RY (23) C  3             0.00000     6.55650
  145. RY (24) C  3             0.00000     5.64957
  146. RY (25) C  3             0.00000     3.04595
  147. RY (26) C  3             0.00000     3.37685
  148. RY ( 1) N  4             0.00731     0.90334
  149. RY ( 2) N  4             0.00226     1.26958
  150. RY ( 3) N  4             0.00123     1.84560
  151. RY ( 4) N  4             0.00070     1.34866
  152. RY ( 5) N  4             0.00032     1.46311
  153. RY ( 6) N  4             0.00018     2.62639
  154. RY ( 7) N  4             0.00014     4.14922
  155. RY ( 8) N  4             0.00006     3.30131
  156. RY ( 9) N  4             0.00003     2.08158
  157. RY (10) N  4             0.00002     2.04437
  158. RY (11) N  4             0.00001     5.66224
  159. RY (12) N  4             0.00001     3.84854
  160. RY (13) N  4             0.00001     3.34463
  161. RY (14) N  4             0.00000     3.26367
  162. RY (15) N  4             0.00000    18.01036
  163. RY (16) N  4             0.00000     4.81725
  164. RY (17) N  4             0.00000     4.78185
  165. RY (18) N  4             0.00000     6.83996
  166. RY (19) N  4             0.00000     6.75322
  167. RY (20) N  4             0.00000     4.77391
  168. RY (21) N  4             0.00000     8.12514
  169. RY (22) N  4             0.00000     5.75710
  170. RY (23) N  4             0.00000     4.32946
  171. RY (24) N  4             0.00000     4.50080
  172. RY (25) N  4             0.00000     4.55661
  173. RY (26) N  4             0.00000     3.33799
  174. RY ( 1) C  5             0.00847     1.20265
  175. RY ( 2) C  5             0.00388     0.77260
  176. RY ( 3) C  5             0.00329     1.46174
  177. RY ( 4) C  5             0.00083     1.68637
  178. RY ( 5) C  5             0.00033     3.00914
  179. RY ( 6) C  5             0.00017     3.37802
  180. RY ( 7) C  5             0.00011     2.16064
  181. RY ( 8) C  5             0.00009     3.35202
  182. RY ( 9) C  5             0.00006     2.30861
  183. RY (10) C  5             0.00005     2.65307
  184. RY (11) C  5             0.00004     2.32228
  185. RY (12) C  5             0.00002     1.82758
  186. RY (13) C  5             0.00001     2.07459
  187. RY (14) C  5             0.00001     2.59824
  188. RY (15) C  5             0.00000     2.87879
  189. RY (16) C  5             0.00000     3.50237
  190. RY (17) C  5             0.00000     3.66473
  191. RY (18) C  5             0.00000     9.85197
  192. RY (19) C  5             0.00000     3.17496
  193. RY (20) C  5             0.00000    11.41893
  194. RY (21) C  5             0.00000     3.48983
  195. RY (22) C  5             0.00000     2.99722
  196. RY (23) C  5             0.00000     5.20042
  197. RY (24) C  5             0.00000     2.55145
  198. RY (25) C  5             0.00000     3.04247
  199. RY (26) C  5             0.00000     3.34871
  200. RY ( 1) C  6             0.00288     1.17168
  201. RY ( 2) C  6             0.00183     1.46901
  202. RY ( 3) C  6             0.00127     1.56759
  203. RY ( 4) C  6             0.00070     2.27081
  204. RY ( 5) C  6             0.00048     2.43182
  205. RY ( 6) C  6             0.00030     2.82958
  206. RY ( 7) C  6             0.00014     3.01291
  207. RY ( 8) C  6             0.00010     4.07566
  208. RY ( 9) C  6             0.00008     3.45729
  209. RY (10) C  6             0.00006     3.52676
  210. RY (11) C  6             0.00004     2.54973
  211. RY (12) C  6             0.00001     2.35880
  212. RY (13) C  6             0.00000     2.11923
  213. RY (14) C  6             0.00000     3.99014
  214. RY (15) C  6             0.00000     4.29272
  215. RY (16) C  6             0.00000     3.65650
  216. RY (17) C  6             0.00000     3.40647
  217. RY (18) C  6             0.00000     3.34019
  218. RY (19) C  6             0.00000     3.49190
  219. RY (20) C  6             0.00000     3.91687
  220. RY (21) C  6             0.00000     3.55928
  221. RY (22) C  6             0.00000     3.10156
  222. RY (23) C  6             0.00000     5.70371
  223. RY (24) C  6             0.00000     8.33355
  224. RY (25) C  6             0.00000     3.61815
  225. RY (26) C  6             0.00000     3.38114
  226. RY ( 1) C  7             0.00224     1.22056
  227. RY ( 2) C  7             0.00138     1.28960
  228. RY ( 3) C  7             0.00028     1.13878
  229. RY ( 4) C  7             0.00022     2.16236
  230. RY ( 5) C  7             0.00015     2.00922
  231. RY ( 6) C  7             0.00007     2.10246
  232. RY ( 7) C  7             0.00005     2.21116
  233. RY ( 8) C  7             0.00004     2.76640
  234. RY ( 9) C  7             0.00002     1.87340
  235. RY (10) C  7             0.00001     2.17099
  236. RY (11) C  7             0.00000     2.98308
  237. RY (12) C  7             0.00000     3.50351
  238. RY (13) C  7             0.00000     2.29823
  239. RY (14) C  7             0.00000     5.43063
  240. RY (15) C  7             0.00000     3.65035
  241. RY (16) C  7             0.00000     2.55589
  242. RY (17) C  7             0.00000     3.44413
  243. RY (18) C  7             0.00000     6.71497
  244. RY (19) C  7             0.00000     3.56268
  245. RY (20) C  7             0.00000     3.69074
  246. RY (21) C  7             0.00000     3.40148
  247. RY (22) C  7             0.00000     3.40568
  248. RY (23) C  7             0.00000     5.35208
  249. RY (24) C  7             0.00000     5.40378
  250. RY (25) C  7             0.00000     3.37078
  251. RY (26) C  7             0.00000     8.34757
  252. RY ( 1) C  8             0.00154     1.05402
  253. RY ( 2) C  8             0.00090     1.40633
  254. RY ( 3) C  8             0.00021     1.90003
  255. RY ( 4) C  8             0.00016     2.20305
  256. RY ( 5) C  8             0.00011     1.85330
  257. RY ( 6) C  8             0.00006     1.68134
  258. RY ( 7) C  8             0.00002     2.04670
  259. RY ( 8) C  8             0.00001     2.21303
  260. RY ( 9) C  8             0.00001     1.84519
  261. RY (10) C  8             0.00000     2.09562
  262. RY (11) C  8             0.00000     2.78804
  263. RY (12) C  8             0.00000     4.26200
  264. RY (13) C  8             0.00000     4.94375
  265. RY (14) C  8             0.00000     9.48223
  266. RY (15) C  8             0.00000     3.13881
  267. RY (16) C  8             0.00000     4.13060
  268. RY (17) C  8             0.00000     3.43958
  269. RY (18) C  8             0.00000     3.42378
  270. RY (19) C  8             0.00000     5.56881
  271. RY (20) C  8             0.00000     3.73487
  272. RY (21) C  8             0.00000     3.91031
  273. RY (22) C  8             0.00000     3.47721
  274. RY (23) C  8             0.00000     3.99111
  275. RY (24) C  8             0.00000     3.41400
  276. RY (25) C  8             0.00000     3.79120
  277. RY (26) C  8             0.00000     3.98437
  278. RY ( 1) O  9             0.00357     0.79605
  279. RY ( 2) O  9             0.00224     0.88031
  280. RY ( 3) O  9             0.00101     2.18893
  281. RY ( 4) O  9             0.00039     2.01644
  282. RY ( 5) O  9             0.00019     2.33505
  283. RY ( 6) O  9             0.00010     3.10332
  284. RY ( 7) O  9             0.00008     3.84340
  285. RY ( 8) O  9             0.00006     3.01232
  286. RY ( 9) O  9             0.00002     4.42058
  287. RY (10) O  9             0.00002     3.33669
  288. RY (11) O  9             0.00001     4.07187
  289. RY (12) O  9             0.00000     5.18785
  290. RY (13) O  9             0.00000     4.54002
  291. RY (14) O  9             0.00000     4.87419
  292. RY (15) O  9             0.00000     4.00998
  293. RY (16) O  9             0.00000     4.89250
  294. RY (17) O  9             0.00000    23.72980
  295. RY (18) O  9             0.00000    16.69701
  296. RY (19) O  9             0.00000     8.76143
  297. RY (20) O  9             0.00000     6.48636
  298. RY (21) O  9             0.00000     6.33821
  299. RY (22) O  9             0.00000     6.00323
  300. RY (23) O  9             0.00000     8.07172
  301. RY (24) O  9             0.00000     5.76562
  302. RY (25) O  9             0.00000     5.64800
  303. RY (26) O  9             0.00000     5.71406
  304. RY ( 1) C 10             0.00358     1.35973
  305. RY ( 2) C 10             0.00293     1.18862
  306. RY ( 3) C 10             0.00219     1.65746
  307. RY ( 4) C 10             0.00085     1.59172
  308. RY ( 5) C 10             0.00046     1.99474
  309. RY ( 6) C 10             0.00026     3.35046
  310. RY ( 7) C 10             0.00020     2.49486
  311. RY ( 8) C 10             0.00015     2.01167
  312. RY ( 9) C 10             0.00005     3.20722
  313. RY (10) C 10             0.00004     2.81212
  314. RY (11) C 10             0.00002     1.74179
  315. RY (12) C 10             0.00001     2.06645
  316. RY (13) C 10             0.00000     3.15172
  317. RY (14) C 10             0.00000     4.67902
  318. RY (15) C 10             0.00000     5.68971
  319. RY (16) C 10             0.00000     3.67995
  320. RY (17) C 10             0.00000     3.63958
  321. RY (18) C 10             0.00000     4.92415
  322. RY (19) C 10             0.00000     4.39533
  323. RY (20) C 10             0.00000     5.41587
  324. RY (21) C 10             0.00000     4.04439
  325. RY (22) C 10             0.00000     5.59920
  326. RY (23) C 10             0.00000     4.85391
  327. RY (24) C 10             0.00000     2.73104
  328. RY (25) C 10             0.00000     3.62198
  329. RY (26) C 10             0.00000     4.27716
  330. RY ( 1) C 11             0.00132     1.18486
  331. RY ( 2) C 11             0.00050     1.29563
  332. RY ( 3) C 11             0.00035     1.88444
  333. RY ( 4) C 11             0.00023     1.63868
  334. RY ( 5) C 11             0.00009     2.23917
  335. RY ( 6) C 11             0.00006     1.70133
  336. RY ( 7) C 11             0.00003     1.57298
  337. RY ( 8) C 11             0.00001     2.00235
  338. RY ( 9) C 11             0.00001     1.98193
  339. RY (10) C 11             0.00000     2.11958
  340. RY (11) C 11             0.00000     3.40802
  341. RY (12) C 11             0.00000     6.80471
  342. RY (13) C 11             0.00000     2.15831
  343. RY (14) C 11             0.00000     4.08678
  344. RY (15) C 11             0.00000     3.90573
  345. RY (16) C 11             0.00000     2.69132
  346. RY (17) C 11             0.00000     3.96537
  347. RY (18) C 11             0.00000    10.27005
  348. RY (19) C 11             0.00000     3.60666
  349. RY (20) C 11             0.00000     3.81059
  350. RY (21) C 11             0.00000     3.70394
  351. RY (22) C 11             0.00000     4.03944
  352. RY (23) C 11             0.00000     3.55731
  353. RY (24) C 11             0.00000     3.74324
  354. RY (25) C 11             0.00000     3.97345
  355. RY (26) C 11             0.00000     3.64375
  356. RY ( 1) H 12             0.00275     0.59308
  357. RY ( 2) H 12             0.00028     1.76766
  358. RY ( 3) H 12             0.00019     2.59952
  359. RY ( 4) H 12             0.00014     2.84912
  360. RY ( 5) H 12             0.00002     3.02162
  361. RY ( 6) H 12             0.00001     3.22719
  362. RY ( 7) H 12             0.00001     3.44153
  363. RY ( 8) H 12             0.00000     4.61832
  364. RY ( 9) H 12             0.00000     4.33107
  365. RY (10) H 12             0.00000     3.74356
  366. RY (11) H 12             0.00000     3.94743
  367. RY (12) H 12             0.00000     3.38526
  368. RY (13) H 12             0.00000     4.10802
  369. RY ( 1) H 13             0.00405     0.54755
  370. RY ( 2) H 13             0.00018     1.79885
  371. RY ( 3) H 13             0.00013     2.73064
  372. RY ( 4) H 13             0.00008     1.84264
  373. RY ( 5) H 13             0.00005     3.90575
  374. RY ( 6) H 13             0.00001     3.43122
  375. RY ( 7) H 13             0.00001     3.37718
  376. RY ( 8) H 13             0.00000     4.42821
  377. RY ( 9) H 13             0.00000     3.72746
  378. RY (10) H 13             0.00000     4.32461
  379. RY (11) H 13             0.00000     4.00003
  380. RY (12) H 13             0.00000     3.51837
  381. RY (13) H 13             0.00000     3.60299
  382. RY ( 1) H 14             0.00159     0.86701
  383. RY ( 2) H 14             0.00010     2.12328
  384. RY ( 3) H 14             0.00009     3.34385
  385. RY ( 4) H 14             0.00007     3.84163
  386. RY ( 5) H 14             0.00003     3.85605
  387. RY ( 6) H 14             0.00002     3.14430
  388. RY ( 7) H 14             0.00001     3.26163
  389. RY ( 8) H 14             0.00001     3.01495
  390. RY ( 9) H 14             0.00000     3.66271
  391. RY (10) H 14             0.00000     3.77711
  392. RY (11) H 14             0.00000     3.86603
  393. RY (12) H 14             0.00000     3.27475
  394. RY (13) H 14             0.00000     3.57986
  395. RY ( 1) H 15             0.00043     0.86226
  396. RY ( 2) H 15             0.00011     3.02424
  397. RY ( 3) H 15             0.00009     3.53792
  398. RY ( 4) H 15             0.00008     2.40618
  399. RY ( 5) H 15             0.00003     2.42363
  400. RY ( 6) H 15             0.00001     2.45204
  401. RY ( 7) H 15             0.00001     2.31552
  402. RY ( 8) H 15             0.00000     3.42830
  403. RY ( 9) H 15             0.00000     3.96888
  404. RY (10) H 15             0.00000     4.35790
  405. RY (11) H 15             0.00000     3.97374
  406. RY (12) H 15             0.00000     4.11278
  407. RY (13) H 15             0.00000     4.45743
  408. RY ( 1) H 16             0.00116     0.82168
  409. RY ( 2) H 16             0.00017     2.64932
  410. RY ( 3) H 16             0.00015     3.07449
  411. RY ( 4) H 16             0.00007     2.66865
  412. RY ( 5) H 16             0.00003     2.32023
  413. RY ( 6) H 16             0.00002     2.61048
  414. RY ( 7) H 16             0.00001     3.48268
  415. RY ( 8) H 16             0.00000     3.73376
  416. RY ( 9) H 16             0.00000     4.42846
  417. RY (10) H 16             0.00000     4.11767
  418. RY (11) H 16             0.00000     4.32675
  419. RY (12) H 16             0.00000     3.61186
  420. RY (13) H 16             0.00000     3.60865
  421. RY ( 1) H 17             0.00066     0.81110
  422. RY ( 2) H 17             0.00017     2.66810
  423. RY ( 3) H 17             0.00012     3.51291
  424. RY ( 4) H 17             0.00006     2.61440
  425. RY ( 5) H 17             0.00004     2.16812
  426. RY ( 6) H 17             0.00001     2.52040
  427. RY ( 7) H 17             0.00000     3.36070
  428. RY ( 8) H 17             0.00000     3.94819
  429. RY ( 9) H 17             0.00000     3.36345
  430. RY (10) H 17             0.00000     3.86365
  431. RY (11) H 17             0.00000     4.54454
  432. RY (12) H 17             0.00000     3.82226
  433. RY (13) H 17             0.00000     4.26747
  434. RY ( 1) H 18             0.00063     0.79497
  435. RY ( 2) H 18             0.00012     2.87196
  436. RY ( 3) H 18             0.00010     3.72065
  437. RY ( 4) H 18             0.00006     2.50058
  438. RY ( 5) H 18             0.00003     2.29268
  439. RY ( 6) H 18             0.00001     2.51522
  440. RY ( 7) H 18             0.00000     2.51004
  441. RY ( 8) H 18             0.00000     3.60602
  442. RY ( 9) H 18             0.00000     4.20866
  443. RY (10) H 18             0.00000     4.23933
  444. RY (11) H 18             0.00000     3.78509
  445. RY (12) H 18             0.00000     4.11354
  446. RY (13) H 18             0.00000     3.85769
  447. RY ( 1) H 19             0.00047     0.79446
  448. RY ( 2) H 19             0.00011     3.49822
  449. RY ( 3) H 19             0.00009     3.66805
  450. RY ( 4) H 19             0.00005     2.37088
  451. RY ( 5) H 19             0.00002     1.95221
  452. RY ( 6) H 19             0.00001     2.98617
  453. RY ( 7) H 19             0.00000     2.38000
  454. RY ( 8) H 19             0.00000     3.63789
  455. RY ( 9) H 19             0.00000     4.00634
  456. RY (10) H 19             0.00000     4.38603
  457. RY (11) H 19             0.00000     3.54348
  458. RY (12) H 19             0.00000     3.84519
  459. RY (13) H 19             0.00000     3.96145
  460. RY ( 1) H 20             0.00112     0.82373
  461. RY ( 2) H 20             0.00017     2.39703
  462. RY ( 3) H 20             0.00012     3.42355
  463. RY ( 4) H 20             0.00007     2.70236
  464. RY ( 5) H 20             0.00003     2.41926
  465. RY ( 6) H 20             0.00002     2.61598
  466. RY ( 7) H 20             0.00000     2.79409
  467. RY ( 8) H 20             0.00000     3.49775
  468. RY ( 9) H 20             0.00000     4.17429
  469. RY (10) H 20             0.00000     4.26810
  470. RY (11) H 20             0.00000     3.81376
  471. RY (12) H 20             0.00000     4.18796
  472. RY (13) H 20             0.00000     3.99541
  473. RY ( 1) H 21             0.00191     0.70580
  474. RY ( 2) H 21             0.00029     2.02253
  475. RY ( 3) H 21             0.00011     2.02228
  476. RY ( 4) H 21             0.00008     3.77903
  477. RY ( 5) H 21             0.00004     3.67158
  478. RY ( 6) H 21             0.00002     2.49273
  479. RY ( 7) H 21             0.00001     2.98961
  480. RY ( 8) H 21             0.00001     3.99436
  481. RY ( 9) H 21             0.00001     3.74455
  482. RY (10) H 21             0.00000     3.79077
  483. RY (11) H 21             0.00000     3.73330
  484. RY (12) H 21             0.00000     4.11174
  485. RY (13) H 21             0.00000     4.14457
  486. RY ( 1) H 22             0.00102     0.74330
  487. RY ( 2) H 22             0.00010     3.17738
  488. RY ( 3) H 22             0.00006     2.81624
  489. RY ( 4) H 22             0.00005     2.01225
  490. RY ( 5) H 22             0.00005     3.71614
  491. RY ( 6) H 22             0.00002     2.51730
  492. RY ( 7) H 22             0.00001     3.15904
  493. RY ( 8) H 22             0.00001     3.20314
  494. RY ( 9) H 22             0.00000     3.85514
  495. RY (10) H 22             0.00000     4.17996
  496. RY (11) H 22             0.00000     3.64886
  497. RY (12) H 22             0.00000     3.78833
  498. RY (13) H 22             0.00000     4.14995
  499. RY ( 1) H 23             0.00100     1.00790
  500. RY ( 2) H 23             0.00013     3.37558
  501. RY ( 3) H 23             0.00013     2.51540
  502. RY ( 4) H 23             0.00006     2.94611
  503. RY ( 5) H 23             0.00003     2.24315
  504. RY ( 6) H 23             0.00001     2.63960
  505. RY ( 7) H 23             0.00001     2.77191
  506. RY ( 8) H 23             0.00000     3.51168
  507. RY ( 9) H 23             0.00000     3.93416
  508. RY (10) H 23             0.00000     4.22624
  509. RY (11) H 23             0.00000     3.94009
  510. RY (12) H 23             0.00000     3.55200
  511. RY (13) H 23             0.00000     4.39030
  512. RY ( 1) H 24             0.00077     0.78202
  513. RY ( 2) H 24             0.00010     3.76458
  514. RY ( 3) H 24             0.00009     3.58524
  515. RY ( 4) H 24             0.00003     1.76429
  516. RY ( 5) H 24             0.00002     2.49317
  517. RY ( 6) H 24             0.00001     2.48385
  518. RY ( 7) H 24             0.00000     2.38751
  519. RY ( 8) H 24             0.00000     3.69525
  520. RY ( 9) H 24             0.00000     4.27050
  521. RY (10) H 24             0.00000     3.71110
  522. RY (11) H 24             0.00000     4.29527
  523. RY (12) H 24             0.00000     3.83236
  524. RY (13) H 24             0.00000     3.67976
  525. RY ( 1) H 25             0.00039     1.07039
  526. RY ( 2) H 25             0.00009     3.94556
  527. RY ( 3) H 25             0.00008     3.24262
  528. RY ( 4) H 25             0.00003     1.80088
  529. RY ( 5) H 25             0.00001     3.19212
  530. RY ( 6) H 25             0.00001     1.88524
  531. RY ( 7) H 25             0.00000     2.91902
  532. RY ( 8) H 25             0.00000     3.30621
  533. RY ( 9) H 25             0.00000     3.91113
  534. RY (10) H 25             0.00000     4.46022
  535. RY (11) H 25             0.00000     3.98786
  536. RY (12) H 25             0.00000     4.17314
  537. RY (13) H 25             0.00000     2.83125
          -------------------------------
                 Total Lewis   84.59235  ( 98.3632%)
           Valence non-Lewis    1.26138  (  1.4667%)
           Rydberg non-Lewis    0.14627  (  0.1701%)
          -------------------------------
               Total unit  1   86.00000  (100.0000%)
              Charge unit  1   -1.00000

 $CHOOSE
   LONE 1 3 4 1 9 2 END
   BOND S 1 2 D 2 3 S 2 9 S 3 4 S 3 12 D 4 5 S 5 6 S 5 13 S 6 7 S 6 8 S 6 14
        S 7 15 S 7 16 S 7 17 S 8 18 S 8 19 S 8 20 S 9 10 S 10 11 S 10 21
        S 10 22 S 11 23 S 11 24 S 11 25 END
 $END

 NBO analysis completed in 8.60 CPU seconds (9 wall seconds)
 Maximum scratch memory used by NBO was 2830326 words (21.59 MB)
 Maximum scratch memory used by G16NBO was 444706 words (3.39 MB)

 Opening RunExU unformatted file "/scratch/general/vast/u6067110/5280073-notchpeak.peaks/Gau-1371744.EUF"
 Read unf file /scratch/general/vast/u6067110/5280073-notchpeak.peaks/Gau-1371744.EUF:
 Label Gaussian matrix elements                                         IVers= 2 NLab= 2 Version=ES64L-G16RevC.01
 Title A18_crest_conformers_censo-14                                   
 NAtoms=    25 NBasis=   537 NBsUse=   537 ICharg=    -1 Multip=     1 NE=    86 Len12L=8 Len4L=8 IOpCl= 0 ICGU=111
 GAUSSIAN SCALARS                    NI= 1 NR= 1 NTot=       1 LenBuf=    2 NRI=1 N=    1000
 NPA CHARGES                         NI= 0 NR= 1 NTot=      25 LenBuf= 4000 NRI=1 N=      25
 Recovered energy= -518.550031035     dipole=      0.820020046879     -0.737020099549      0.440596105964

 ----------------------------------------------------------------------

 Electric dipole moment (input orientation):
 (Debye = 10**-18 statcoulomb cm , SI units = C m)
                  (au)            (Debye)         (10**-30 SI)
   Tot        0.118733D+01      0.301790D+01      0.100666D+02
   x         -0.813840D+00     -0.206857D+01     -0.690002D+01
   y          0.167563D+00      0.425901D+00      0.142065D+01
   z          0.848141D+00      0.215576D+01      0.719084D+01

 Dipole polarizability, Alpha (input orientation).
 (esu units = cm**3 , SI units = C**2 m**2 J**-1)
 Alpha(0;0):
               (au)            (10**-24 esu)      (10**-40 SI)
   iso        0.173978D+03      0.257810D+02      0.286852D+02
   aniso      0.133365D+03      0.197626D+02      0.219889D+02
   xx         0.258220D+03      0.382642D+02      0.425747D+02
   yx        -0.141125D+02     -0.209126D+01     -0.232684D+01
   yy         0.129722D+03      0.192228D+02      0.213883D+02
   zx        -0.150744D+02     -0.223379D+01     -0.248543D+01
   zy         0.132416D+02      0.196221D+01      0.218325D+01
   zz         0.133994D+03      0.198559D+02      0.220926D+02

 First dipole hyperpolarizability, Beta (input orientation).
 ||, _|_  parallel and perpendicular components, (z) with respect to z axis,
 vector components x,y,z.  Values do not include the 1/n! factor of 1/2.
 (esu units = statvolt**-1 cm**4 , SI units = C**3 m**3 J**-2)
 Beta(0;0,0):
               (au)            (10**-30 esu)      (10**-50 SI)
   || (z)     0.623855D+02      0.538962D+00      0.200030D+00
   _|_(z)     0.207952D+02      0.179654D+00      0.666768D-01
   x         -0.708168D+04     -0.611802D+02     -0.227064D+02
   y         -0.425858D+03     -0.367908D+01     -0.136545D+01
   z          0.311927D+03      0.269481D+01      0.100015D+01
   ||         0.142027D+04      0.122700D+02      0.455389D+01
   xxx       -0.238029D+04     -0.205638D+02     -0.763206D+01
   xxy       -0.278140D+03     -0.240291D+01     -0.891817D+00
   yxy        0.424545D+02      0.366774D+00      0.136124D+00
   yyy        0.474223D+02      0.409692D+00      0.152053D+00
   xxz       -0.194016D+03     -0.167615D+01     -0.622085D+00
   yxz        0.494177D+02      0.426930D+00      0.158451D+00
   yyz        0.119912D+03      0.103595D+01      0.384482D+00
   zxz       -0.227277D+02     -0.196349D+00     -0.728731D-01
   zyz        0.887652D+02      0.766862D+00      0.284613D+00
   zzz        0.178079D+03      0.153847D+01      0.570987D+00

 ----------------------------------------------------------------------

 Dipole orientation:
     8          0.63709256         -0.80091236         -3.68320904
     6          1.70422246          0.41173284         -2.02231253
     6          0.91645906          1.10863437          0.42675112
     7         -1.37841651          0.41146881          1.30736364
     6         -2.22400829          0.98614519          3.50612433
     6         -4.80939835          0.17482247          4.41280716
     6         -6.09431486         -1.55363972          2.50037950
     6         -4.64318440         -1.08715627          7.01484847
     8          4.15849057          1.33846418         -2.50758659
     6          5.14767289          0.73784980         -4.88482883
     6          6.18855220         -1.94455960         -4.97884521
     1          2.22208098          2.23332225          1.58848599
     1         -1.09149202          2.13224961          4.85568326
     1         -6.01452624          1.87805583          4.65090343
     1         -8.01233697         -2.07640309          3.12505452
     1         -4.96607727         -3.28092379          2.24310055
     1         -6.18461104         -0.63902528          0.64143090
     1         -6.52955321         -1.53656881          7.78136119
     1         -3.67133399          0.14603369          8.38193097
     1         -3.55131179         -2.85488419          6.87759044
     1          3.68499376          0.95070817         -6.35092084
     1          6.66739312          2.11695931         -5.25155047
     1          4.61862269         -3.26891665         -4.68725203
     1          7.59655947         -2.22384810         -3.47440109
     1          7.08451416         -2.34388158         -6.81570179

 Electric dipole moment (dipole orientation):
 (Debye = 10**-18 statcoulomb cm , SI units = C m)
                  (au)            (Debye)         (10**-30 SI)
   Tot        0.118733D+01      0.301790D+01      0.100666D+02
   x          0.000000D+00      0.000000D+00      0.000000D+00
   y          0.000000D+00      0.000000D+00      0.000000D+00
   z          0.118733D+01      0.301790D+01      0.100666D+02

 Dipole polarizability, Alpha (dipole orientation).
 (esu units = cm**3 , SI units = C**2 m**2 J**-1)
 Alpha(0;0):
               (au)            (10**-24 esu)      (10**-40 SI)
   iso        0.173978D+03      0.257810D+02      0.286852D+02
   aniso      0.133365D+03      0.197626D+02      0.219889D+02
   xx         0.184313D+03      0.273124D+02      0.303891D+02
   yx         0.450621D+01      0.667752D+00      0.742974D+00
   yy         0.125188D+03      0.185510D+02      0.206407D+02
   zx        -0.616672D+02     -0.913814D+01     -0.101676D+02
   zy         0.110674D+02      0.164003D+01      0.182478D+01
   zz         0.212434D+03      0.314795D+02      0.350257D+02

 First dipole hyperpolarizability, Beta (dipole orientation).
 ||, _|_  parallel and perpendicular components, (z) with respect to z axis,
 vector components x,y,z.  Values do not include the 1/n! factor of 1/2.
 (esu units = statvolt**-1 cm**4 , SI units = C**3 m**3 J**-2)
 Beta(0;0,0):
               (au)            (10**-30 esu)      (10**-50 SI)
   || (z)     0.100335D+04      0.866818D+01      0.321711D+01
   _|_(z)     0.334451D+03      0.288939D+01      0.107237D+01
   x         -0.495112D+04     -0.427738D+02     -0.158751D+02
   y         -0.864521D+03     -0.746879D+01     -0.277197D+01
   z          0.501676D+04      0.433409D+02      0.160855D+02
   ||         0.142027D+04      0.122700D+02      0.455389D+01
   xxx       -0.109512D+04     -0.946094D+01     -0.351134D+01
   xxy       -0.121413D+03     -0.104892D+01     -0.389295D+00
   yxy        0.643440D+02      0.555882D+00      0.206310D+00
   yyy        0.275325D+01      0.237860D-01      0.882792D-02
   xxz        0.984980D+03      0.850946D+01      0.315820D+01
   yxz        0.238420D+03      0.205976D+01      0.764461D+00
   yyz        0.804495D+02      0.695021D+00      0.257950D+00
   zxz       -0.619603D+03     -0.535289D+01     -0.198667D+01
   zyz       -0.169514D+03     -0.146447D+01     -0.543522D+00
   zzz        0.606824D+03      0.524249D+01      0.194570D+01

 ----------------------------------------------------------------------
 Unable to Open any file for archive entry.
 1\1\GINC-NOTCH152\SP\RM062X\def2TZVPP\C8H14N1O2(1-)\U6067110\18-Jul-20
 25\0\\#N Guess=Read Geom=Check Integral(Ultrafine) Density Pop=NBO7 Po
 p=Hirshfeld Pop=(ChelpG,ReadRadii) Polar Prop=(Potential,EFG) Volume M
 062X EmpiricalDispersion=GD3 def2TZVPP SCRF(IEFPCM,solvent=thf)\\A18_c
 rest_conformers_censo-14\\-1,1\O,0,1.5567891538,-0.6749407221,-1.10137
 40135\C,0,1.4005029597,0.1152084026,-0.1770415053\C,0,0.2303732228,0.6
 390831376,0.4109362641\N,0,-0.9914393133,0.2716860451,-0.0365141575\C,
 0,-2.0966443592,0.7112140169,0.4450003523\C,0,-3.4429235883,0.27738174
 29,-0.0894446632\C,0,-3.2944679599,-0.8078422347,-1.1493307346\C,0,-4.
 3605588739,-0.1833860658,1.0486730916\O,0,2.5470051896,0.6369585037,0.
 4605191266\C,0,3.7713347394,0.1748226541,-0.0344424623\C,0,4.125197705
 9,-1.2040976807,0.5078867801\H,0,0.3441325017,1.3530716668,1.239657089
 \H,0,-2.1168715868,1.445261963,1.2803317953\H,0,-3.9413808299,1.150019
 7575,-0.5637616343\H,0,-4.2734708158,-1.0918827582,-1.5698599546\H,0,-
 2.8193085762,-1.6967879346,-0.7083582196\H,0,-2.6275731905,-0.47099495
 67,-1.9530779114\H,0,-5.3766587924,-0.417524316,0.6877625347\H,0,-4.44
 6262099,0.5927214851,1.8258486905\H,0,-3.9441104616,-1.0856077268,1.52
 48442435\H,0,3.7475752764,0.1329910932,-1.135067437\H,0,4.5293346779,0
 .9141284354,0.2751712826\H,0,3.3767949951,-1.9218761419,0.147573421\H,
 0,4.1120603071,-1.1957793543,1.6081396379\H,0,5.1237197172,-1.52337901
 21,0.1683483839\\Version=ES64L-G16RevC.01\State=1-A\HF=-518.550031\RMS
 D=5.066e-09\Dipole=-0.8138399,0.1675625,0.8481414\Polar=258.2196204,-1
 4.1125262,129.721914,-15.0743572,13.2416372,133.9939601\HyperPolar=-23
 80.2881197,-278.1399758,42.4544839,47.4222768,-194.0158649,49.4176653,
 119.9122288,-22.7276669,88.765175,178.0794538\Quadrupole=-1.8094402,1.
 6550199,0.1544202,-0.0551422,1.0708126,-1.9109426\PG=C01 [X(C8H14N1O2)
 ]\\@
 The archive entry for this job was punched.


 DEPRESSION IS WAITING FOR YOUR SHIP TO COME IN,
 AND FINDING OUT IT'S THE TITANIC.
 Job cpu time:       0 days  3 hours 53 minutes 42.6 seconds.
 Elapsed time:       0 days  0 hours  7 minutes 37.6 seconds.
 File lengths (MBytes):  RWF=    233 Int=      0 D2E=      0 Chk=     22 Scr=      2
 Normal termination of Gaussian 16 at Fri Jul 18 23:32:35 2025.
 Initial command:
 /uufs/chpc.utah.edu/sys/installdir/gaussian16/C01/AVX/g16/l1.exe "/scratch/general/vast/u6067110/5280073-notchpeak.peaks/Gau-1364907.inp" -scrdir="/scratch/general/vast/u6067110/5280073-notchpeak.peaks/"
 Entering Link 1 = /uufs/chpc.utah.edu/sys/installdir/gaussian16/C01/AVX/g16/l1.exe PID=   1372411.
  
 Copyright (c) 1988-2019, Gaussian, Inc.  All Rights Reserved.
  
 This is part of the Gaussian(R) 16 program.  It is based on
 the Gaussian(R) 09 system (copyright 2009, Gaussian, Inc.),
 the Gaussian(R) 03 system (copyright 2003, Gaussian, Inc.),
 the Gaussian(R) 98 system (copyright 1998, Gaussian, Inc.),
 the Gaussian(R) 94 system (copyright 1995, Gaussian, Inc.),
 the Gaussian 92(TM) system (copyright 1992, Gaussian, Inc.),
 the Gaussian 90(TM) system (copyright 1990, Gaussian, Inc.),
 the Gaussian 88(TM) system (copyright 1988, Gaussian, Inc.),
 the Gaussian 86(TM) system (copyright 1986, Carnegie Mellon
 University), and the Gaussian 82(TM) system (copyright 1983,
 Carnegie Mellon University). Gaussian is a federally registered
 trademark of Gaussian, Inc.
  
 This software contains proprietary and confidential information,
 including trade secrets, belonging to Gaussian, Inc.
  
 This software is provided under written license and may be
 used, copied, transmitted, or stored only in accord with that
 written license.
  
 The following legend is applicable only to US Government
 contracts under FAR:
  
                    RESTRICTED RIGHTS LEGEND
  
 Use, reproduction and disclosure by the US Government is
 subject to restrictions as set forth in subparagraphs (a)
 and (c) of the Commercial Computer Software - Restricted
 Rights clause in FAR 52.227-19.
  
 Gaussian, Inc.
 340 Quinnipiac St., Bldg. 40, Wallingford CT 06492
  
  
 ---------------------------------------------------------------
 Warning -- This program may not be used in any manner that
 competes with the business of Gaussian, Inc. or will provide
 assistance to any competitor of Gaussian, Inc.  The licensee
 of this program is prohibited from giving any competitor of
 Gaussian, Inc. access to this program.  By using this program,
 the user acknowledges that Gaussian, Inc. is engaged in the
 business of creating and licensing software in the field of
 computational chemistry and represents and warrants to the
 licensee that it is not a competitor of Gaussian, Inc. and that
 it will not use this program in any manner prohibited above.
 ---------------------------------------------------------------
  

 Cite this work as:
 Gaussian 16, Revision C.01,
 M. J. Frisch, G. W. Trucks, H. B. Schlegel, G. E. Scuseria, 
 M. A. Robb, J. R. Cheeseman, G. Scalmani, V. Barone, 
 G. A. Petersson, H. Nakatsuji, X. Li, M. Caricato, A. V. Marenich, 
 J. Bloino, B. G. Janesko, R. Gomperts, B. Mennucci, H. P. Hratchian, 
 J. V. Ortiz, A. F. Izmaylov, J. L. Sonnenberg, D. Williams-Young, 
 F. Ding, F. Lipparini, F. Egidi, J. Goings, B. Peng, A. Petrone, 
 T. Henderson, D. Ranasinghe, V. G. Zakrzewski, J. Gao, N. Rega, 
 G. Zheng, W. Liang, M. Hada, M. Ehara, K. Toyota, R. Fukuda, 
 J. Hasegawa, M. Ishida, T. Nakajima, Y. Honda, O. Kitao, H. Nakai, 
 T. Vreven, K. Throssell, J. A. Montgomery, Jr., J. E. Peralta, 
 F. Ogliaro, M. J. Bearpark, J. J. Heyd, E. N. Brothers, K. N. Kudin, 
 V. N. Staroverov, T. A. Keith, R. Kobayashi, J. Normand, 
 K. Raghavachari, A. P. Rendell, J. C. Burant, S. S. Iyengar, 
 J. Tomasi, M. Cossi, J. M. Millam, M. Klene, C. Adamo, R. Cammi, 
 J. W. Ochterski, R. L. Martin, K. Morokuma, O. Farkas, 
 J. B. Foresman, and D. J. Fox, Gaussian, Inc., Wallingford CT, 2019.
 
 ******************************************
 Gaussian 16:  ES64L-G16RevC.01  3-Jul-2019
                18-Jul-2025 
 ******************************************
 %NProcShared=32
 Will use up to   32 processors via shared memory.
 %Mem=48GB
 %chk=A18_crest_conformers_censo-14.chk
 ----------------------------------------------------------------------
 #N Guess=Read Geom=Check Integral(Ultrafine) Density NMR M062X Empiric
 alDispersion=GD3 def2TZVPP SCRF(IEFPCM,solvent=thf)
 ----------------------------------------------------------------------
 1/29=2,38=1,172=1/1;
 2/12=2,40=1/2;
 3/5=44,7=202,11=2,14=-4,25=1,30=1,70=2201,72=20,74=-55,75=-5,116=-2,124=31/1,2,3,8;
 4/5=1/1;
 5/5=2,38=6,53=20/2;
 8/6=1,10=90,11=11/1;
 10/13=100,45=16/2;
 6/7=2,8=2,9=2,10=2,22=-1,28=1/1;
 99/9=1/99;
 -----------------------------
 A18_crest_conformers_censo-14
 -----------------------------
 Structure from the checkpoint file:  "A18_crest_conformers_censo-14.chk"
 Charge = -1 Multiplicity = 1
 Redundant internal coordinates found in file.  (old form).
 O,0,1.5567891538,-0.6749407221,-1.1013740135
 C,0,1.4005029597,0.1152084026,-0.1770415053
 C,0,0.2303732228,0.6390831376,0.4109362641
 N,0,-0.9914393133,0.2716860451,-0.0365141575
 C,0,-2.0966443592,0.7112140169,0.4450003523
 C,0,-3.4429235883,0.2773817429,-0.0894446632
 C,0,-3.2944679599,-0.8078422347,-1.1493307346
 C,0,-4.3605588739,-0.1833860658,1.0486730916
 O,0,2.5470051896,0.6369585037,0.4605191266
 C,0,3.7713347394,0.1748226541,-0.0344424623
 C,0,4.1251977059,-1.2040976807,0.5078867801
 H,0,0.3441325017,1.3530716668,1.239657089
 H,0,-2.1168715868,1.445261963,1.2803317953
 H,0,-3.9413808299,1.1500197575,-0.5637616343
 H,0,-4.2734708158,-1.0918827582,-1.5698599546
 H,0,-2.8193085762,-1.6967879346,-0.7083582196
 H,0,-2.6275731905,-0.4709949567,-1.9530779114
 H,0,-5.3766587924,-0.417524316,0.6877625347
 H,0,-4.446262099,0.5927214851,1.8258486905
 H,0,-3.9441104616,-1.0856077268,1.5248442435
 H,0,3.7475752764,0.1329910932,-1.135067437
 H,0,4.5293346779,0.9141284354,0.2751712826
 H,0,3.3767949951,-1.9218761419,0.147573421
 H,0,4.1120603071,-1.1957793543,1.6081396379
 H,0,5.1237197172,-1.5233790121,0.1683483839
 Recover connectivity data from disk.
                           ----------------------------
                           !    Current Parameters    !
                           ! (Angstroms and Degrees)  !
 --------------------------                            --------------------------
 ! Name  Definition              Value                                          !
 --------------------------------------------------------------------------------
 ! R1    R(1,2)                  1.226                                          !
 ! R2    R(2,3)                  1.4104                                         !
 ! R3    R(2,9)                  1.4118                                         !
 ! R4    R(3,4)                  1.352                                          !
 ! R5    R(3,12)                 1.0998                                         !
 ! R6    R(4,5)                  1.2832                                         !
 ! R7    R(5,6)                  1.5121                                         !
 ! R8    R(5,13)                 1.1122                                         !
 ! R9    R(6,7)                  1.5242                                         !
 ! R10   R(6,8)                  1.5329                                         !
 ! R11   R(6,14)                 1.1113                                         !
 ! R12   R(7,15)                 1.1027                                         !
 ! R13   R(7,16)                 1.1002                                         !
 ! R14   R(7,17)                 1.0974                                         !
 ! R15   R(8,18)                 1.1034                                         !
 ! R16   R(8,19)                 1.1017                                         !
 ! R17   R(8,20)                 1.1019                                         !
 ! R18   R(9,10)                 1.3991                                         !
 ! R19   R(10,11)                1.5234                                         !
 ! R20   R(10,21)                1.1017                                         !
 ! R21   R(10,22)                1.1032                                         !
 ! R22   R(11,23)                1.0978                                         !
 ! R23   R(11,24)                1.1004                                         !
 ! R24   R(11,25)                1.1019                                         !
 ! A1    A(1,2,3)              131.2555                                         !
 ! A2    A(1,2,9)              118.3674                                         !
 ! A3    A(3,2,9)              110.3771                                         !
 ! A4    A(2,3,4)              120.7182                                         !
 ! A5    A(2,3,12)             117.9986                                         !
 ! A6    A(4,3,12)             121.2832                                         !
 ! A7    A(3,4,5)              124.1306                                         !
 ! A8    A(4,5,6)              122.4094                                         !
 ! A9    A(4,5,13)             121.572                                          !
 ! A10   A(6,5,13)             116.0167                                         !
 ! A11   A(5,6,7)              111.3062                                         !
 ! A12   A(5,6,8)              110.905                                          !
 ! A13   A(5,6,14)             108.9612                                         !
 ! A14   A(7,6,8)              111.1365                                         !
 ! A15   A(7,6,14)             107.8179                                         !
 ! A16   A(8,6,14)             106.5249                                         !
 ! A17   A(6,7,15)             111.2304                                         !
 ! A18   A(6,7,16)             109.7939                                         !
 ! A19   A(6,7,17)             110.4846                                         !
 ! A20   A(15,7,16)            109.1571                                         !
 ! A21   A(15,7,17)            109.8337                                         !
 ! A22   A(16,7,17)            106.2075                                         !
 ! A23   A(6,8,18)             111.8513                                         !
 ! A24   A(6,8,19)             111.0136                                         !
 ! A25   A(6,8,20)             109.9211                                         !
 ! A26   A(18,8,19)            107.9742                                         !
 ! A27   A(18,8,20)            108.3991                                         !
 ! A28   A(19,8,20)            107.54                                           !
 ! A29   A(2,9,10)             115.3918                                         !
 ! A30   A(9,10,11)            112.1048                                         !
 ! A31   A(9,10,21)            110.3099                                         !
 ! A32   A(9,10,22)            106.2974                                         !
 ! A33   A(11,10,21)           109.0443                                         !
 ! A34   A(11,10,22)           110.309                                          !
 ! A35   A(21,10,22)           108.7025                                         !
 ! A36   A(10,11,23)           108.4591                                         !
 ! A37   A(10,11,24)           110.264                                          !
 ! A38   A(10,11,25)           111.288                                          !
 ! A39   A(23,11,24)           108.9649                                         !
 ! A40   A(23,11,25)           109.0974                                         !
 ! A41   A(24,11,25)           108.7298                                         !
 ! D1    D(1,2,3,4)              0.3999                                         !
 ! D2    D(1,2,3,12)          -179.5234                                         !
 ! D3    D(9,2,3,4)           -179.6542                                         !
 ! D4    D(9,2,3,12)             0.4226                                         !
 ! D5    D(1,2,9,10)            -0.6169                                         !
 ! D6    D(3,2,9,10)           179.4293                                         !
 ! D7    D(2,3,4,5)           -179.6594                                         !
 ! D8    D(12,3,4,5)             0.2613                                         !
 ! D9    D(3,4,5,6)            179.7611                                         !
 ! D10   D(3,4,5,13)             0.2814                                         !
 ! D11   D(4,5,6,7)              5.0637                                         !
 ! D12   D(4,5,6,8)            129.3471                                         !
 ! D13   D(4,5,6,14)          -113.7054                                         !
 ! D14   D(13,5,6,7)          -175.4296                                         !
 ! D15   D(13,5,6,8)           -51.1462                                         !
 ! D16   D(13,5,6,14)           65.8013                                         !
 ! D17   D(5,6,7,15)          -177.5071                                         !
 ! D18   D(5,6,7,16)            61.5638                                         !
 ! D19   D(5,6,7,17)           -55.2517                                         !
 ! D20   D(8,6,7,15)            58.3403                                         !
 ! D21   D(8,6,7,16)           -62.5887                                         !
 ! D22   D(8,6,7,17)          -179.4042                                         !
 ! D23   D(14,6,7,15)          -58.0554                                         !
 ! D24   D(14,6,7,16)         -178.9844                                         !
 ! D25   D(14,6,7,17)           64.2001                                         !
 ! D26   D(5,6,8,18)           174.8736                                         !
 ! D27   D(5,6,8,19)            54.1961                                         !
 ! D28   D(5,6,8,20)           -64.6595                                         !
 ! D29   D(7,6,8,18)           -60.7466                                         !
 ! D30   D(7,6,8,19)           178.576                                          !
 ! D31   D(7,6,8,20)            59.7203                                         !
 ! D32   D(14,6,8,18)           56.4405                                         !
 ! D33   D(14,6,8,19)          -64.237                                          !
 ! D34   D(14,6,8,20)          176.9074                                         !
 ! D35   D(2,9,10,11)          -79.9215                                         !
 ! D36   D(2,9,10,21)           41.8043                                         !
 ! D37   D(2,9,10,22)          159.4779                                         !
 ! D38   D(9,10,11,23)          64.1172                                         !
 ! D39   D(9,10,11,24)         -55.1222                                         !
 ! D40   D(9,10,11,25)        -175.8668                                         !
 ! D41   D(21,10,11,23)        -58.3305                                         !
 ! D42   D(21,10,11,24)       -177.5698                                         !
 ! D43   D(21,10,11,25)         61.6856                                         !
 ! D44   D(22,10,11,23)       -177.6355                                         !
 ! D45   D(22,10,11,24)         63.1251                                         !
 ! D46   D(22,10,11,25)        -57.6195                                         !
 --------------------------------------------------------------------------------
                          Input orientation:                          
 ---------------------------------------------------------------------
 Center     Atomic      Atomic             Coordinates (Angstroms)
 Number     Number       Type             X           Y           Z
 ---------------------------------------------------------------------
      1          8           0        1.556789   -0.674941   -1.101374
      2          6           0        1.400503    0.115208   -0.177042
      3          6           0        0.230373    0.639083    0.410936
      4          7           0       -0.991439    0.271686   -0.036514
      5          6           0       -2.096644    0.711214    0.445000
      6          6           0       -3.442924    0.277382   -0.089445
      7          6           0       -3.294468   -0.807842   -1.149331
      8          6           0       -4.360559   -0.183386    1.048673
      9          8           0        2.547005    0.636959    0.460519
     10          6           0        3.771335    0.174823   -0.034442
     11          6           0        4.125198   -1.204098    0.507887
     12          1           0        0.344133    1.353072    1.239657
     13          1           0       -2.116872    1.445262    1.280332
     14          1           0       -3.941381    1.150020   -0.563762
     15          1           0       -4.273471   -1.091883   -1.569860
     16          1           0       -2.819309   -1.696788   -0.708358
     17          1           0       -2.627573   -0.470995   -1.953078
     18          1           0       -5.376659   -0.417524    0.687763
     19          1           0       -4.446262    0.592721    1.825849
     20          1           0       -3.944110   -1.085608    1.524844
     21          1           0        3.747575    0.132991   -1.135067
     22          1           0        4.529335    0.914128    0.275171
     23          1           0        3.376795   -1.921876    0.147573
     24          1           0        4.112060   -1.195779    1.608140
     25          1           0        5.123720   -1.523379    0.168348
 ---------------------------------------------------------------------
                    Distance matrix (angstroms):
                    1          2          3          4          5
     1  O    0.000000
     2  C    1.226031   0.000000
     3  C    2.402732   1.410449   0.000000
     4  N    2.919503   2.401171   1.352042   0.000000
     5  C    4.202413   3.601694   2.328384   1.283168   0.000000
     6  C    5.189224   4.846932   3.724825   2.452062   1.512055
     7  C    4.853314   4.882635   4.117345   2.776271   2.506832
     8  C    6.315009   5.897573   4.707422   3.568710   2.507995
     9  O    2.267403   1.411798   2.317163   3.591804   4.644269
    10  C    2.600895   2.375864   3.598932   4.763759   5.911917
    11  C    3.076760   3.103813   4.310032   5.352970   6.510276
    12  H    3.326229   2.157605   1.099772   2.140505   2.645912
    13  H    4.864521   4.032977   2.629702   2.092358   1.112211
    14  H    5.818022   5.454916   4.314467   3.122758   2.147837
    15  H    5.863894   5.965819   5.215784   3.870685   3.471224
    16  H    4.510972   4.623033   4.001209   2.769002   2.766036
    17  H    4.275030   4.441096   3.871523   2.627114   2.725855
    18  H    7.165192   6.852854   5.712430   4.497748   3.477280
    19  H    6.797957   6.198730   4.886210   3.937926   2.727909
    20  H    6.109465   5.736137   4.652060   3.605323   2.794237
    21  H    2.335259   2.535129   3.875173   4.866653   6.081600
    22  H    3.640885   3.260730   4.309890   5.566761   6.631260
    23  H    2.535180   2.856715   4.065445   4.891531   6.081132
    24  H    3.760605   3.501158   4.457299   5.559141   6.598298
    25  H    3.880082   4.082475   5.355365   6.376472   7.563306
                    6          7          8          9         10
     6  C    0.000000
     7  C    1.524175   0.000000
     8  C    1.532864   2.521451   0.000000
     9  O    6.025861   6.229115   6.980926   0.000000
    10  C    7.215197   7.220400   8.211525   1.399121   0.000000
    11  C    7.734859   7.612807   8.564016   2.425371   1.523405
    12  H    4.155167   4.859653   4.952908   2.443874   3.841525
    13  H    2.235765   3.516599   2.782138   4.803873   6.165519
    14  H    1.111276   2.143504   2.133923   6.588743   7.792122
    15  H    2.180900   1.102710   2.773025   7.323266   8.287397
    16  H    2.160855   1.100208   2.784420   5.967409   6.884306
    17  H    2.167485   1.097372   3.477998   5.816294   6.711502
    18  H    2.196879   2.804065   1.103420   7.996751   9.195555
    19  H    2.185057   3.484236   1.101676   7.125438   8.435889
    20  H    2.171372   2.765936   1.101895   6.799603   7.971710
    21  H    7.267561   7.104628   8.403015   2.059429   1.101676
    22  H    8.005954   8.136724   8.990720   2.010176   1.103176
    23  H    7.169482   6.886856   7.981289   2.708158   2.141247
    24  H    7.882244   7.912699   8.551212   2.669337   2.166269
    25  H    8.757658   8.550682   9.618841   3.375186   2.180357
                   11         12         13         14         15
    11  C    0.000000
    12  H    4.622884   0.000000
    13  H    6.824896   2.463066   0.000000
    14  H    8.471127   4.653942   2.610878   0.000000
    15  H    8.652587   5.932407   4.383106   2.479646   0.000000
    16  H    7.067401   4.806638   3.784281   3.063375   1.795183
    17  H    7.224521   4.727770   3.793125   2.506787   1.800371
    18  H    9.536054   6.013905   3.800964   2.466481   2.601661
    19  H    8.856382   4.885656   2.539778   2.505140   3.794547
    20  H    8.134001   4.941408   3.131116   3.059463   3.112188
    21  H    2.151675   4.325660   6.476723   7.776939   8.125672
    22  H    2.168955   4.317270   6.742737   8.515426   9.215075
    23  H    1.097788   4.595103   6.542257   7.968578   7.884481
    24  H    1.100363   4.563957   6.773636   8.664747   8.968144
    25  H    1.101941   5.680328   7.904144   9.479404   9.566334
                   16         17         18         19         20
    16  H    0.000000
    17  H    1.757458   0.000000
    18  H    3.182092   3.812397   0.000000
    19  H    3.782993   4.326593   1.783669   0.000000
    20  H    2.574085   3.769212   1.788641   1.777512   0.000000
    21  H    6.830383   6.455731   9.320806   8.724526   8.229346
    22  H    7.860456   7.622663  10.003611   9.114233   8.795448
    23  H    6.258992   6.524587   8.898193   8.386896   7.496124
    24  H    7.325370   7.657039   9.564966   8.745914   8.057355
    25  H    7.993146   8.104968  10.571218   9.940309   9.179176
                   21         22         23         24         25
    21  H    0.000000
    22  H    1.791674   0.000000
    23  H    2.450536   3.063911   0.000000
    24  H    3.069799   2.530343   1.789158   0.000000
    25  H    2.517187   2.511204   1.791920   1.789909   0.000000
 Stoichiometry    C8H14NO2(1-)
 Framework group  C1[X(C8H14NO2)]
 Deg. of freedom    69
 Full point group                 C1      NOp   1
 Largest Abelian subgroup         C1      NOp   1
 Largest concise Abelian subgroup C1      NOp   1
                         Standard orientation:                         
 ---------------------------------------------------------------------
 Center     Atomic      Atomic             Coordinates (Angstroms)
 Number     Number       Type             X           Y           Z
 ---------------------------------------------------------------------
      1          8           0       -1.629629    1.240544   -0.295927
      2          6           0       -1.447097    0.028178   -0.295161
      3          6           0       -0.260135   -0.733668   -0.286217
      4          7           0        0.948802   -0.128552   -0.268227
      5          6           0        2.068049   -0.756085   -0.265523
      6          6           0        3.399164   -0.038996   -0.250442
      7          6           0        3.214951    1.467856   -0.114164
      8          6           0        4.303572   -0.587844    0.858831
      9          8           0       -2.575604   -0.820074   -0.305787
     10          6           0       -3.814650   -0.170231   -0.302729
     11          6           0       -4.210959    0.301814    1.090423
     12          1           0       -0.350062   -1.829717   -0.295614
     13          1           0        2.112685   -1.867266   -0.282829
     14          1           0        3.924145   -0.231925   -1.210706
     15          1           0        4.183868    1.993250   -0.147792
     16          1           0        2.712691    1.697247    0.837451
     17          1           0        2.557768    1.847635   -0.906693
     18          1           0        5.311232   -0.139375    0.826683
     19          1           0        4.414887   -1.680542    0.773331
     20          1           0        3.859629   -0.375403    1.844710
     21          1           0       -3.793914    0.695800   -0.983354
     22          1           0       -4.548497   -0.901136   -0.682525
     23          1           0       -3.486104    1.057195    1.420761
     24          1           0       -4.195874   -0.541437    1.797174
     25          1           0       -5.219569    0.745639    1.090592
 ---------------------------------------------------------------------
 Rotational constants (GHZ):           3.3329065           0.3700293           0.3553739
 Standard basis: def2TZVPP (5D, 7F)
 There are   606 symmetry adapted cartesian basis functions of A   symmetry.
 There are   537 symmetry adapted basis functions of A   symmetry.
   537 basis functions,   799 primitive gaussians,   606 cartesian basis functions
    43 alpha electrons       43 beta electrons
       nuclear repulsion energy       596.7444315537 Hartrees.
 NAtoms=   25 NActive=   25 NUniq=   25 SFac= 1.00D+00 NAtFMM=   60 NAOKFM=F Big=F
 Integral buffers will be    131072 words long.
 Raffenetti 2 integral format.
 Two-electron integral symmetry is turned on.
 Nuclear repulsion after empirical dispersion term =      596.7436328441 Hartrees.
 ------------------------------------------------------------------------------
 Polarizable Continuum Model (PCM)
 =================================
 Model                : PCM.
 Atomic radii         : UFF (Universal Force Field).
 Polarization charges : Total charges.
 Charge compensation  : None.
 Solution method      : On-the-fly selection.
 Cavity type          : Scaled VdW (van der Waals Surface) (Alpha=1.100).
 Cavity algorithm     : GePol (No added spheres)
                        Default sphere list used, NSphG=   25.
                        Lebedev-Laikov grids with approx.  5.0 points / Ang**2.
                        Smoothing algorithm: York/Karplus (Gamma=1.0000).
                        Polarization charges: spherical gaussians, with
                                              point-specific exponents (IZeta= 3).
                        Self-potential: point-specific (ISelfS= 7).
                        Self-field    : sphere-specific E.n sum rule (ISelfD= 2).
 Solvent              : TetraHydroFuran, Eps=   7.425700 Eps(inf)=   1.974025
 ------------------------------------------------------------------------------
 One-electron integrals computed using PRISM.
   1 Symmetry operations used in ECPInt.
 ECPInt:  NShTT=   21115 NPrTT=   55562 LenC2=   18217 LenP2D=   37173.
 LDataN:  DoStor=T MaxTD1= 6 Len=  172
 NBasis=   537 RedAO= T EigKep=  6.11D-05  NBF=   537
 NBsUse=   537 1.00D-06 EigRej= -1.00D+00 NBFU=   537
 Initial guess from the checkpoint file:  "A18_crest_conformers_censo-14.chk"
 B after Tr=    -0.000000   -0.000000   -0.000000
         Rot=    1.000000    0.000000    0.000000    0.000000 Ang=   0.00 deg.
 Requested convergence on RMS density matrix=1.00D-08 within 128 cycles.
 Requested convergence on MAX density matrix=1.00D-06.
 Requested convergence on             energy=1.00D-06.
 No special actions if energy rises.
 Inv3:  Mode=1 IEnd=    11560107.
 Iteration    1 A*A^-1 deviation from unit magnitude is 4.44D-15 for   1928.
 Iteration    1 A*A^-1 deviation from orthogonality  is 2.10D-15 for   1842    526.
 Iteration    1 A^-1*A deviation from unit magnitude is 4.44D-15 for   1928.
 Iteration    1 A^-1*A deviation from orthogonality  is 3.50D-15 for   1960   1174.
 Error on total polarization charges =  0.01316
 SCF Done:  E(RM062X) =  -518.550031035     A.U. after    1 cycles
            NFock=  1  Conv=0.13D-08     -V/T= 2.0053
 DoSCS=F DFT=T ScalE2(SS,OS)=  1.000000  1.000000
 Range of M.O.s used for correlation:     1   537
 NBasis=   537 NAE=    43 NBE=    43 NFC=     0 NFV=     0
 NROrb=    537 NOA=    43 NOB=    43 NVA=   494 NVB=   494

 **** Warning!!: The largest alpha MO coefficient is  0.20249057D+02

 NEqPCM:  Using equilibrium solvation (IEInf=0, Eps=   7.4257, EpsInf=   1.9740)
          Differentiating once with respect to magnetic field using GIAOs.
          Electric field/nuclear overlap derivatives assumed to be zero.
   1 Symmetry operations used in ECPInt.
 ECPInt:  NShTT=   21115 NPrTT=   55562 LenC2=   21116 LenP2D=   55562.
 LDataN:  DoStor=T MaxTD1= 7 Len=  274
 FoFJK:  IHMeth= 1 ICntrl=    6127 DoSepK=F KAlg= 0 I1Cent=           0 FoldK=F
 IRaf=         1 NMat=       1 IRICut=       1 DoRegI=T DoRafI=F ISym2E= 0 IDoP0=0 IntGTp=1.
          There are     3 degrees of freedom in the 1st order CPHF.  IDoFFX=0 NUNeed=     3.
      3 vectors produced by pass  0 Test12= 7.08D-13 3.33D-08 XBig12= 1.84D+01 6.90D-01.
 AX will form     3 AO Fock derivatives at one time.
      3 vectors produced by pass  1 Test12= 7.08D-13 3.33D-08 XBig12= 8.53D-02 1.33D-01.
      3 vectors produced by pass  2 Test12= 7.08D-13 3.33D-08 XBig12= 1.73D-03 1.33D-02.
      3 vectors produced by pass  3 Test12= 7.08D-13 3.33D-08 XBig12= 2.75D-05 1.47D-03.
      3 vectors produced by pass  4 Test12= 7.08D-13 3.33D-08 XBig12= 3.20D-07 1.64D-04.
      3 vectors produced by pass  5 Test12= 7.08D-13 3.33D-08 XBig12= 6.25D-09 2.48D-05.
      3 vectors produced by pass  6 Test12= 7.08D-13 3.33D-08 XBig12= 5.25D-11 1.54D-06.
      3 vectors produced by pass  7 Test12= 7.08D-13 3.33D-08 XBig12= 7.25D-13 1.79D-07.
 InvSVY:  IOpt=1 It=  1 EMax= 3.55D-15
 Solved reduced A of dimension    24 with     3 vectors.
 Calculating GIAO nuclear magnetic shielding tensors.
 SCF GIAO Magnetic shielding tensor (ppm):
      1  O    Isotropic =    44.9877   Anisotropy =   439.0536
   XX=   -53.3581   YX=   -52.6811   ZX=    -4.0360
   XY=   -13.9107   YY=  -149.1882   ZY=     1.2757
   XZ=   -12.5411   YZ=     0.4512   ZZ=   337.5093
   Eigenvalues:  -159.6265   -43.1006   337.6901
      2  C    Isotropic =     4.4222   Anisotropy =    93.3373
   XX=   -56.5044   YX=   -52.4558   ZX=    -2.1361
   XY=   -74.7793   YY=     3.6272   ZY=     0.5235
   XZ=     1.2363   YZ=    -8.7676   ZZ=    66.1437
   Eigenvalues:   -96.8440    43.4635    66.6470
      3  C    Isotropic =    91.9952   Anisotropy =    83.9182
   XX=   146.1718   YX=    22.9641   ZX=     0.7349
   XY=     5.8809   YY=    26.7409   ZY=    -0.6987
   XZ=    -3.3374   YZ=    -3.2615   ZZ=   103.0730
   Eigenvalues:    24.9818   103.0632   147.9407
      4  N    Isotropic =  -157.4822   Anisotropy =   633.7944
   XX=  -519.5510   YX=   -33.6267   ZX=    -1.0123
   XY=    -0.8375   YY=  -217.7529   ZY=    -6.8991
   XZ=   -17.0201   YZ=    -6.4137   ZZ=   264.8574
   Eigenvalues:  -520.6438  -216.8502   265.0474
      5  C    Isotropic =    44.9766   Anisotropy =    85.0956
   XX=    54.9121   YX=   -58.1982   ZX=     5.9296
   XY=   -44.7614   YY=   -20.6801   ZY=    -5.0612
   XZ=     0.7670   YZ=    -1.7998   ZZ=   100.6977
   Eigenvalues:   -46.7651    79.9878   101.7070
      6  C    Isotropic =   149.3013   Anisotropy =    20.0704
   XX=   147.5137   YX=    18.4632   ZX=    -1.0898
   XY=     8.7891   YY=   149.9462   ZY=     3.0838
   XZ=     0.3813   YZ=     2.4697   ZZ=   150.4440
   Eigenvalues:   134.7567   150.4656   162.6815
      7  C    Isotropic =   163.1277   Anisotropy =    21.9578
   XX=   155.7391   YX=    -0.2536   ZX=     1.9080
   XY=    -6.7036   YY=   176.9998   ZY=    -3.7833
   XZ=    -1.7594   YZ=    -0.4759   ZZ=   156.6442
   Eigenvalues:   155.1322   156.4848   177.7663
      8  C    Isotropic =   160.7430   Anisotropy =    35.9400
   XX=   162.9232   YX=    -9.7438   ZX=    11.9835
   XY=    -7.2239   YY=   154.9150   ZY=    -8.3179
   XZ=    18.1237   YZ=   -12.3514   ZZ=   164.3907
   Eigenvalues:   147.8464   149.6795   184.7030
      9  O    Isotropic =   169.7549   Anisotropy =   144.0312
   XX=   174.7926   YX=    55.5434   ZX=   -17.3133
   XY=   157.7927   YY=   134.6899   ZY=    -4.0366
   XZ=   -22.0876   YZ=    11.6476   ZZ=   199.7823
   Eigenvalues:    44.6475   198.8416   265.7757
     10  C    Isotropic =   128.6680   Anisotropy =    54.4322
   XX=   154.8692   YX=   -27.7280   ZX=     2.3513
   XY=   -20.2416   YY=   107.0872   ZY=     5.9901
   XZ=    -0.2998   YZ=    10.5834   ZZ=   124.0477
   Eigenvalues:    94.8983   126.1496   164.9562
     11  C    Isotropic =   167.0433   Anisotropy =    29.2895
   XX=   164.4990   YX=    -9.8577   ZX=    -2.6256
   XY=   -13.7429   YY=   155.6704   ZY=     7.0049
   XZ=    -8.8946   YZ=     6.9319   ZZ=   180.9604
   Eigenvalues:   147.2912   167.2690   186.5696
     12  H    Isotropic =    25.3770   Anisotropy =     8.1045
   XX=    30.7723   YX=     2.8528   ZX=     0.1189
   XY=    -2.3269   YY=    21.7366   ZY=    -0.0366
   XZ=    -0.1357   YZ=    -0.1431   ZZ=    23.6221
   Eigenvalues:    21.7247    23.6263    30.7800
     13  H    Isotropic =    24.4329   Anisotropy =     4.3866
   XX=    27.1676   YX=    -2.2386   ZX=     0.5687
   XY=     3.3292   YY=    22.9664   ZY=     0.5768
   XZ=     0.6912   YZ=     0.6734   ZZ=    23.1646
   Eigenvalues:    22.4326    23.5087    27.3573
     14  H    Isotropic =    29.4221   Anisotropy =     7.9301
   XX=    28.1959   YX=    -1.3107   ZX=    -2.1304
   XY=    -1.1316   YY=    27.0486   ZY=     1.2493
   XZ=    -3.3650   YZ=     1.6817   ZZ=    33.0217
   Eigenvalues:    26.2558    27.3016    34.7088
     15  H    Isotropic =    30.7801   Anisotropy =     8.8066
   XX=    32.6381   YX=     3.6682   ZX=    -0.3623
   XY=     3.9771   YY=    32.8392   ZY=    -0.7837
   XZ=    -0.4469   YZ=    -1.0251   ZZ=    26.8630
   Eigenvalues:    26.7220    28.9671    36.6512
     16  H    Isotropic =    30.7874   Anisotropy =     6.9559
   XX=    30.3599   YX=    -1.1182   ZX=    -2.1258
   XY=    -1.8618   YY=    30.3031   ZY=     2.7134
   XZ=    -2.0967   YZ=     3.3451   ZZ=    31.6991
   Eigenvalues:    27.8768    29.0606    35.4246
     17  H    Isotropic =    29.7751   Anisotropy =     8.8198
   XX=    30.0230   YX=    -1.0573   ZX=     3.1499
   XY=    -2.6202   YY=    30.3482   ZY=    -3.7622
   XZ=     3.0125   YZ=    -3.9426   ZZ=    28.9541
   Eigenvalues:    25.3126    28.3577    35.6550
     18  H    Isotropic =    30.4619   Anisotropy =     9.3393
   XX=    36.2328   YX=     1.2211   ZX=     1.3699
   XY=     0.5014   YY=    28.1038   ZY=    -0.8634
   XZ=     2.5101   YZ=    -0.2921   ZZ=    27.0493
   Eigenvalues:    26.3390    28.3587    36.6881
     19  H    Isotropic =    30.3374   Anisotropy =     9.2524
   XX=    28.6628   YX=    -3.1859   ZX=     1.0150
   XY=    -2.2943   YY=    35.2905   ZY=    -0.3297
   XZ=     1.3332   YZ=    -1.9415   ZZ=    27.0588
   Eigenvalues:    26.4259    28.0806    36.5056
     20  H    Isotropic =    31.1439   Anisotropy =     6.9852
   XX=    28.9870   YX=    -0.8680   ZX=    -0.4242
   XY=    -0.6377   YY=    28.6840   ZY=    -0.6845
   XZ=    -0.1096   YZ=    -0.2846   ZZ=    35.7608
   Eigenvalues:    28.0292    29.6018    35.8007
     21  H    Isotropic =    27.1228   Anisotropy =     5.3897
   XX=    27.9370   YX=    -2.6135   ZX=     1.1432
   XY=    -0.4923   YY=    25.2425   ZY=    -2.4169
   XZ=     0.9036   YZ=    -2.7331   ZZ=    28.1888
   Eigenvalues:    23.5729    27.0795    30.7159
     22  H    Isotropic =    28.3880   Anisotropy =     7.9339
   XX=    31.4077   YX=     1.9388   ZX=     2.0430
   XY=     0.6416   YY=    26.3385   ZY=     3.1736
   XZ=     2.6291   YZ=     4.2625   ZZ=    27.4178
   Eigenvalues:    23.0800    28.4068    33.6772
     23  H    Isotropic =    29.7606   Anisotropy =     5.5022
   XX=    30.1347   YX=     2.8844   ZX=    -1.2653
   XY=     3.0796   YY=    29.4682   ZY=     2.3305
   XZ=    -1.1871   YZ=     3.9654   ZZ=    29.6788
   Eigenvalues:    24.7125    31.1405    33.4287
     24  H    Isotropic =    30.7766   Anisotropy =     7.9650
   XX=    28.5362   YX=     0.3110   ZX=    -1.9220
   XY=     0.6373   YY=    30.7530   ZY=    -2.7397
   XZ=    -1.7613   YZ=    -4.4512   ZZ=    33.0407
   Eigenvalues:    27.4360    28.8073    36.0866
     25  H    Isotropic =    30.7883   Anisotropy =    10.1740
   XX=    35.1295   YX=    -3.5299   ZX=    -1.8720
   XY=    -3.7911   YY=    28.9267   ZY=     0.7765
   XZ=    -2.9860   YZ=     1.2359   ZZ=    28.3089
   Eigenvalues:    27.2004    27.5937    37.5710
 End of Minotr F.D. properties file   721 does not exist.
 End of Minotr F.D. properties file   722 does not exist.
 End of Minotr F.D. properties file   788 does not exist.

 **********************************************************************

            Population analysis using the SCF Density.

 **********************************************************************

 Orbital symmetries:
       Occupied  (A) (A) (A) (A) (A) (A) (A) (A) (A) (A) (A) (A)
                 (A) (A) (A) (A) (A) (A) (A) (A) (A) (A) (A) (A)
                 (A) (A) (A) (A) (A) (A) (A) (A) (A) (A) (A) (A)
                 (A) (A) (A) (A) (A) (A) (A)
       Virtual   (A) (A) (A) (A) (A) (A) (A) (A) (A) (A) (A) (A)
                 (A) (A) (A) (A) (A) (A) (A) (A) (A) (A) (A) (A)
                 (A) (A) (A) (A) (A) (A) (A) (A) (A) (A) (A) (A)
                 (A) (A) (A) (A) (A) (A) (A) (A) (A) (A) (A) (A)
                 (A) (A) (A) (A) (A) (A) (A) (A) (A) (A) (A) (A)
                 (A) (A) (A) (A) (A) (A) (A) (A) (A) (A) (A) (A)
                 (A) (A) (A) (A) (A) (A) (A) (A) (A) (A) (A) (A)
                 (A) (A) (A) (A) (A) (A) (A) (A) (A) (A) (A) (A)
                 (A) (A) (A) (A) (A) (A) (A) (A) (A) (A) (A) (A)
                 (A) (A) (A) (A) (A) (A) (A) (A) (A) (A) (A) (A)
                 (A) (A) (A) (A) (A) (A) (A) (A) (A) (A) (A) (A)
                 (A) (A) (A) (A) (A) (A) (A) (A) (A) (A) (A) (A)
                 (A) (A) (A) (A) (A) (A) (A) (A) (A) (A) (A) (A)
                 (A) (A) (A) (A) (A) (A) (A) (A) (A) (A) (A) (A)
                 (A) (A) (A) (A) (A) (A) (A) (A) (A) (A) (A) (A)
                 (A) (A) (A) (A) (A) (A) (A) (A) (A) (A) (A) (A)
                 (A) (A) (A) (A) (A) (A) (A) (A) (A) (A) (A) (A)
                 (A) (A) (A) (A) (A) (A) (A) (A) (A) (A) (A) (A)
                 (A) (A) (A) (A) (A) (A) (A) (A) (A) (A) (A) (A)
                 (A) (A) (A) (A) (A) (A) (A) (A) (A) (A) (A) (A)
                 (A) (A) (A) (A) (A) (A) (A) (A) (A) (A) (A) (A)
                 (A) (A) (A) (A) (A) (A) (A) (A) (A) (A) (A) (A)
                 (A) (A) (A) (A) (A) (A) (A) (A) (A) (A) (A) (A)
                 (A) (A) (A) (A) (A) (A) (A) (A) (A) (A) (A) (A)
                 (A) (A) (A) (A) (A) (A) (A) (A) (A) (A) (A) (A)
                 (A) (A) (A) (A) (A) (A) (A) (A) (A) (A) (A) (A)
                 (A) (A) (A) (A) (A) (A) (A) (A) (A) (A) (A) (A)
                 (A) (A) (A) (A) (A) (A) (A) (A) (A) (A) (A) (A)
                 (A) (A) (A) (A) (A) (A) (A) (A) (A) (A) (A) (A)
                 (A) (A) (A) (A) (A) (A) (A) (A) (A) (A) (A) (A)
                 (A) (A) (A) (A) (A) (A) (A) (A) (A) (A) (A) (A)
                 (A) (A) (A) (A) (A) (A) (A) (A) (A) (A) (A) (A)
                 (A) (A) (A) (A) (A) (A) (A) (A) (A) (A) (A) (A)
                 (A) (A) (A) (A) (A) (A) (A) (A) (A) (A) (A) (A)
                 (A) (A) (A) (A) (A) (A) (A) (A) (A) (A) (A) (A)
                 (A) (A) (A) (A) (A) (A) (A) (A) (A) (A) (A) (A)
                 (A) (A) (A) (A) (A) (A) (A) (A) (A) (A) (A) (A)
                 (A) (A) (A) (A) (A) (A) (A) (A) (A) (A) (A) (A)
                 (A) (A) (A) (A) (A) (A) (A) (A) (A) (A) (A) (A)
                 (A) (A) (A) (A) (A) (A) (A) (A) (A) (A) (A) (A)
                 (A) (A) (A) (A) (A) (A) (A) (A) (A) (A) (A) (A)
                 (A) (A)
 The electronic state is 1-A.
 Alpha  occ. eigenvalues --  -19.60223 -19.53780 -14.70209 -10.59303 -10.55385
 Alpha  occ. eigenvalues --  -10.51448 -10.51232 -10.50688 -10.50167 -10.49748
 Alpha  occ. eigenvalues --  -10.47726  -1.15882  -1.06620  -0.98286  -0.86724
 Alpha  occ. eigenvalues --   -0.82766  -0.76243  -0.74817  -0.69931  -0.65335
 Alpha  occ. eigenvalues --   -0.59589  -0.56384  -0.54160  -0.51891  -0.50354
 Alpha  occ. eigenvalues --   -0.49712  -0.48413  -0.47152  -0.45668  -0.43439
 Alpha  occ. eigenvalues --   -0.43248  -0.42183  -0.41208  -0.40449  -0.38356
 Alpha  occ. eigenvalues --   -0.37155  -0.37025  -0.36290  -0.35312  -0.31888
 Alpha  occ. eigenvalues --   -0.29406  -0.27086  -0.17410
 Alpha virt. eigenvalues --    0.06878   0.09768   0.10653   0.12526   0.13156
 Alpha virt. eigenvalues --    0.13676   0.14417   0.15063   0.15331   0.15865
 Alpha virt. eigenvalues --    0.16672   0.17024   0.17397   0.18503   0.18809
 Alpha virt. eigenvalues --    0.19250   0.20318   0.20689   0.21379   0.22668
 Alpha virt. eigenvalues --    0.24537   0.24772   0.25193   0.25441   0.27769
 Alpha virt. eigenvalues --    0.28031   0.28978   0.29316   0.30150   0.30968
 Alpha virt. eigenvalues --    0.32770   0.34036   0.35145   0.35582   0.36827
 Alpha virt. eigenvalues --    0.38000   0.38294   0.39632   0.40071   0.42106
 Alpha virt. eigenvalues --    0.42696   0.43560   0.44439   0.44961   0.46115
 Alpha virt. eigenvalues --    0.46247   0.46674   0.47076   0.47712   0.48530
 Alpha virt. eigenvalues --    0.48998   0.49476   0.49589   0.50125   0.50868
 Alpha virt. eigenvalues --    0.51374   0.52252   0.52767   0.53312   0.54176
 Alpha virt. eigenvalues --    0.54376   0.55164   0.56816   0.57534   0.58733
 Alpha virt. eigenvalues --    0.59553   0.60247   0.61202   0.62573   0.63038
 Alpha virt. eigenvalues --    0.64803   0.65040   0.67208   0.68691   0.69328
 Alpha virt. eigenvalues --    0.70155   0.71028   0.71925   0.73601   0.74726
 Alpha virt. eigenvalues --    0.75097   0.77282   0.79041   0.79422   0.80689
 Alpha virt. eigenvalues --    0.81536   0.83675   0.84881   0.86314   0.86839
 Alpha virt. eigenvalues --    0.87623   0.89871   0.90889   0.91562   0.94076
 Alpha virt. eigenvalues --    0.94945   0.95558   0.97063   0.97292   0.97893
 Alpha virt. eigenvalues --    0.98391   0.99366   0.99807   1.00812   1.02465
 Alpha virt. eigenvalues --    1.02848   1.04059   1.04765   1.05762   1.06342
 Alpha virt. eigenvalues --    1.07317   1.08998   1.10143   1.12980   1.13242
 Alpha virt. eigenvalues --    1.14984   1.15058   1.15968   1.16901   1.17262
 Alpha virt. eigenvalues --    1.18236   1.19681   1.21243   1.22473   1.23431
 Alpha virt. eigenvalues --    1.24233   1.24670   1.24736   1.26322   1.26778
 Alpha virt. eigenvalues --    1.27374   1.29171   1.31540   1.32497   1.34179
 Alpha virt. eigenvalues --    1.34804   1.35793   1.37695   1.39345   1.40905
 Alpha virt. eigenvalues --    1.41502   1.44153   1.45649   1.46138   1.46640
 Alpha virt. eigenvalues --    1.46873   1.47378   1.49028   1.49634   1.49744
 Alpha virt. eigenvalues --    1.50656   1.51760   1.52592   1.53035   1.54350
 Alpha virt. eigenvalues --    1.55018   1.56539   1.57342   1.57657   1.58324
 Alpha virt. eigenvalues --    1.59348   1.59434   1.60206   1.60592   1.62343
 Alpha virt. eigenvalues --    1.63598   1.64894   1.65571   1.67360   1.68327
 Alpha virt. eigenvalues --    1.69328   1.70846   1.72470   1.73640   1.76864
 Alpha virt. eigenvalues --    1.77582   1.79664   1.81181   1.83491   1.85834
 Alpha virt. eigenvalues --    1.87546   1.88916   1.91217   1.95296   1.96771
 Alpha virt. eigenvalues --    1.97511   2.00405   2.03622   2.04976   2.08965
 Alpha virt. eigenvalues --    2.10711   2.12785   2.12998   2.14214   2.15419
 Alpha virt. eigenvalues --    2.17010   2.20840   2.21279   2.24697   2.27534
 Alpha virt. eigenvalues --    2.27969   2.29954   2.30926   2.33611   2.38126
 Alpha virt. eigenvalues --    2.41662   2.42640   2.44973   2.45275   2.48171
 Alpha virt. eigenvalues --    2.49964   2.52125   2.53201   2.54980   2.56124
 Alpha virt. eigenvalues --    2.57534   2.58589   2.59597   2.61076   2.61163
 Alpha virt. eigenvalues --    2.62091   2.65149   2.66952   2.67369   2.69530
 Alpha virt. eigenvalues --    2.71081   2.72608   2.76149   2.77444   2.79472
 Alpha virt. eigenvalues --    2.81522   2.81590   2.83554   2.85421   2.85898
 Alpha virt. eigenvalues --    2.86530   2.87086   2.87464   2.88757   2.89800
 Alpha virt. eigenvalues --    2.91567   2.92847   2.93793   2.95112   2.95561
 Alpha virt. eigenvalues --    2.96036   2.96915   2.97679   2.98342   2.98979
 Alpha virt. eigenvalues --    3.00521   3.00647   3.02379   3.03649   3.04150
 Alpha virt. eigenvalues --    3.05861   3.06801   3.07790   3.08747   3.09411
 Alpha virt. eigenvalues --    3.09815   3.10871   3.12116   3.13491   3.14373
 Alpha virt. eigenvalues --    3.14895   3.16232   3.16923   3.18294   3.18911
 Alpha virt. eigenvalues --    3.19134   3.19570   3.20490   3.20826   3.22167
 Alpha virt. eigenvalues --    3.24344   3.24814   3.25676   3.27075   3.28555
 Alpha virt. eigenvalues --    3.29615   3.31962   3.33132   3.33514   3.34083
 Alpha virt. eigenvalues --    3.35065   3.35772   3.35866   3.36673   3.38693
 Alpha virt. eigenvalues --    3.39402   3.40814   3.42011   3.43024   3.44563
 Alpha virt. eigenvalues --    3.47548   3.48205   3.48854   3.49425   3.50181
 Alpha virt. eigenvalues --    3.51515   3.52378   3.52753   3.55167   3.55746
 Alpha virt. eigenvalues --    3.56524   3.58120   3.59068   3.60140   3.60508
 Alpha virt. eigenvalues --    3.61934   3.63522   3.63663   3.64546   3.64911
 Alpha virt. eigenvalues --    3.66085   3.67784   3.69526   3.72186   3.73571
 Alpha virt. eigenvalues --    3.75198   3.76120   3.77310   3.79439   3.79787
 Alpha virt. eigenvalues --    3.81808   3.82259   3.83318   3.84405   3.85418
 Alpha virt. eigenvalues --    3.87094   3.87872   3.89088   3.89594   3.89848
 Alpha virt. eigenvalues --    3.91940   3.92689   3.93777   3.95037   3.95496
 Alpha virt. eigenvalues --    3.96137   3.97108   3.98268   3.98615   3.99771
 Alpha virt. eigenvalues --    4.00329   4.00951   4.01924   4.03322   4.03720
 Alpha virt. eigenvalues --    4.04843   4.05026   4.06313   4.06801   4.07795
 Alpha virt. eigenvalues --    4.08853   4.09525   4.11276   4.12223   4.12503
 Alpha virt. eigenvalues --    4.13050   4.15278   4.16010   4.16734   4.19382
 Alpha virt. eigenvalues --    4.21246   4.21893   4.24005   4.24259   4.25980
 Alpha virt. eigenvalues --    4.26992   4.28082   4.30599   4.31703   4.32007
 Alpha virt. eigenvalues --    4.34106   4.36364   4.39505   4.40434   4.43961
 Alpha virt. eigenvalues --    4.47027   4.49538   4.50529   4.52726   4.53853
 Alpha virt. eigenvalues --    4.55161   4.56116   4.57907   4.58098   4.58982
 Alpha virt. eigenvalues --    4.60347   4.63836   4.64571   4.65315   4.69752
 Alpha virt. eigenvalues --    4.71549   4.73454   4.75045   4.76169   4.78246
 Alpha virt. eigenvalues --    4.79173   4.79772   4.81661   4.84888   4.85550
 Alpha virt. eigenvalues --    4.86871   4.87583   4.89750   4.90260   4.91704
 Alpha virt. eigenvalues --    4.94687   4.96781   4.97124   5.01522   5.02340
 Alpha virt. eigenvalues --    5.05055   5.09769   5.11490   5.12049   5.14928
 Alpha virt. eigenvalues --    5.17160   5.17481   5.18506   5.21594   5.22521
 Alpha virt. eigenvalues --    5.24373   5.25076   5.26524   5.27608   5.28125
 Alpha virt. eigenvalues --    5.29300   5.29583   5.30405   5.31572   5.32895
 Alpha virt. eigenvalues --    5.34004   5.35256   5.36492   5.37910   5.39086
 Alpha virt. eigenvalues --    5.40264   5.41330   5.42860   5.43933   5.46467
 Alpha virt. eigenvalues --    5.47575   5.51476   5.51951   5.52397   5.52816
 Alpha virt. eigenvalues --    5.58154   5.58630   5.59862   5.60501   5.61873
 Alpha virt. eigenvalues --    5.62374   5.63409   5.64044   5.65895   5.67201
 Alpha virt. eigenvalues --    5.71869   5.76751   5.86735   5.90141   5.93759
 Alpha virt. eigenvalues --    6.01033   6.06252   6.20860   6.24519   6.30708
 Alpha virt. eigenvalues --    6.43237   6.48493   6.55550   6.62364   6.76955
 Alpha virt. eigenvalues --    6.78464   6.86991   6.95047   7.00740   7.15128
 Alpha virt. eigenvalues --    7.21131   7.38263   7.46350  23.19553  23.24236
 Alpha virt. eigenvalues --   23.43600  23.45956  23.52312  23.67472  23.70735
 Alpha virt. eigenvalues --   23.79034  32.89956  44.19725  44.49795
          Condensed to atoms (all electrons):
               1          2          3          4          5          6
     1  O    8.125139   0.639456  -0.122625  -0.000751   0.002526  -0.000612
     2  C    0.639456   4.475179   0.514916  -0.087117   0.002395   0.000385
     3  C   -0.122625   0.514916   5.338942   0.445273  -0.202811   0.008707
     4  N   -0.000751  -0.087117   0.445273   6.430796   0.641579  -0.121403
     5  C    0.002526   0.002395  -0.202811   0.641579   5.209539   0.231908
     6  C   -0.000612   0.000385   0.008707  -0.121403   0.231908   5.228542
     7  C    0.000119  -0.000546  -0.000781  -0.003022  -0.045268   0.254191
     8  C   -0.000006  -0.000222   0.000723   0.003757  -0.101201   0.294554
     9  O   -0.112058   0.282764  -0.106093   0.005018   0.000338  -0.000073
    10  C   -0.006133  -0.068300  -0.004394  -0.000153   0.000061  -0.000022
    11  C   -0.028089   0.008094   0.008790  -0.000072  -0.000040   0.000005
    12  H    0.004907  -0.053839   0.410467  -0.051255  -0.009822  -0.008211
    13  H   -0.000055  -0.004153  -0.007011  -0.055151   0.451763  -0.114896
    14  H   -0.000008   0.000119   0.000454  -0.000913  -0.068541   0.465810
    15  H    0.000012   0.000031   0.000053   0.001885   0.017458  -0.054223
    16  H    0.000193  -0.000184  -0.001251   0.005251  -0.005431  -0.030212
    17  H    0.000553  -0.000212  -0.000690   0.009430  -0.007718  -0.038194
    18  H    0.000000   0.000008   0.000007  -0.000255   0.016891  -0.040660
    19  H    0.000000  -0.000001   0.000021   0.000315  -0.006819  -0.039932
    20  H   -0.000000  -0.000027  -0.000681   0.001114  -0.002471  -0.022826
    21  H    0.020096  -0.015008   0.003646  -0.000078   0.000001   0.000004
    22  H    0.001750   0.006586   0.001379   0.000004  -0.000000   0.000000
    23  H    0.018283   0.000516  -0.000276  -0.000000   0.000040  -0.000000
    24  H    0.001298  -0.002926  -0.000407   0.000005   0.000005  -0.000000
    25  H    0.000406  -0.000117  -0.000329   0.000000   0.000000  -0.000000
               7          8          9         10         11         12
     1  O    0.000119  -0.000006  -0.112058  -0.006133  -0.028089   0.004907
     2  C   -0.000546  -0.000222   0.282764  -0.068300   0.008094  -0.053839
     3  C   -0.000781   0.000723  -0.106093  -0.004394   0.008790   0.410467
     4  N   -0.003022   0.003757   0.005018  -0.000153  -0.000072  -0.051255
     5  C   -0.045268  -0.101201   0.000338   0.000061  -0.000040  -0.009822
     6  C    0.254191   0.294554  -0.000073  -0.000022   0.000005  -0.008211
     7  C    5.019785  -0.051837   0.000013   0.000004  -0.000000   0.000746
     8  C   -0.051837   5.081335  -0.000001  -0.000000   0.000000   0.000082
     9  O    0.000013  -0.000001   8.154884   0.237971  -0.054447   0.014602
    10  C    0.000004  -0.000000   0.237971   4.869687   0.238543   0.002161
    11  C   -0.000000   0.000000  -0.054447   0.238543   5.117617   0.000036
    12  H    0.000746   0.000082   0.014602   0.002161   0.000036   0.617838
    13  H    0.012957  -0.001533   0.000065   0.000028  -0.000003   0.022863
    14  H   -0.051216  -0.088884  -0.000001   0.000000  -0.000000   0.000020
    15  H    0.422332  -0.007730   0.000000   0.000000  -0.000000   0.000017
    16  H    0.407873  -0.017635   0.000003   0.000002  -0.000002   0.000092
    17  H    0.416799   0.012518   0.000010  -0.000003   0.000001   0.000154
    18  H   -0.009314   0.408793   0.000000   0.000000  -0.000000  -0.000002
    19  H    0.010462   0.414827   0.000000   0.000000  -0.000000   0.000064
    20  H   -0.011381   0.387990   0.000000   0.000000  -0.000000   0.000005
    21  H   -0.000001  -0.000000  -0.048903   0.442100  -0.078780  -0.000063
    22  H   -0.000000  -0.000000  -0.035638   0.416006  -0.047280  -0.000354
    23  H   -0.000001  -0.000000  -0.003634  -0.032697   0.399619  -0.000136
    24  H    0.000000  -0.000000   0.005046  -0.031711   0.387356   0.000038
    25  H   -0.000000  -0.000000   0.005692  -0.029013   0.392023   0.000000
              13         14         15         16         17         18
     1  O   -0.000055  -0.000008   0.000012   0.000193   0.000553   0.000000
     2  C   -0.004153   0.000119   0.000031  -0.000184  -0.000212   0.000008
     3  C   -0.007011   0.000454   0.000053  -0.001251  -0.000690   0.000007
     4  N   -0.055151  -0.000913   0.001885   0.005251   0.009430  -0.000255
     5  C    0.451763  -0.068541   0.017458  -0.005431  -0.007718   0.016891
     6  C   -0.114896   0.465810  -0.054223  -0.030212  -0.038194  -0.040660
     7  C    0.012957  -0.051216   0.422332   0.407873   0.416799  -0.009314
     8  C   -0.001533  -0.088884  -0.007730  -0.017635   0.012518   0.408793
     9  O    0.000065  -0.000001   0.000000   0.000003   0.000010   0.000000
    10  C    0.000028   0.000000   0.000000   0.000002  -0.000003   0.000000
    11  C   -0.000003  -0.000000  -0.000000  -0.000002   0.000001  -0.000000
    12  H    0.022863   0.000020   0.000017   0.000092   0.000154  -0.000002
    13  H    0.650828  -0.001169   0.000094   0.000680   0.000808  -0.000499
    14  H   -0.001169   0.672348  -0.005998   0.010322  -0.007605  -0.002033
    15  H    0.000094  -0.005998   0.568848  -0.025997  -0.021790   0.002267
    16  H    0.000680   0.010322  -0.025997   0.566717  -0.024780   0.000617
    17  H    0.000808  -0.007605  -0.021790  -0.024780   0.547142  -0.000401
    18  H   -0.000499  -0.002033   0.002267   0.000617  -0.000401   0.563315
    19  H    0.004255  -0.003687  -0.000030   0.000035  -0.000398  -0.023291
    20  H    0.000258   0.011196  -0.000037   0.005635  -0.000346  -0.021624
    21  H   -0.000003   0.000000  -0.000000  -0.000001  -0.000001  -0.000000
    22  H    0.000000   0.000000  -0.000000   0.000000  -0.000000   0.000000
    23  H   -0.000000   0.000000   0.000000   0.000003  -0.000002   0.000000
    24  H   -0.000000   0.000000  -0.000000   0.000000  -0.000000   0.000000
    25  H    0.000000   0.000000   0.000000   0.000000  -0.000000   0.000000
              19         20         21         22         23         24
     1  O    0.000000  -0.000000   0.020096   0.001750   0.018283   0.001298
     2  C   -0.000001  -0.000027  -0.015008   0.006586   0.000516  -0.002926
     3  C    0.000021  -0.000681   0.003646   0.001379  -0.000276  -0.000407
     4  N    0.000315   0.001114  -0.000078   0.000004  -0.000000   0.000005
     5  C   -0.006819  -0.002471   0.000001  -0.000000   0.000040   0.000005
     6  C   -0.039932  -0.022826   0.000004   0.000000  -0.000000  -0.000000
     7  C    0.010462  -0.011381  -0.000001  -0.000000  -0.000001   0.000000
     8  C    0.414827   0.387990  -0.000000  -0.000000  -0.000000  -0.000000
     9  O    0.000000   0.000000  -0.048903  -0.035638  -0.003634   0.005046
    10  C    0.000000   0.000000   0.442100   0.416006  -0.032697  -0.031711
    11  C   -0.000000  -0.000000  -0.078780  -0.047280   0.399619   0.387356
    12  H    0.000064   0.000005  -0.000063  -0.000354  -0.000136   0.000038
    13  H    0.004255   0.000258  -0.000003   0.000000  -0.000000  -0.000000
    14  H   -0.003687   0.011196   0.000000   0.000000   0.000000   0.000000
    15  H   -0.000030  -0.000037  -0.000000  -0.000000   0.000000  -0.000000
    16  H    0.000035   0.005635  -0.000001   0.000000   0.000003   0.000000
    17  H   -0.000398  -0.000346  -0.000001  -0.000000  -0.000002  -0.000000
    18  H   -0.023291  -0.021624  -0.000000   0.000000   0.000000   0.000000
    19  H    0.562760  -0.025010  -0.000000   0.000000   0.000000   0.000000
    20  H   -0.025010   0.571279   0.000000   0.000000   0.000000   0.000000
    21  H   -0.000000   0.000000   0.606712  -0.028623  -0.008470   0.009427
    22  H    0.000000   0.000000  -0.028623   0.585590   0.006758  -0.006220
    23  H    0.000000   0.000000  -0.008470   0.006758   0.548794  -0.025878
    24  H    0.000000   0.000000   0.009427  -0.006220  -0.025878   0.581840
    25  H    0.000000   0.000000   0.003848  -0.002719  -0.022021  -0.017587
              25
     1  O    0.000406
     2  C   -0.000117
     3  C   -0.000329
     4  N    0.000000
     5  C    0.000000
     6  C   -0.000000
     7  C   -0.000000
     8  C   -0.000000
     9  O    0.005692
    10  C   -0.029013
    11  C    0.392023
    12  H    0.000000
    13  H    0.000000
    14  H    0.000000
    15  H    0.000000
    16  H    0.000000
    17  H   -0.000000
    18  H    0.000000
    19  H    0.000000
    20  H    0.000000
    21  H    0.003848
    22  H   -0.002719
    23  H   -0.022021
    24  H   -0.017587
    25  H    0.569659
 Mulliken charges:
               1
     1  O   -0.544400
     2  C    0.302203
     3  C   -0.286030
     4  N   -0.224257
     5  C   -0.124381
     6  C   -0.012846
     7  C   -0.371912
     8  C   -0.335528
     9  O   -0.345558
    10  C   -0.034137
    11  C   -0.343371
    12  H    0.049589
    13  H    0.039874
    14  H    0.069787
    15  H    0.102807
    16  H    0.108068
    17  H    0.114725
    18  H    0.106179
    19  H    0.106431
    20  H    0.106925
    21  H    0.094095
    22  H    0.102761
    23  H    0.119104
    24  H    0.099715
    25  H    0.100156
 Sum of Mulliken charges =  -1.00000
 Mulliken charges with hydrogens summed into heavy atoms:
               1
     1  O   -0.544400
     2  C    0.302203
     3  C   -0.236441
     4  N   -0.224257
     5  C   -0.084507
     6  C    0.056942
     7  C   -0.046312
     8  C   -0.015993
     9  O   -0.345558
    10  C    0.162719
    11  C   -0.024396
 Electronic spatial extent (au):  <R**2>=           3234.0242
 Charge=             -1.0000 electrons
 Dipole moment (field-independent basis, Debye):
    X=              2.0843    Y=             -1.8733    Z=              1.1199  Tot=              3.0179
 Quadrupole moment (field-independent basis, Debye-Ang):
   XX=            -80.6208   YY=            -79.6293   ZZ=            -74.3250
   XY=              1.0147   XZ=             -1.1477   YZ=              0.5838
 Traceless Quadrupole moment (field-independent basis, Debye-Ang):
   XX=             -2.4291   YY=             -1.4376   ZZ=              3.8667
   XY=              1.0147   XZ=             -1.1477   YZ=              0.5838
 Octapole moment (field-independent basis, Debye-Ang**2):
  XXX=            -32.8885  YYY=             -6.8102  ZZZ=             -0.9579  XYY=              3.5372
  XXY=             -1.0432  XXZ=             -6.1057  XZZ=             -6.0801  YZZ=              2.5836
  YYZ=              1.4295  XYZ=              0.9345
 Hexadecapole moment (field-independent basis, Debye-Ang**3):
 XXXX=          -3906.7575 YYYY=           -411.3093 ZZZZ=           -245.6439 XXXY=             11.6877
 XXXZ=             -2.3615 YYYX=              0.5313 YYYZ=              1.1860 ZZZX=              5.6220
 ZZZY=             -2.6844 XXYY=           -746.5918 XXZZ=           -715.3829 YYZZ=           -109.8388
 XXYZ=              2.5897 YYXZ=             -3.5177 ZZXY=              4.5970
 N-N= 5.967436328441D+02 E-N=-2.417317801429D+03  KE= 5.158176812076D+02
 Unable to Open any file for archive entry.
 1\1\GINC-NOTCH152\SP\RM062X\def2TZVPP\C8H14N1O2(1-)\U6067110\18-Jul-20
 25\0\\#N Guess=Read Geom=Check Integral(Ultrafine) Density NMR M062X E
 mpiricalDispersion=GD3 def2TZVPP SCRF(IEFPCM,solvent=thf)\\A18_crest_c
 onformers_censo-14\\-1,1\O,0,1.5567891538,-0.6749407221,-1.1013740135\
 C,0,1.4005029597,0.1152084026,-0.1770415053\C,0,0.2303732228,0.6390831
 376,0.4109362641\N,0,-0.9914393133,0.2716860451,-0.0365141575\C,0,-2.0
 966443592,0.7112140169,0.4450003523\C,0,-3.4429235883,0.2773817429,-0.
 0894446632\C,0,-3.2944679599,-0.8078422347,-1.1493307346\C,0,-4.360558
 8739,-0.1833860658,1.0486730916\O,0,2.5470051896,0.6369585037,0.460519
 1266\C,0,3.7713347394,0.1748226541,-0.0344424623\C,0,4.1251977059,-1.2
 040976807,0.5078867801\H,0,0.3441325017,1.3530716668,1.239657089\H,0,-
 2.1168715868,1.445261963,1.2803317953\H,0,-3.9413808299,1.1500197575,-
 0.5637616343\H,0,-4.2734708158,-1.0918827582,-1.5698599546\H,0,-2.8193
 085762,-1.6967879346,-0.7083582196\H,0,-2.6275731905,-0.4709949567,-1.
 9530779114\H,0,-5.3766587924,-0.417524316,0.6877625347\H,0,-4.44626209
 9,0.5927214851,1.8258486905\H,0,-3.9441104616,-1.0856077268,1.52484424
 35\H,0,3.7475752764,0.1329910932,-1.135067437\H,0,4.5293346779,0.91412
 84354,0.2751712826\H,0,3.3767949951,-1.9218761419,0.147573421\H,0,4.11
 20603071,-1.1957793543,1.6081396379\H,0,5.1237197172,-1.5233790121,0.1
 683483839\\Version=ES64L-G16RevC.01\State=1-A\HF=-518.550031\RMSD=1.29
 7e-09\Dipole=-0.8138402,0.1675624,0.8481417\Quadrupole=-1.8094422,1.65
 50207,0.1544215,-0.0551398,1.0708144,-1.9109414\PG=C01 [X(C8H14N1O2)]\
 \@
 The archive entry for this job was punched.


 ACHIEVEMENT--  THE MAN WHO ROWS THE BOAT GENERALLY 
                DOESN'T HAVE TIME TO ROCK IT.

                   -- FROM THE BACK OF A SUGAR PACKET
 Job cpu time:       0 days  1 hours 29 minutes 42.7 seconds.
 Elapsed time:       0 days  0 hours  3 minutes 23.0 seconds.
 File lengths (MBytes):  RWF=    244 Int=      0 D2E=      0 Chk=     27 Scr=      2
 Normal termination of Gaussian 16 at Fri Jul 18 23:35:58 2025.
